##TITLE=ad16_1 Oct 02 12:13:22 2026 (GMT+02:00)
##JCAMP-DX=5.01  $$ Nicolet v. 970
##DATATYPE=INFRARED SPECTRUM
##ORIGIN=Vojna akademija
##OWNER=Nicolet
##LONGDATE=2026/10/02
##TIME=12:14:02
##SPECTROMETER/DATA SYSTEM=Nicolet iS20
##DATA PROCESSING=
Ratio against background
%Transmittance->Absorbance
Truncated
ElementMultiply or ElementDivide
##COMMENTS=
Number of sample scans: 8
Collection length: 11,90 sec
Sample gain: 8,0
Background collected on: Fri Oct 02 12:12:30 2026 (GMT+02:00);
Number of background scans: 8
Background gain: 8,0
Sample spacing:  1,000
Number of scan points: 12415
Resolution points: 8286
Number of FFT points: 65536
Apodization: N-B strong;
Phase correction: Mertz;
Laser frequency: 15798,00 cm-1
Number of rejected sample scans: 0
Number of rejected background scans: 0
Bench serial number: BER2010005;
##RESOLUTION= 4,000
##XUNITS=1/CM
##YUNITS=ABSORBANCE
##FIRSTX=400.156891
##LASTX=4000.123047
##FIRSTY=0.036227
##MAXX=4000.123047
##MINX=400.156891
##MAXY=0.265682
##MINY=-0.001434
##XFACTOR=1.000000
##YFACTOR=1.000000E-009
##NPOINTS=7468
##DELTAX=0.482117
##ZPD=6100
##XYDATA=(X++(Y..Y))
400.157 36227264 32851194 30421520 29119716 28829060 29211106 29883094 
403.532 30509202 30903616 31030220 30952644 30768724 30534618 30232710 
406.907 29790536 29128682 28223578 27130104 25965010 24841168 23793966 
410.281 22743034 21519680 19963286 18023346 15848346 13792492 12341248 
413.656 11894229 12638880 14466578 17054770 19955934 22731686 25046532 
417.031 26650910 27424992 27386698 26734310 25781644 24865062 24227272 
420.406 23977790 24167332 24826926 25954704 27494100 29287872 31092680 
423.781 32589246 33507582 33713216 33229642 32188944 30741090 28994484 
427.155 27005656 24829030 22572540 20408242 18579142 17322410 16790122 
430.530 17000222 17804982 18928356 20025600 20821808 21165664 21063048 
433.905 20640252 20100934 19663752 19500490 19715652 20308756 21191790 
437.280 22214456 23222476 24089046 24725896 25093008 25187100 25028596 
440.655 24641372 24040226 23221218 22176830 20928400 19558854 18219012 
444.030 17113566 16429614 16294055 16737465 17681830 18946112 20279070 
447.404 21435814 22214420 22517574 22352506 21801896 20988694 20049264 
450.779 19139874 18409410 17989880 17960042 18308828 18932060 19667842 
454.154 20368270 20938726 21383844 21798690 22348982 23198358 24427684 
457.529 25958608 27556726 28919430 29817398 30192570 30132618 29807142 
460.904 29385926 29009220 28750460 28611320 28528832 28401718 28120732 
464.278 27585714 26732372 25538050 24039912 22336494 20595396 19012674 
467.653 17751858 16908164 16479962 16390216 16522087 16765807 17040848 
471.028 17298652 17516416 17674168 17740710 17677204 17452566 17066420 
474.403 16556267 15992155 15459811 15039654 14808043 14816614 15089188 
477.778 15612868 16336473 17167024 17978276 18636206 19004748 18987682 
481.152 18561644 17794868 16840992 15894294 15143806 14700783 14579262 
484.527 14698658 14936281 15172387 15343157 15452188 15546378 15672740 
487.902 15841816 16012849 16107572 16044101 15772885 15307151 14725188 
491.277 14150473 13702307 13469220 13472194 13663633 13942875 14195831 
494.652 14331493 14297556 14093789 13765882 13392635 13055183 12816540 
498.027 12700116 12686230 12726081 12765660 12770438 12738773 12705336 
501.401 12721372 12829099 13030292 13277731 13490548 13594739 13545443 
504.776 13344660 13032375 12669651 12314592 12001206 11738936 11519047 
508.151 11332769 11185292 11098571 11102922 11223100 11465564 11815538 
511.526 12240799 12704381 13168355 13597748 13956698 14197304 14265403 
514.901 14114840 13729597 13148854 12475375 11856942 11426715 11263054 
518.276 11348958 11585299 11823300 11930941 11843458 11575431 11205012 
521.650 10832158 10542619 10374608 10322079 10349530 10420932 10519297 
525.025 10657990 10868270 11179308 11591492 12067565 12540544 12940369 
528.400 13212826 13329388 13288765 13108863 12820055 12456007 12053529 
531.775 11650097 11280669 10980533 10778555 10692084 10719898 10836709 
535.150 10992258 11115193 11136440 11003166 10701152 10266470 9787859 
538.524 9386897 9180649 9254194 9620783 10216770 10909584 11547698 11999231 
542.381 12193531 12142759 11930941 11680048 11498191 11457535 11570836 
545.756 11803587 12096387 12394362 12663305 12886778 13054978 13148649 
549.131 13136730 12990825 12703187 12306547 11869166 11483596 11231907 
552.506 11159522 11267407 11516870 11849723 12211286 12571718 12923983 
555.881 13273085 13616449 13930763 14173238 14298755 14275298 14103784 
559.255 13817905 13476808 13143799 12874286 12708612 12669276 12766888 
562.630 13001613 13361710 13817769 14318924 14801563 15194313 15443742 
566.005 15531542 15482130 15353763 15222108 15157290 15199220 15355171 
569.380 15601431 15899828 16208576 16495138 16740289 16936966 17091060 
572.755 17221698 17362548 17554608 17837882 18237706 18749908 19333726 
576.130 19920408 20437136 20825248 21062074 21159020 21150844 21077100 
579.504 20971204 20861506 20772762 20734010 20776656 20921758 21166778 
582.879 21472924 21772666 21979616 22024160 21883568 21594404 21240292 
586.254 20919742 20708916 20629134 20645394 20684244 20675800 20580598 
589.629 20411922 20227206 20110202 20132064 20327782 20686016 21157140 
593.004 21673320 22165706 22580636 22873218 23005606 22949920 22694852 
596.378 22259828 21697074 21092544 20538318 20107736 19837788 19715064 
599.753 19683476 19664270 19589462 19417602 19145172 18797378 18415736 
603.128 18042238 17710096 17445392 17265344 17180262 17191534 17288618 
606.503 17445702 17622992 17779956 17882074 17915566 17889842 17832184 
609.878 17774156 17736980 17723072 17716962 17694220 17633482 17529354 
613.253 17394690 17255864 17138968 17062248 17024516 17007216 16977344 
616.627 16900240 16751481 16523466 16228318 15895119 15563343 15270530 
620.002 15048366 14917111 14883267 14943928 15088193 15301934 15567601 
623.377 15864290 16167168 16443001 16656928 16776172 16779238 16665466 
626.752 16456559 16191587 15910827 15646461 15411505 15199460 14994446 
630.127 14784114 14570422 14375466 14232670 14174915 14221475 14366972 
633.501 14583340 14827585 15059480 15250077 15390529 15489855 15567120 
636.876 15643781 15737634 15861060 16020138 16213117 16426310 16635651 
640.251 16804690 16896142 16887702 16782752 16618231 16454943 16363239 
643.626 16392142 16553136 16811026 17100744 17347512 17496442 17533286 
647.001 17483506 17398690 17330066 17314134 17359550 17455912 17585658 
650.375 17739880 17920538 18135022 18383658 18649902 18900496 19098672 
653.750 19216858 19253328 19231680 19196666 19193238 19253084 19387320 
657.125 19588700 19839626 20122624 20426022 20739326 21048338 21332996 
660.500 21569296 21740442 21847816 21917544 21994742 22128502 22356830 
663.875 22690594 23113644 23590420 24083794 24554798 24962402 25260420 
667.250 25390730 25310958 25043550 24703520 24431644 24321036 24404796 
670.624 24675600 25113474 25689886 26370314 27109402 27859428 28584034 
673.999 29260830 29885508 30462888 30998368 31491506 31938736 32339126 
677.374 32699228 33035352 33369518 33721276 34104460 34525940 34984780 
680.749 35477040 35994692 36525980 37052176 37550760 37999900 38387496 
684.124 38719108 39020048 39326712 39668988 40058768 40481848 40905340 
687.498 41288144 41603820 41851996 42059508 42265692 42507192 42803608 
690.873 43153576 43542248 43952128 44373848 44805528 45246604 45688728 
694.248 46109372 46476912 46763980 46960300 47082700 47172664 47283820 
697.623 47458680 47720768 48066692 48473608 48910196 49350384 49779424 
700.998 50192484 50589888 50972308 51341716 51702928 52068216 52457400 
704.373 52889220 53376244 53916744 54496308 55094732 55698964 56311800 
707.747 56952328 57646884 58414036 59254164 60146604 61057512 61954816 
711.122 62824728 63675204 64531072 65417916 66351032 67328912 68339528 
714.497 69374448 70440920 71566312 72789000 74139704 75627512 77229160 
717.872 78898112 80569712 82180272 83677240 85012728 86141344 87014648 
721.247 87582240 87810000 87692640 87262120 86576816 85706944 84710432 
724.621 83617912 82435248 81153672 79766272 78278328 76707256 75074688 
727.996 73396120 71676968 69917032 68123488 66318876 64543872 62847816 
731.371 61270016 59830776 58523248 57321076 56187980 55094244 54021420 
734.746 52960332 51904300 50841660 49755160 48629488 47462376 46272292 
738.121 45096384 43981716 42965224 42060164 41250720 40499816 39763716 
741.496 39007976 38222364 37419608 36628204 35876352 35184576 34558120 
744.870 33989208 33462416 32960278 32468148 31973046 31465892 30942110 
748.245 30405386 29869572 29359124 28903104 28522216 28221952 27984194 
751.620 27773834 27545784 27264610 26914906 26506944 26068228 25631956 
754.995 25222774 24848816 24504522 24181240 23878186 23610254 23405150 
758.370 23290852 23283616 23375428 23531896 23698812 23823508 23866912 
761.744 23815668 23682890 23500414 23305046 23125736 22978182 22862496 
765.119 22767196 22674150 22565526 22427828 22253202 22042044 21802034 
768.494 21548022 21295898 21061204 20852330 20669440 20504308 20345908 
771.869 20185238 20021332 19860852 19716830 19600830 19515704 19451768 
775.244 19387182 19296554 19157224 18959332 18709052 18426626 18137614 
778.619 17864120 17618576 17399036 17192568 16981754 16754167 16507769 
781.993 16254185 16013056 15807487 15653091 15551358 15487382 15435537 
785.368 15366499 15257180 15100338 14906550 14702497 14520056 14388549 
788.743 14325191 14330396 14388857 14475519 14563603 14627852 14651431 
792.118 14624974 14544621 14411772 14233082 14021987 13798716 13591423 
795.493 13430328 13339808 13333864 13410097 13551323 13727647 13906985 
798.867 14061138 14171937 14233458 14250851 14236403 14204253 14170294 
802.242 14148043 14146673 14170122 14214251 14267937 14315157 14341013 
805.617 14338101 14310842 14276086 14258590 14283277 14362589 14493813 
808.992 14656605 14820591 14951404 15024218 15028746 14969375 14861424 
812.367 14724914 14580016 14442497 14324438 14235547 14183302 14174265 
815.742 14212573 14298994 14429720 14597834 14793267 15004221 15220324 
819.116 15431829 15629835 15808553 15964791 16099630 16217932 16327664 
822.491 16436050 16546870 16657857 16761364 16848536 16912194 16952124 
825.866 16975896 16996744 17028788 17084236 17170196 17288516 17437320 
829.241 17612262 17806638 18009738 18206436 18377610 18502100 18564894 
832.616 18561852 18503828 18413420 18320960 18253844 18229208 18253638 
835.990 18325314 18439556 18595050 18794194 19040264 19329672 19648184 
839.365 19967762 20253032 20474368 20615166 20680908 20695224 20693384 
842.740 20707318 20757468 20847776 20969118 21105066 21239840 21363866 
846.115 21473062 21566998 21646084 21710554 21761622 21803462 21844228 
849.490 21893744 21958948 22040196 22128852 22209608 22265548 22286196 
852.865 22271756 22234020 22191336 22164626 22168670 22209154 22282534 
856.239 22378180 22481804 22577776 22653206 22697120 22702324 22667028 
859.614 22595470 22497996 22387844 22280092 22187152 22117344 22076486 
862.989 22069410 22101308 22178226 22303392 22472768 22670800 22872694 
866.364 23044458 23154078 23181338 23121402 22987090 22803092 22599694 
869.739 22402950 22232730 22102738 22022522 21999482 22038348 22138754 
873.113 22289508 22467324 22639870 22769918 22828306 22801974 22697192 
876.488 22537152 22355364 22187186 22058846 21987668 21978500 22026776 
879.863 22120692 22241726 22368204 22473850 22534220 22530170 22453296 
883.238 22309008 22115220 21898170 21682864 21490958 21336406 21226514 
886.613 21166152 21160792 21216632 21338354 21524414 21762318 22026984 
889.987 22287346 22510210 22670380 22756300 22769152 22718802 22617006 
893.362 22473394 22292648 22077114 21832138 21568252 21303728 21062110 
896.737 20863906 20723756 20643936 20616242 20625762 20657660 20704226 
900.112 20765532 20848124 20959310 21100928 21266806 21443090 21612756 
903.487 21763050 21889736 21997914 22098484 22201936 22310506 22415232 
906.862 22495448 22527344 22492412 22385542 22218570 22019386 21824996 
910.236 21667538 21569506 21537054 21560696 21619304 21686836 21738248 
913.611 21751798 21713308 21616656 21465228 21272514 21062458 20866722 
916.986 20715904 20634068 20629864 20694010 20800638 20916750 21012482 
920.361 21067848 21079082 21055500 21013454 20966924 20923426 20882540 
923.736 20840128 20793790 20746764 20708502 20691506 20703982 20745514 
927.110 20804392 20861368 20894464 20886330 20830220 20731716 20607452 
930.485 20479266 20372854 20309868 20305874 20367958 20493126 20669266 
933.860 20876734 21093622 21299866 21482498 21640060 21782978 21931520 
937.235 22107862 22332062 22614528 22952156 23329030 23719948 24095808 
940.610 24428316 24698678 24898080 25030314 25109998 25159010 25201214 
943.985 25254590 25329152 25423752 25530354 25639126 25746310 25857704 
947.359 25989634 26161052 26387356 26671028 26999450 27346044 27679322 
950.734 27974582 28218980 28416680 28583360 28739416 28899846 29070114 
954.109 29244384 29410958 29557414 29675680 29765198 29832624 29889554 
957.484 29949828 30027862 30134748 30276156 30448636 30638996 30825350 
960.859 30982426 31091720 31149134 31170316 31185802 31234436 31346000 
964.233 31529058 31765592 32016556 32234516 32377820 32427088 32387424 
967.608 32284942 32152050 32018520 31901472 31804200 31721212 31644620 
970.983 31569858 31496708 31427920 31367368 31318508 31283822 31267334 
974.358 31273212 31304654 31360496 31432230 31505794 31564154 31595438 
977.733 31599112 31587600 31581294 31600106 31654454 31739570 31837252 
981.108 31924184 31983816 32013598 32027472 32047912 32097854 32187804 
984.482 32311320 32446832 32567494 32650322 32685012 32676686 32642752 
987.857 32605496 32583386 32587636 32618638 32668222 32722056 32764502 
991.232 32781940 32765254 32712374 32628212 32523960 32412094 32303788 
994.607 32204966 32116086 32034534 31959314 31894446 31849910 31838500 
997.982 31869448 31944226 32054618 32186270 32324456 32463364 32606818 
1001.356 32765824 32949664 33157718 33374958 33575844 33733988 33835772 
1004.731 33889220 33922712 33971548 34064392 34207048 34380380 34545348 
1008.106 34662180 34709376 34693980 34650408 34626868 34670004 34804748 
1011.481 35030572 35323828 35651992 35984076 36300348 36593636 36862736 
1014.856 37106412 37319252 37492564 37620416 37703744 37753404 37786620 
1018.231 37822336 37875984 37955640 38063192 38196240 38350756 38520792 
1021.605 38698312 38873192 39032664 39166880 39272632 39356352 39432536 
1024.980 39518608 39627748 39762876 39916936 40077044 40233252 40383476 
1028.356 40534444 40696308 40873744 41058384 41227624 41349436 41397072 
1031.731 41357564 41240264 41071388 40887392 40720364 40587264 40488612 
1035.106 40410528 40333952 40241540 40124576 39982472 39822068 39651276 
1038.481 39478548 39310968 39153212 39008484 38878012 38760584 38652676 
1041.857 38550588 38452580 38361508 38285760 38236656 38225876 38259848 
1045.232 38337548 38450880 38588576 38739936 38899792 39069676 39257036 
1048.607 39470348 39716436 39996968 40308904 40645840 40999392 41361972 
1051.982 41726504 42086264 42435544 42769020 43084016 43380856 43663580 
1055.358 43939264 44217356 44510568 44832416 45198624 45623648 46115008 
1058.733 46668156 47261244 47858032 48410332 48873340 49219256 49445872 
1062.108 49577552 49656592 49729336 49826840 49959344 50117912 50284584 
1065.483 50445100 50597448 50752456 50925292 51125516 51349700 51582540 
1068.859 51806552 52013008 52210520 52422292 52679576 53007088 53413748 
1072.234 53891048 54420584 54986904 55585860 56228936 56936012 57726124 
1075.609 58606328 59569488 60597800 61673956 62787928 63940012 65135224 
1078.984 66374124 67644624 68923328 70180728 71394832 72559040 73683728 
1082.359 74786392 75881208 76968464 78035128 79062448 80039488 80972248 
1085.735 81885704 82812824 83781632 84805968 85880616 86987640 88104600 
1089.110 89213328 90299728 91348688 92339944 93245808 94039840 94710928 
1092.485 95270816 95755632 96210864 96673248 97150384 97615184 98012616 
1095.860 98285552 98391184 98317256 98079352 97708576 97234680 96675320 
1099.236 96038552 95330784 94566152 93771616 92978736 92216512 91501888 
1102.611 90836712 90214512 89629008 89082160 88583784 88146936 87780144 
1105.986 87484400 87256120 87096232 87019704 87054720 87238664 87601984 
1109.361 88153016 88871384 89710440 90615888 91537568 92447496 93340736 
1112.737 94226264 95112616 95996272 96860232 97681392 98441184 99131736 
1116.112 99753624 100304032 100765232 101102000 101266128 101217608 
1119.005 100942704 100460840 99817336 99063464 98237400 97348800 96385736 
1122.380 95330328 94180120 92962032 91730904 90552784 89492472 88592960 
1125.755 87873200 87337136 86982904 86815176 86849128 87104648 87600768 
1129.131 88347776 89345832 90589728 92075024 93803200 95779296 98005440 
1132.506 100472864 103154824 106012776 109003008 112086544 115239296 
1135.399 118445144 121686096 124931888 128129976 131215008 134127464 
1138.292 136826640 139305664 141584640 143695792 145662256 147489392 
1141.185 149166304 150680064 152029616 153231584 154310624 155287424 
1144.078 156163264 156921664 157541552 158019392 158383744 158698240 
1146.971 159037344 159465008 160010528 160661328 161374560 162102224 
1149.864 162815168 163511408 164211248 164938512 165705184 166503936 
1152.757 167315360 168122112 168921712 169725776 170547712 171386160 
1155.651 172214144 172982096 173640640 174155904 174527616 174783088 
1158.544 174959472 175077104 175128080 175078560 174892400 174553168 
1161.437 174079712 173516064 172912864 172295440 171650560 170930576 
1164.330 170080272 169065808 167893072 166604192 165257744 163901664 
1167.223 162551376 161193216 159799168 158351680 156855680 155338368 
1170.116 153830416 152348224 150880848 149394512 147848512 146220112 
1173.009 144513856 142761616 141003824 139272880 137579008 135911424 
1175.902 134250576 132584048 130915296 129261776 127643184 126069592 
1178.795 124534864 123022784 121517440 120016600 118535160 117099888 
1181.688 115734256 114445008 113216632 112018440 110818360 109595840 
1184.581 108350264 107097424 105859440 104650352 103472376 102315704 
1187.474 101168376 100023984 98887344 97770024 96684056 95632920 94608832 
1190.849 93596232 92580872 91556544 90528752 89510296 88515528 87552856 
1194.225 86622600 85720656 84843192 83992120 83174304 82396800 81661024 
1197.600 80958872 80275200 79594424 78910112 78229568 77573976 76970240 
1200.975 76437712 75982752 75593560 75246720 74913664 74573704 74218200 
1204.350 73850816 73482720 73127328 72795856 72495680 72231592 72006192 
1207.726 71819792 71668056 71539976 71420448 71290992 71138240 70957952 
1211.101 70757304 70550784 70355040 70181776 70033968 69907528 69796624 
1214.476 69699120 69619768 69567928 69552528 69577576 69639528 69729080 
1217.851 69836392 69957120 70093616 70253248 70442328 70660872 70901192 
1221.227 71151744 71402408 71652312 71911392 72197784 72528064 72910784 
1224.602 73340688 73801296 74269192 74723456 75152048 75549952 75917000 
1227.977 76252136 76550408 76803968 77007544 77162304 77277648 77369456 
1231.352 77454480 77544224 77643984 77753856 77872928 78001704 78142208 
1234.728 78294040 78449296 78591112 78695744 78739280 78707624 78601544 
1238.103 78435760 78230952 78005352 77764680 77502080 77201008 76845336 
1241.478 76426808 75948576 75422256 74861856 74279056 73677848 73058176 
1244.853 72417776 71756384 71075280 70376904 69661000 68925072 68166864 
1248.229 67388032 66599324 65819248 65070868 64375868 63745804 63180096 
1251.604 62668220 62195404 61748924 61323168 60921196 60550256 60217128 
1254.979 59923348 59664512 59431896 59215576 59007032 58801588 58595748 
1258.354 58386136 58168864 57940032 57698460 57446396 57190580 56938048 
1261.730 56693556 56457696 56227580 56000300 55776076 55559236 55355640 
1265.105 55167416 54989312 54806508 54599168 54351072 54054932 53718528 
1268.480 53363128 53018316 52710516 52458856 52270088 52139452 52055064 
1271.855 52002588 51968152 51938536 51902392 51848852 51770268 51664040 
1275.231 51535008 51394488 51255692 51128048 51010616 50891796 50750892 
1278.606 50567184 50328704 50036296 49703144 49348860 48990860 48636308 
1281.981 48279560 47905572 47497896 47044372 46543292 46003228 45441360 
1285.356 44879408 44337556 43835740 43388324 43003488 42682080 42417420 
1288.732 42196672 42004608 41829448 41665484 41515652 41388364 41292628 
1292.107 41232360 41202412 41188820 41174108 41143980 41091748 41021276 
1295.482 40944372 40874796 40821688 40787144 40765712 40748384 40726292 
1298.857 40693908 40649624 40592760 40522152 40434424 40325408 40193704 
1302.233 40040964 39873712 39699736 39525472 39353052 39180804 39005624 
1305.608 38827792 38653184 38494760 38367008 38281996 38243532 38245304 
1308.983 38272912 38307652 38334688 38344568 38335340 38311344 38279968 
1312.358 38248884 38224860 38212668 38214512 38230324 38256632 38287860 
1315.734 38315688 38333024 38335192 38322636 38299184 38269328 38233616 
1319.109 38185532 38111660 37995304 37824684 37596752 37319756 37009528 
1322.484 36685636 36363788 36052404 35752824 35462048 35176424 34895148 
1325.859 34620304 34355312 34102348 33860812 33628040 33402332 33185542 
1329.234 32984908 32810956 32674256 32581780 32534386 32527138 32552778 
1332.610 32605566 32684296 32792662 32936294 33120024 33343222 33600184 
1335.985 33879760 34169444 34459252 34742428 35016744 35281348 35535864 
1339.360 35779304 36010928 36233312 36451200 36670888 36897144 37130416 
1342.735 37366988 37599964 37823128 38032736 38229784 38418984 38606720 
1346.111 38797212 38990980 39185628 39377536 39564120 39744472 39917992 
1349.486 40081732 40228964 40350752 40438244 40488468 40506180 40504508 
1352.861 40498436 40499996 40513384 40532956 40548012 40548920 40534372 
1356.236 40512912 40499744 40509384 40549796 40618296 40703696 40790532 
1359.612 40867008 40928424 40978304 41025244 41078236 41141136 41211884 
1362.987 41284136 41353484 41419380 41485468 41554664 41626132 41694628 
1366.362 41752508 41793440 41816608 41828392 41841960 41871040 41924132 
1369.737 42002456 42101708 42218032 42354264 42523460 42749604 43064000 
1373.113 43493868 44051680 44723284 45467700 46224860 46933500 47540888 
1376.488 47996780 48254308 48266600 47992972 47418284 46562544 45482640 
1379.863 44250780 42939656 41602396 40269420 38961764 37698580 36502120 
1383.238 35395860 34392072 33486572 32656680 31868808 31087270 30288522 
1386.614 29471732 28659274 27885220 27179134 26553190 26003810 25520374 
1389.989 25092516 24713478 24380088 24090274 23841220 23629848 23455404 
1393.364 23320674 23230762 23188888 23190494 23219472 23255404 23282428 
1396.739 23295922 23304102 23324450 23375918 23468938 23598256 23743778 
1400.115 23881334 23991202 24065056 24102882 24105578 24070238 23987488 
1403.490 23844090 23631246 23354064 23037226 22718662 22439654 22230464 
1406.865 22104514 22063030 22101622 22217526 22412858 22694398 23067380 
1410.240 23530356 24072446 24673708 25311730 25969338 26635866 27306244 
1413.616 27976066 28635350 29267776 29853990 30373722 30812474 31161594 
1416.991 31414170 31560234 31585570 31478788 31246292 30925176 30571054 
1420.366 30231680 29932966 29674934 29441982 29213622 28975038 28725610 
1423.741 28484818 28286272 28166336 28148128 28236094 28424320 28706814 
1427.117 29085066 29568410 30167176 30883834 31702284 32589424 33503254 
1430.492 34406988 35279872 36116888 36922324 37702300 38459172 39193424 
1433.867 39907856 40610952 41321228 42064068 42861348 43708392 44565308 
1437.242 45372128 46081588 46682104 47192024 47642708 48066692 48488276 
1440.618 48919912 49360780 49800788 50226848 50629800 51010056 51376736 
1443.993 51743092 52118836 52508064 52909016 53320308 53747436 54208136 
1447.368 54729832 55345064 56074224 56924260 57892668 58977012 60181768 
1450.743 61515076 62979296 64555952 66201008 67857632 69462936 70975120 
1454.119 72378664 73675800 74878352 75989344 76992440 77845144 78513680 
1457.494 79007360 79370928 79658984 79899392 80098048 80255544 80377368 
1460.869 80476864 80571144 80675432 80797848 80933608 81063168 81145480 
1464.244 81116280 80896792 80392928 79514960 78193304 76375448 74051568 
1467.620 71256872 68077600 64615928 60977280 57232572 53373772 49338764 
1470.995 45040952 40458792 35743796 31247432 27370994 24329026 22069826 
1474.370 20372820 18993324 17772532 16642330 15608747 14704828 13953789 
1477.745 13345651 12844797 12406295 11995688 11595747 11206032 10834740 
1481.120 10490240 10173826 9880217 9601643 9333811 9078120 8839251 8620926 
1484.978 8422035 8237383 8060303 7887715 7724067 7579396 7463659 7377577 
1488.835 7308696 7232481 7127346 6991055 6843060 6711737 6617393 6564980 
1492.693 6543990 6536018 6519133 6474972 6391910 6268489 6115060 5952885 
1496.550 5804772 5685446 5596593 5529940 5475914 5427263 5381871 5340006 
1500.408 5303143 5272655 5249917 5237072 5236066 5248944 5276580 5318941 
1504.265 5374189 5438201 5505242 5563198 5593640 5576757 5507524 5403778 
1508.122 5292041 5191734 5111766 5054876 5019009 4997557 4979123 4950099 
1511.980 4900233 4825713 4732447 4633039 4543565 4477375 4443966 4445305 
1515.837 4476438 4525150 4577584 4624299 4662444 4692956 4716771 4731308 
1519.695 4731107 4710507 4667368 4607689 4543565 4483167 4423547 4352723 
1523.552 4258990 4137043 3991956 3839229 3701994 3604660 3560560 3566741 
1527.410 3605963 3658453 3708578 3749584 3781369 3806170 3825323 3837424 
1531.267 3839028 3825858 3796476 3753962 3706305 3663332 3629685 3603256 
1535.124 3578266 3550739 3520040 3489076 3462355 3444721 3439077 3445255 
1538.982 3461053 3485268 3524449 3591028 3691368 3815730 3942601 4048206 
1542.839 4115167 4134200 4107540 4047270 3972595 3901076 3844477 3805902 
1546.697 3782405 3769036 3761983 3758474 3755733 3749851 3735948 3710081 
1550.554 3671519 3623503 3573055 3527756 3494286 3477519 3478721 3495222 
1554.411 3520808 3549536 3576863 3600717 3620095 3632057 3630687 3607800 
1558.269 3562097 3511422 3487740 3501735 3533902 3559124 3562164 3538780 
1562.126 3491013 3425818 3354756 3291819 3250222 3236869 3249921 3279166 
1565.984 3311818 3338195 3355458 3365608 3373155 3381103 3388215 3388883 
1569.841 3376628 3348946 3309480 3264009 3217474 3171545 3124920 3076165 
1573.699 3024078 2972264 2930164 2912284 2934667 3002291 3101927 3207260 
1577.556 3296760 3360800 3400938 3423113 3433967 3437741 3436639 3430627 
1581.413 3419306 3402241 3379567 3351384 3317694 3278064 3232496 3183461 
1585.271 3136401 3098957 3080369 3087911 3124386 3186799 3265478 3347310 
1589.128 3417369 3464794 3484800 3479189 3454239 3418471 3380201 3344772 
1592.986 3315290 3291352 3271421 3253193 3235834 3219644 3207460 3202420 
1596.843 3207994 3226087 3256064 3295291 3338963 3382004 3419306 3447426 
1600.701 3465094 3472776 3471908 3464159 3451534 3435871 3420241 3408419 
1604.558 3403810 3408686 3423881 3447460 3476216 3506612 3536441 3565404 
1608.415 3594703 3625809 3657451 3685553 3703364 3704100 3684016 3644887 
1612.273 3593133 3537878 3488374 3452202 3433499 3434935 3457012 3498294 
1616.130 3554514 3618291 3680407 3733107 3772511 3797947 3810916 3813189 
1619.988 3806337 3791530 3769102 3740727 3709112 3680006 3661728 3660792 
1623.845 3679004 3710917 3747411 3778026 3795641 3797479 3786716 3772244 
1627.703 3765359 3776121 3807507 3854272 3905656 3951830 3985736 4006336 
1631.560 4017003 4024662 4037169 4061985 4106102 4175748 4275219 4402660 
1635.417 4546110 4683142 4792177 4864982 4907337 4932337 4952747 4979693 
1639.275 5020014 5075928 5144154 5217186 5285300 5340006 5376973 5397337 
1643.132 5406261 5411729 5423506 5453769 5518296 5638046 5834290 6114388 
1646.990 6457013 6813945 7134992 7390181 7574170 7694556 7763262 7791125 
1650.847 7788257 7764240 7731825 7713477 7737559 7815414 7920277 8012070 
1654.704 8069586 8090920 8081232 8046059 7990673 7920345 7841189 7758607 
1658.562 7675299 7590287 7499223 7395843 7275506 7138192 6990752 6847705 
1662.419 6725399 6635022 6577023 6542544 6519570 6500230 6482539 6469255 
1666.277 6464311 6470230 6486609 6508740 6528854 6540189 6541232 6538104 
1670.134 6540256 6554081 6580151 6615677 6658304 6710021 6776384 6865848 
1673.992 6983277 7123271 7265128 7377711 7437469 7440604 7402685 7346033 
1677.849 7292219 7257143 7249765 7273080 7323792 7393316 7471682 7551512 
1681.706 7628930 7704067 7779622 7861297 7956621 8070768 8202805 8344544 
1685.564 8486700 8622785 8748973 8863328 8965468 9059004 9152087 9255988 
1689.421 9380803 9532003 9707244 9898861 10097480 10297853 10500932 10713887 
1693.279 10948557 11218544 11533781 11894161 12279006 12649421 12968020 
1696.654 13225772 13444271 13658025 13902777 14207301 14590809 15048675 
1700.029 15537174 15984042 16336884 16594099 16787504 16951056 17108052 
1703.404 17274138 17459498 17670580 17906138 18155164 18398314 18617460 
1706.780 18804470 18965424 19116572 19276222 19460466 19677514 19927210 
1710.155 20201866 20492292 20793512 21107292 21443090 21813740 22231020 
1713.530 22700682 23220134 23780946 24377704 25015888 25717340 26511454 
1716.905 27421178 28433200 29490564 30523526 31488836 32391492 33272460 
1720.281 34179624 35158888 36245272 37465004 38833260 40356348 42034868 
1723.656 43864552 45840040 47954560 50200628 52572156 55070548 57716284 
1727.031 60559288 63679920 67172592 71110992 75500152 80244264 85167864 
1730.406 90069512 94848920 99588240 104614344 110482232 117917832 127513232 
1733.782 139132352 151568336 163130448 172813408 180703232 187459840 
1736.675 193767680 200136032 206873392 214110080 221786960 229688592 
1739.568 237459168 244705616 251102624 256422880 260534464 263394832 
1742.461 265057856 265681840 265485024 264671232 263320304 261364672 
1745.354 258631760 254957584 250275104 244672064 238339536 231509648 
1748.247 224317744 216744192 208633536 199838944 190375664 180498032 
1751.140 170664752 161351392 152863232 145251808 138370768 131974608 
1754.033 125803560 119633080 113291080 106679168 99825720 92901952 86190272 
1757.408 79983864 74459472 69638712 65411596 61599264 58002284 54445260 
1760.784 50825828 47149804 43545840 40207548 37299680 34882692 32910522 
1764.159 31270112 29838622 28513228 27230178 25966310 24734876 23569708 
1767.534 22503440 21549414 20693698 19904244 19144030 18387080 17621406 
1770.909 16849122 16084295 15351293 14678471 14090332 13597577 13197285 
1774.285 12877562 12619334 12398420 12189442 11969223 11726682 11464680 
1777.660 11199708 10950664 10733382 10550189 10390795 10235767 10068994 
1781.035 9887776 9702873 9530275 9381006 9254024 9136826 9011236 8863193 
1784.892 8691976 8511062 8341031 8196592 8080422 7982438 7887041 7780634 
1788.750 7659246 7529733 7407303 7306842 7234873 7182858 7129771 7050625 
1792.607 6933615 6786245 6628326 6478335 6346148 6233060 6136365 6054510 
1796.465 5990408 5949828 5937869 5952481 5982479 6006466 5999277 5943244 
1800.322 5834491 5686889 5524907 5373216 5245121 5141170 5052965 4971045 
1804.180 4890013 4810637 4737974 4677315 4630528 4594662 4563052 4528464 
1808.037 4485845 4432752 4368788 4294092 4208902 4115468 4020214 3936282 
1811.894 3878375 3859153 3881819 3937519 4006503 4064460 4089813 4069811 
1815.752 4005934 3913145 3814760 3731169 3673557 3640577 3621499 3602120 
1819.609 3572587 3529593 3475315 3413428 3345607 3270519 3185430 3090247 
1823.467 2990980 2900176 2835170 2810124 2828233 2879629 2945809 3007028 
1827.324 3046400 3053541 3023544 2957585 2863452 2757436 2659812 2587642 
1831.182 2549379 2542346 2557111 2579843 2597242 2599342 2581409 2545712 
1835.039 2500454 2456900 2423313 2403821 2396625 2397491 2402322 2410618 
1838.896 2424646 2447137 2477694 2510252 2533048 2531548 2491956 2406820 
1842.754 2279896 2130367 1989211 1888865 1850763 1876619 1952531 2056887 
1846.611 2170325 2277898 2367773 2432542 2467363 2472662 2453968 2421947 
1850.469 2388196 2361476 2345519 2338423 2333593 2323300 2302513 2270803 
1854.326 2232001 2191139 2151978 2113819 2072601 2020900 1951965 1861844 
1858.183 1750548 1621920 1483124 1345136 1221114 1126193 1075901 1080385 
1862.041 1143036 1257732 1409287 1574996 1729424 1851228 1924940 1947106 
1865.898 1924541 1872426 1810002 1757834 1734979 1753975 1817721 1917019 
1869.756 2034649 2148781 2239895 2294019 2303613 2269404 2200396 2112787 
1873.613 2024296 1950601 1900546 1873657 1862409 1856519 1848533 1835523 
1877.471 1820649 1808970 1804712 1807041 1811300 1810401 1798823 1776265 
1881.328 1747720 1721739 1706105 1703876 1711128 1718080 1712525 1686745 
1885.185 1642175 1589229 1546598 1534893 1568478 1650424 1768081 1895720 
1889.043 1999430 2052559 2046567 1995802 1930898 1884605 1881311 1927470 
1892.900 2012445 2112154 2200197 2254982 2269038 2250253 2216715 2184212 
1896.758 2157938 2129801 2083854 2006220 1894056 1760595 1633361 1545434 
1900.615 1521460 1571338 1684816 1837186 1995768 2131466 2227905 2281695 
1904.473 2299948 2293187 2269038 2227805 2163000 2063778 1921446 1732950 
1908.330 1505533 1256303 1013326 808493 668994 612516 640190 738356 882825 
1912.670 1047104 1205796 1339884 1439173 1500246 1524652 1515608 1478502 
1916.527 1421088 1357134 1308278 1298972 1345900 1449977 1595548 1753409 
1920.384 1892326 1988612 2030121 2021600 1981955 1938186 1910397 1904939 
1924.242 1912726 1919415 1915522 1904007 1899181 1920880 1981322 2076596 
1928.099 2182780 2261877 2276466 2200197 2031220 1792035 1524851 1274879 
1931.957 1083840 982275 984301 1089852 1283187 1538085 1817721 2083188 
1935.814 2300981 2447503 2517950 2525616 2500754 2473595 2467263 2487024 
1939.672 2522250 2553611 2565444 2555911 2541613 2549512 2599309 2689850 
1943.529 2794183 2867888 2866054 2764605 2567377 2306411 2029622 1788076 
1947.386 1619060 1538085 1537819 1594550 1677265 1754008 1801118 1804978 
1951.244 1764122 1689207 1602531 1532964 1505799 1534760 1612043 1710429 
1955.101 1785980 1795861 1712092 1532399 1280561 996522 722956 486050 293633 
1959.441 134611 -10834 -162127 -331147 -519893 -722846 -931194 -1132435 
1963.298 -1304415 -1417874 -1433726 -1313069 -1033479 -599146 -50095 543705 
1967.156 1093240 1521958 1789008 1896652 1880778 1785880 1648062 1485351 
1971.013 1301265 1098854 892819 709747 582953 535676 568156 654558 750438 
1975.353 807265 798734 732083 647723 598182 631131 766303 990577 1261952 
1979.692 1525782 1734380 1851162 1855222 1738339 1501543 1156458 730291 
1983.550 266379 -183225 -561159 -817938 -923391 -867410 -666509 -358329 1159 
1987.889 356104 659072 878077 997817 1016880 946045 804443 621177 434206 
1992.229 279310 191822 195800 299734 495702 760428 1057002 1341181 1573333 
1996.568 1722538 1775733 1742730 1652286 1546099 1462777 1426407 1442132 
2000.426 1498551 1575462 1660169 1754241 1875354 2046400 2283261 2578209 
2004.283 2897941 3185430 3377730 3432397 3340131 3132730 2867288 2606775 
2008.141 2390661 2228604 2103231 1987414 1859414 1714820 1565552 1431095 
2011.998 1324696 1247464 1189416 1136492 1083076 1037439 1017909 1045941 
2015.856 1132970 1271556 1434386 1587666 1704408 1778361 1826239 1874422 
2019.713 1945242 2040907 2136161 2185744 2144352 1980457 1696525 1327820 
2023.570 937080 598979 376897 313063 412482 647490 961088 1287175 1562891 
2027.910 1736310 1780590 1696957 1515076 1282854 1059028 896073 829042 
2031.767 875687 1033519 1286576 1615269 2003291 2440806 2917788 3416935 
2035.625 3902146 4318152 4602599 4699353 4579259 4251930 3766997 3204590 
2039.482 2656312 2215183 1942213 1860213 1950002 2164231 2442872 2732694 
2043.340 2998287 3221246 3396864 3523347 3596608 3608401 3547966 3409488 
2047.197 3200484 2943608 2672414 2422080 2217447 2067440 1966011 1898349 
2051.054 1849565 1811832 1784915 1772306 1776099 1790638 1802982 1795762 
2054.912 1754141 1675003 1570407 1465104 1386218 1356536 1381831 1450443 
2058.769 1534527 1600802 1622187 1587200 1504037 1398118 1303160 1247331 
2062.627 1248161 1303991 1397121 1498418 1578820 1620025 1619459 1590659 
2066.484 1559599 1556640 1603263 1708433 1863873 2046667 2224042 2363209 
2070.342 2440639 2447070 2392460 2300315 2204393 2137126 2122975 2172224 
2074.199 2279297 2423379 2574809 2705287 2790582 2818795 2790948 2717857 
2078.056 2615042 2498655 2380433 2264974 2153909 2047898 1951133 1873590 
2081.914 1828236 1826139 1872459 1961751 2078427 2202095 2312806 2399290 
2085.771 2460932 2506886 2552578 2612108 2691384 2786380 2882931 2963590 
2089.629 3009331 3006762 2950580 2842407 2689384 2502820 2297483 2089514 
2093.486 1897151 1738073 1623949 1559699 1541078 1556706 1592821 1638916 
2097.344 1690936 1753243 1832994 1936855 2063845 2205625 2345186 2462898 
2101.201 2545379 2586376 2590642 2570843 2541080 2511219 2482959 2448936 
2105.058 2396725 2313173 2189906 2026327 1831763 1622619 1417465 1235900 
2108.916 1090849 987389 921971 884120 861809 844977 830403 823531 836545 
2113.255 882792 972379 1106362 1274413 1456061 1625845 1761261 1848566 
2117.113 1887633 1892459 1889630 1907900 1973500 2101799 2291455 2521750 
2120.970 2754468 2942373 3033521 2986810 2781645 2426078 1959621 1447816 
2124.828 973873 613379 423261 426943 611786 930704 1317018 1704508 2035082 
2129.167 2276899 2426811 2504253 2541313 2572576 2624309 2707987 2821029 
2133.025 2949913 3078000 3191038 3282805 3355157 3415966 3472475 3526887 
2136.882 3572320 3594804 3576162 3501234 3364039 3171011 2940238 2695118 
2140.740 2460599 2257414 2099802 1999996 1968707 2016440 2151278 2370038 
2144.597 2651744 2954516 3220646 3384843 3394393 3226888 2901877 2481592 
2148.454 2050062 1702479 1511917 1514743 1701348 2021999 2392160 2715356 
2152.312 2913885 2937603 2781645 2488557 2141355 1843608 1693664 1761693 
2156.169 2067074 2574110 3193408 3817033 4336726 4680831 4833051 4826685 
2160.027 4719149 4562349 4391514 4220345 4055430 3908130 3795775 3740727 
2163.884 3754530 3826995 3924346 3993160 3983697 3861660 3625441 3303905 
2167.741 2946710 2602942 2307576 2075897 1903574 1776465 1681789 1615535 
2171.599 1581846 1589129 1639714 1725365 1828402 1924973 1995302 2033817 
2175.456 2049962 2066541 2110356 2202761 2354880 2563110 2811224 3075030 
2179.314 3329447 3548601 3710650 3801189 3811819 3745640 3616153 3443051 
2183.171 3247484 3049003 2859450 2684516 2526782 2386330 2264508 2164365 
2187.029 2087117 2031287 1992306 1963981 1943112 1932894 1943911 1991707 
2190.886 2089181 2237730 2422347 2610609 2762204 2836904 2810724 2683716 
2194.743 2481626 2245224 2020967 1849332 1748885 1717880 1734946 1769811 
2198.601 1789107 1771042 1707269 1605225 1486349 1377576 1308211 1298740 
2202.458 1356802 1475444 1636987 1814627 1982487 2122542 2225840 2292387 
2206.316 2325032 2322433 2275833 2171591 1995835 1746922 1442996 1123337 
2210.173 837308 638199 562947 623566 804643 1071018 1382628 1707568 2032252 
2214.513 2358678 2694851 3040561 3377196 3664735 3855509 3903215 3784410 
2218.370 3507447 3117545 2683449 2281562 1981722 1823344 1813063 1924707 
2222.228 2112054 2318902 2496455 2616042 2670980 2677248 2662246 2655745 
2226.085 2676148 2721558 2770540 2790715 2748099 2623042 2421314 2175054 
2229.942 1935590 1756536 1681556 1727394 1881277 2104796 2348417 2566777 
2233.800 2726659 2814793 2834169 2796418 2713922 2597475 2454534 2293520 
2237.657 2127837 1976596 1861844 1803281 1809237 1874522 1978526 2092610 
2241.515 2185277 2230137 2213118 2132598 1999497 1832195 1655113 1491369 
2245.372 1360790 1277537 1246234 1262085 1310870 1373587 1429931 1465037 
2249.229 1472418 1456560 1429732 1406562 1399980 1415903 1451207 1495592 
2253.087 1537487 1566716 1580117 1583509 1589163 1612542 1666422 1755838 
2256.944 1875487 2010282 2135961 2227539 2265407 2239295 2152710 2022565 
2260.802 1874422 1735079 1628738 1571205 1567846 1616233 1708500 1834658 
2264.659 1982454 2137260 2280296 2388462 2439407 2415983 2313706 2144785 
2268.517 1939185 1737507 1577989 1488942 1476674 1525849 1604095 1674804 
2272.374 1707735 1688142 1618961 1517436 1407825 1310371 1238359 1196061 
2276.231 1180611 1186791 1211278 1253511 1314459 1395160 1492466 1598873 
2280.089 1703377 1792601 1854390 1882076 1874489 1837752 1783718 1728126 
2283.946 1685215 1665757 1672875 1701980 1740701 1773171 1786113 1771740 
2287.804 1731420 1674638 1616034 1569077 1541144 1532133 1535359 1541543 
2291.661 1542973 1537852 1530005 1526647 1533762 1553880 1583941 1618029 
2295.519 1650656 1680592 1711593 1751380 1805810 1876019 1954561 2028124 
2299.376 2080857 2100800 2085652 2042705 1987147 1934192 1894023 1867600 
2303.233 1846004 1814427 1760229 1676567 1567347 1445456 1329348 1237827 
2307.091 1184166 1174598 1207457 1275676 1367904 1473283 1581181 1681856 
2310.948 1767049 1830199 1867135 1876485 1860280 1823511 1772805 1716018 
2314.806 1660967 1615136 1585338 1577124 1593752 1635058 1696857 1771142 
2318.663 1846836 1914789 1968641 2007918 2037013 2062347 2088615 2115151 
2322.521 2135362 2140590 2123009 2081357 2021799 1957490 1904506 1875753 
2326.378 1878049 1909831 1961618 2018837 2066442 2092410 2089980 2058019 
2330.235 2000096 1923110 1836255 1750083 1675935 1624082 1602199 1612542 
2334.093 1651155 1707202 1765652 1811998 1834990 1831530 1805943 1769478 
2337.950 1734048 1710063 1702678 1710562 1728525 1749517 1768413 1783485 
2341.808 1797226 1815425 1845805 1894189 1963182 2048531 2139524 2219446 
2345.665 2269804 2278497 2241060 2162800 2056920 1940150 1827969 1732584 
2349.522 1661599 1615302 1588065 1568611 1545168 1508725 1459220 1406362 
2353.380 1367006 1359095 1392800 1466401 1567115 1673873 1765053 1827936 
2357.237 1860612 1872159 1875687 1881876 1892292 1897650 1879480 1819019 
2361.095 1705872 1543372 1351418 1163568 1019769 952520 980847 1101611 
2364.952 1293456 1519664 1740801 1924907 2052259 2119180 2134329 2114418 
2368.810 2074532 2025727 1971769 1911029 1839948 1755805 1659238 1555044 
2372.667 1449645 1350188 1262650 1190446 1134831 1095532 1070852 1059393 
2376.524 1059094 1067996 1084006 1104634 1126791 1147388 1163634 1173734 
2380.382 1176957 1175262 1172272 1173069 1182605 1204035 1236897 1277006 
2384.239 1315091 1340150 1342178 1314293 1256170 1174000 1080252 990046 
2388.097 917688 873628 861577 878708 915994 962449 1006385 1038867 1055540 
2392.436 1056570 1046340 1031261 1019304 1016980 1029036 1057732 1102508 
2396.294 1160478 1227028 1296613 1362585 1417930 1456992 1474646 1469293 
2400.151 1442564 1400346 1351118 1303725 1265441 1238857 1220914 1203836 
2404.009 1178551 1137256 1077761 1004924 929774 866623 828079 822402 850554 
2408.348 906365 978821 1056138 1127356 1184864 1225633 1249358 1258463 
2412.206 1256236 1247198 1235435 1225599 1221313 1224702 1236066 1252847 
2416.063 1271190 1285613 1291063 1284117 1262982 1228557 1183934 1134233 
2419.920 1085634 1045277 1020733 1017146 1038202 1082910 1146923 1222144 
2423.778 1298806 1368203 1423914 1463508 1488277 1501975 1508326 1509224 
2427.635 1503172 1486382 1453036 1398783 1322768 1229155 1128286 1033054 
2431.493 958332 915729 910317 938873 991042 1050591 1099751 1126193 1123503 
2435.832 1094735 1049661 1002300 965206 946112 946211 960557 981212 999444 
2440.172 1010238 1012297 1007880 1000839 995293 993500 995924 1002267 
2444.029 1011865 1025183 1043018 1066302 1094802 1126459 1157953 1184964 
2447.887 1203935 1213239 1214103 1210082 1205863 1206427 1215000 1231913 
2451.744 1254475 1277604 1294619 1299238 1287740 1259260 1217492 1168784 
2455.602 1121908 1085501 1066103 1066103 1083873 1113570 1146126 1171973 
2459.459 1182538 1172438 1140877 1092111 1034582 978755 934755 909254 902979 
2463.799 910250 920510 922038 905668 868914 818220 767864 735037 736232 
2468.138 779747 863237 972478 1085036 1177289 1228224 1227360 1176359 
2471.996 1089454 987422 894578 831565 809755 830204 883755 955011 1026179 
2476.335 1083408 1119749 1136492 1140877 1142704 1150511 1167189 1190313 
2480.193 1212906 1227759 1229321 1216861 1193270 1163568 1131874 1099519 
2484.050 1065139 1026478 983138 937810 896670 867254 855335 862407 884618 
2488.390 914434 944186 967763 983636 993865 1001570 1008477 1014323 1015983 
2492.729 1011002 999145 984035 972312 970652 982441 1005256 1031527 1050990 
2497.069 1055673 1042520 1015884 985894 964674 961586 980880 1020367 1073941 
2501.408 1133867 1194300 1252149 1306782 1358364 1404866 1442896 1467664 
2505.266 1475178 1464971 1440104 1407459 1375216 1349224 1331908 1321006 
2509.123 1310671 1294851 1270891 1240319 1210348 1190977 1191675 1217625 
2512.981 1266837 1329382 1390340 1434286 1449146 1431161 1385620 1325759 
2516.838 1266804 1223273 1203071 1206294 1226796 1254608 1281392 1301797 
2520.696 1315091 1323732 1330711 1337225 1342178 1342510 1335198 1319577 
2524.553 1297743 1273815 1252847 1238957 1233208 1236565 1248926 1271157 
2528.410 1305619 1354642 1418695 1494162 1573300 1644204 1694762 1715485 
2532.268 1702346 1658472 1592588 1517669 1447517 1393564 1364480 1363882 
2536.125 1390839 1439871 1502674 1568046 1624714 1663861 1680824 1675669 
2539.983 1653616 1622619 1590593 1562559 1539482 1518101 1493098 1459419 
2543.840 1414473 1359760 1300235 1242812 1196061 1167721 1163767 1188153 
2547.698 1241017 1318148 1410218 1504236 1584507 1636321 1650856 1626776 
2551.555 1572402 1502175 1434220 1384157 1360757 1364879 1389941 1425410 
2555.412 1460350 1487047 1502275 1506697 1502208 1490970 1473249 1448182 
2559.270 1414108 1371161 1321272 1269263 1221712 1185529 1167023 1169947 
2563.127 1194865 1239389 1298141 1363649 1428069 1484686 1528908 1559433 
2566.985 1578321 1590094 1599871 1611710 1627707 1647098 1666921 1683053 
2570.842 1691868 1690803 1678563 1655147 1620956 1577191 1524685 1465736 
2574.699 1403404 1342078 1287341 1244540 1218489 1212475 1227294 1262184 
2578.557 1314027 1378839 1451340 1525948 1597643 1661799 1715851 1758932 
2582.414 1792235 1818054 1838917 1856652 1871427 1881677 1885370 1880945 
2586.272 1868432 1850064 1830166 1813629 1804645 1805011 1813995 1828602 
2590.129 1844274 1856353 1861943 1859448 1849165 1832694 1811765 1787843 
2593.987 1761560 1732717 1700782 1665990 1629570 1594251 1564355 1544935 
2597.844 1540546 1553847 1583908 1627009 1675935 1722903 1760928 1787045 
2601.701 1802283 1812231 1824476 1845871 1880113 1925473 1975164 2019136 
2605.559 2047865 2055322 2041040 2010381 1973034 1940183 1920281 1918251 
2609.416 1933693 1961984 1997066 2033018 2065643 2092943 2115384 2133763 
2613.274 2148714 2160802 2169726 2175320 2178284 2179783 2181614 2185177 
2617.131 2190639 2197466 2204293 2210221 2215516 2222277 2233633 2253251 
2620.989 2283627 2324099 2371338 2418448 2457700 2482659 2489724 2480226 
2624.846 2459333 2435508 2416782 2408986 2413817 2428211 2446371 2461099 
2628.703 2467930 2465864 2458433 2452368 2455501 2473928 2509885 2561244 
2632.561 2622309 2685516 2743197 2790182 2823597 2842974 2849845 2845876 
2636.418 2833569 2814859 2792616 2770073 2750700 2737862 2733094 2735828 
2640.276 2742697 2748933 2749099 2739296 2718923 2690250 2658679 2630876 
2644.133 2613275 2609908 2622142 2648044 2683782 2724425 2765038 2801753 
2647.990 2831701 2853046 2865487 2869323 2865720 2856815 2845676 2835804 
2651.848 2830267 2831468 2839806 2853813 2869823 2883732 2891370 2890803 
2655.705 2882664 2871224 2862719 2864019 2880897 2915787 2967127 3029283 
2659.563 3094652 3154957 3203989 3238905 3260270 3271921 3278097 3282905 
2663.420 3288313 3294557 3299798 3303003 3303671 3303638 3306242 3315156 
2667.278 3333053 3359899 3392590 3425384 3452002 3466664 3466664 3452737 
2671.135 3429792 3404278 3383774 3374591 3379934 3400471 3433366 3474179 
2674.992 3517033 3555817 3585516 3601786 3602388 3586886 3557487 3517935 
2678.850 3474045 3431963 3396831 3372320 3359899 3358329 3365308 3378030 
2682.707 3393825 3411324 3429692 3448194 3465662 3480291 3489510 3490879 
2686.565 3483297 3466965 3443719 3416334 3387815 3360199 3334288 3309480 
2690.422 3284775 3259002 3231962 3204490 3178221 3155592 3138170 3126923 
2694.280 3120949 3117879 3113740 3103729 3084007 3051972 3008029 2956551 
2698.137 2904579 2860417 2832235 2824731 2838138 2867922 2906180 2944375 
2701.994 2975133 2994650 3003192 3004192 3002124 3001156 3003959 3010966 
2705.852 3021542 3034455 3048402 3062884 3077433 3091482 3104530 3116243 
2709.709 3126823 3136968 3147481 3159296 3171779 3183461 3191605 3193942 
2713.567 3189369 3178955 3165504 3152821 3144110 3141207 3143777 3150452 
2717.424 3159964 3172013 3187400 3207794 3233898 3264777 3297495 3327844 
2721.281 3352452 3369816 3381103 3389685 3399836 3414597 3434835 3459850 
2725.139 3487372 3515397 3543189 3570449 3597309 3623203 3645789 3662496 
2728.996 3671117 3671285 3665303 3657150 3650568 3647393 3646792 3645355 
2732.854 3639073 3625274 3604660 3581139 3559959 3545093 3537911 3535974 
2736.711 3534203 3527422 3513059 3491948 3468334 3447025 3431997 3424115 
2740.569 3420909 3418137 3412126 3401506 3387715 3374591 3366477 3366143 
2744.426 3374758 3390686 3411257 3433833 3456511 3478588 3500065 3521276 
2748.283 3542187 3562865 3582877 3601953 3619561 3634529 3644921 3648596 
2752.141 3643684 3629718 3608535 3584046 3561629 3546897 3543323 3551741 
2755.998 3570081 3594135 3619494 3642214 3660157 3672855 3680841 3685119 
2759.856 3687024 3687993 3689730 3694943 3705670 3723850 3749484 3780500 
2763.713 3812588 3840834 3860323 3867945 3863565 3849492 3830672 3812955 
2767.571 3801824 3801624 3814827 3841268 3878877 3923811 3971257 4016669 
2771.428 4057035 4091084 4119816 4145674 4171600 4199936 4231486 4265515 
2775.285 4300483 4335320 4369759 4405003 4443096 4485744 4533520 4584884 
2779.143 4637460 4688233 4735194 4778006 4818208 4858414 4900736 4946882 
2783.000 4996518 5048641 5101910 5155319 5209238 5264774 5323335 5385763 
2786.858 5451923 5520208 5588168 5653320 5713343 5767265 5815148 5858201 
2790.715 5898638 5938877 5981270 6027732 6079643 6137340 6200758 6269666 
2794.573 6343795 6423452 6509043 6601110 6699590 6803544 6911429 7020687 
2798.430 7128997 7234200 7335047 7430862 7521271 7606101 7684438 7755638 
2802.287 7820103 7879010 7935564 7994520 8061249 8140917 8236843 8350420 
2806.145 8480551 8624137 8777001 8934688 9093210 9249726 9402540 9552392 
2810.002 9701145 9852254 10010229 10179016 10361305 10557318 10765241 
2813.377 10980941 11199708 11417734 11633045 11846488 12060751 12280506 
2816.753 12510090 12753035 13011172 13284700 13572039 13870790 14178510 
2820.128 14492682 14811677 15135023 15464068 15801439 16151657 16520195 
2823.503 16913126 17335202 17789864 18278934 18801356 19354720 19935396 
2826.878 20539638 21163820 21805764 22464602 23141006 23836422 24553114 
2830.254 25292940 26057600 26848282 27666186 28513760 29395536 30318612 
2833.629 31292974 32330808 33443912 34643984 35940308 37340556 38851812 
2837.004 40482140 42241880 44145276 46208824 48451228 50892468 53550612 
2840.379 56443392 59588036 63000864 66698568 70696048 75004704 79628736 
2843.755 84562584 89788816 95274656 100978736 106848304 112822008 118837640 
2847.130 124825208 130709856 136415552 141856480 146945024 151596768 
2850.023 155726592 159260528 162135056 164296560 165706496 166340528 
2852.916 166192032 165274480 163624208 161299040 158369936 154922448 
2855.809 151043456 146816400 142324880 137643056 132841184 127987448 
2858.702 123140192 118353536 113675408 109141784 104783736 100624024 
2861.595 96678920 92960720 89477808 86235328 83237872 80488112 77988928 
2864.970 75743232 73752168 72014440 70523848 69268184 68227192 67373104 
2868.346 66673300 66088340 65578112 65103196 64624228 64108572 63528932 
2871.721 62865048 62107628 61256932 60324476 59329512 58299996 57266744 
2875.096 56259936 55307620 54431588 53646580 52961156 52378292 51897576 
2878.471 51517324 51236156 51053732 50970668 50987588 51104048 51318372 
2881.847 51627356 52026528 52511240 53077472 53720928 54437712 55222648 
2885.222 56069660 56972276 57923792 58919288 59956784 61036612 62161112 
2888.597 63332500 64551256 65815276 67119616 68457784 69824136 71214280 
2891.972 72627064 74062216 75519864 76998688 78495584 80005624 81524688 
2895.348 83050928 84585936 86135320 87706624 89308224 90946344 92624424 
2898.723 94343800 96104072 97904384 99744416 101624344 103545088 105507304 
2902.098 107512808 109564496 111667616 113829200 116058472 118363456 
2904.991 120750440 123222784 125781504 128427240 131162208 133993240 
2907.884 136930384 139985232 143168576 146487120 149942480 153531888 
2910.777 157249920 161092240 165055520 169137056 173333056 177633696 
2913.670 182022624 186475424 190958624 195434832 199862880 204196640 
2916.563 208390256 212393712 216155664 219628512 222767088 225533568 
2919.457 227897632 229833312 231318064 232331568 232855760 232879824 
2922.350 232403808 231441344 230018160 228169248 225934224 223349552 
2925.243 220451376 217272864 213846768 210208928 206394528 202437552 
2928.136 198369136 194213920 189992464 185722656 181420128 177101136 
2931.029 172780016 168467408 164170384 159892640 155637728 151413504 
2933.922 147232896 143114320 139079184 135145056 131322640 127614200 
2936.815 124014928 120517336 117115936 113810944 110608952 107520664 
2939.708 104557184 101728952 99041784 96497608 94096744 91837528 89717848 
2943.083 87735496 85888360 84174008 82591320 81140688 79825560 78651072 
2946.458 77622224 76742128 76009312 75416224 74949216 74591208 74323088 
2949.834 74125640 73981704 73875128 73789672 73709992 73619736 73503056 
2953.209 73345992 73135568 72861096 72513296 72083080 71562832 70946016 
2956.584 70229184 69413096 68502944 67507976 66438056 65304176 64114904 
2959.959 62876612 61595024 60274260 58918492 57530928 56113020 54664584 
2963.335 53184008 51670948 50128256 48563824 46990868 45427416 43891312 
2966.710 42398428 40959372 39578568 38254712 36983328 35759192 34577996 
2970.085 33437184 32335806 31274136 30252000 29269726 28327156 27424144 
2973.460 26561680 25740896 24963316 24230530 23542668 22898748 22295648 
2976.836 21728460 21191164 20676774 20178678 19691764 19212666 18741018 
2980.211 18278898 17830528 17400692 16994572 16615959 16267911 15951214 
2983.586 15666040 15411264 15184979 14983712 14803997 14641424 14492031 
2986.961 14352931 14223186 14103955 13998443 13910714 13844073 13801076 
2990.337 13782230 13787087 13815374 13867403 13945304 14052308 14192134 
2993.712 14367144 14578063 14823128 15098828 15401034 15726056 16071264 
2997.087 16435327 16817296 17215286 17626582 18046520 18469184 18888454 
3000.462 19297908 19691660 20064638 20411958 20728726 21010638 21253862 
3003.838 21455378 21613452 21726962 21794684 21815238 21786356 21705678 
3007.213 21571282 21382940 21142356 20853510 20521538 20151258 19746858 
3010.588 19310480 18842738 18343908 17815614 17261794 16688811 16104719 
3013.963 15517807 14935287 14361492 13798853 13248283 12710249 12186614 
3017.339 11680082 11193928 10730631 10290694 9872455 9472228 9085936 8710737 
3021.196 8346199 7994622 7660932 7350347 7067430 6814786 6592262 6397290 
3025.053 6225093 6070269 5926785 5789225 5653185 5515913 5376437 5235329 
3028.911 5094266 4955260 4820219 4690611 4567539 4452368 4347268 4255242 
3032.768 4179997 4123563 4086167 4064092 4050213 4035564 4010616 3968181 
3036.626 3905455 3823251 3726223 3619795 3510253 3402041 3298897 3203956 
3040.483 3119614 3048302 2991614 2949512 2920057 2899675 2884299 2870557 
3044.341 2856982 2843908 2832535 2823664 2816460 2808290 2795851 2776676 
3048.198 2750466 2720191 2690717 2667413 2653145 2648077 2649377 2652645 
3052.055 2654511 2653511 2651478 2651711 2657678 2670480 2688550 2707587 
3055.913 2722358 2727959 2722358 2705620 2679848 2647577 2611575 2573076 
3059.770 2532781 2491323 2449269 2408086 2369339 2335192 2307810 2288990 
3063.628 2280463 2283327 2297717 2322300 2353514 2386696 2416083 2436541 
3067.485 2445004 2440806 2425878 2403488 2376801 2347951 2317437 2284493 
3071.343 2248055 2207556 2163899 2118880 2074865 2034549 1999696 1971736 
3075.200 1951067 1937587 1929966 1926205 1922877 1915988 1902443 1880612 
3079.057 1851328 1817854 1785315 1758067 1738339 1725498 1716384 1706836 
3082.915 1693797 1676567 1657442 1640446 1628938 1624315 1625246 1627907 
3086.772 1627774 1621056 1606855 1586768 1564355 1543472 1527644 1518268 
3090.630 1515840 1519066 1525815 1533330 1537786 1535259 1521493 1493530 
3094.487 1450609 1395127 1332074 1268332 1211079 1165229 1133136 1114766 
3098.344 1108255 1111344 1122307 1139947 1162936 1189748 1217160 1241183 
3102.202 1258529 1267103 1267136 1261221 1253877 1249059 1249590 1255970 
3106.059 1265375 1274048 1277039 1270824 1254243 1228656 1198121 1168418 
3109.917 1145495 1133668 1134964 1147488 1166724 1186127 1199450 1202739 
3113.774 1195031 1178784 1158451 1139116 1123968 1114068 1108786 1106428 
3117.632 1106727 1110647 1120613 1138552 1164930 1197024 1228723 1253179 
3121.489 1263481 1255705 1229420 1188020 1136957 1081448 1026213 974437 
3125.346 928579 891159 864996 852281 854273 869279 893118 919016 940068 
3129.686 950860 949266 937113 919016 900953 888303 884751 891092 905967 
3134.026 926520 948967 969755 985629 994097 994031 985164 969821 951093 
3138.365 932829 918584 909985 906365 905170 903178 897832 888536 877546 
3142.705 868449 865461 871404 886311 907029 929110 947905 960125 965305 
3147.044 965272 963047 961221 959726 956439 947407 928247 897367 856364 
3151.384 810983 769556 740049 727669 733145 751965 775830 796676 808327 
3155.724 808925 800925 789672 780709 777158 778684 782269 783531 779016 
3160.063 767731 751102 732316 714393 698563 684657 671715 659702 650045 
3164.403 646760 654293 675664 711141 756711 805605 849592 882161 900522 
3168.742 905203 900256 890362 879671 870043 861311 852081 841259 828843 
3173.082 816759 807630 804676 810253 824925 847932 876616 907328 934755 
3177.422 954380 962250 956173 936581 906432 870939 835814 806203 785456 
3181.761 774436 771813 775000 781506 789373 798169 808194 819913 833158 
3186.101 846869 858389 864963 863602 852413 831067 801124 766270 731287 
3190.440 701749 682202 675598 682102 699625 723885 750272 774967 796709 
3194.780 815929 834918 856829 883389 914965 950395 987157 1022626 1054477 
3199.120 1080419 1098323 1106195 1101910 1084072 1053481 1012396 965405 
3202.977 917754 873761 836080 804443 777423 752728 729760 709249 693717 
3207.317 684989 683927 689204 697534 705731 711572 715024 718144 723155 
3211.656 731751 743235 755450 766005 773772 779514 786186 795813 808493 
3215.996 820444 825556 817323 792394 752794 706694 666472 644238 648187 
3220.335 679016 731154 793323 853542 902315 933493 945746 939769 918352 
3224.675 883622 838470 786551 732581 682733 643475 618987 610758 616797 
3229.015 632060 650444 666571 676759 679480 675000 664182 648419 629406 
3233.354 609099 590518 576649 570080 572038 581659 595893 611090 623732 
3237.694 632094 636805 639792 643774 651008 662423 677655 695277 714128 
3242.033 732316 748479 760296 765407 761491 746820 721861 689602 655056 
3246.373 624263 602164 591912 593604 605416 624959 649946 678850 711406 
3250.713 746687 782601 815298 839566 850056 843815 820909 785224 742804 
3255.052 701284 666206 640621 625192 617991 616498 619053 625192 635909 
3259.392 652335 675531 704138 735767 766403 791531 807995 814236 811647 
3263.731 803116 793356 786153 783796 785722 788510 787647 779050 760229 
3268.071 732847 701085 671416 649647 639427 640057 647059 653530 653430 
3272.411 643376 624362 601899 583716 577645 587764 613810 650576 690432 
3276.750 724715 747583 756545 753558 742903 730490 721529 718476 721960 
3281.090 730557 741841 752960 762221 768561 771017 769656 763515 752064 
3285.429 734705 712037 685653 659005 637170 625855 629671 651738 691228 
3289.769 744065 802651 858257 902315 928579 934390 921108 892918 855269 
3294.109 813605 771382 730523 691361 654359 620148 590949 569383 558269 
3298.448 558999 570843 591314 616697 642447 664713 681140 690963 693883 
3302.788 691527 684890 675365 664680 653762 643707 635113 628078 622238 
3307.127 617062 612350 608336 605416 604354 605150 607008 608502 608170 
3311.467 605449 601069 597618 598614 606477 622404 644736 669691 693120 
3315.807 712070 726109 737858 751102 768859 791265 815099 833723 840030 
3320.146 829739 802651 764279 723022 688142 666671 660399 666505 678551 
3324.486 690631 698397 701483 702844 706694 716451 732747 752993 772378 
3328.825 785688 789638 783398 769523 752761 738157 730225 731751 742837 
3333.165 761789 785423 809788 830735 844745 848828 841657 823398 795580 
3337.505 761092 723587 686914 654094 627913 609630 599775 597486 600936 
3341.844 607572 614308 618290 617626 612052 602795 592509 585209 583949 
3346.184 590949 606411 628543 654160 679746 702213 720168 733179 742538 
3350.523 749575 755616 761756 768096 775100 782966 792360 804244 819116 
3354.863 836711 855501 873197 887075 894479 894379 886909 873794 857261 
3359.203 839765 823100 808128 795381 785124 777755 774170 775133 780543 
3363.542 789672 800228 809522 814535 813340 805207 790800 772411 752396 
3367.882 733876 719770 712435 713730 724848 745028 771747 800394 824959 
3372.221 839068 838370 821506 791464 754454 718907 692821 681272 686084 
3376.561 704736 732083 761258 786717 804244 811614 809058 798136 781672 
3380.901 762453 743932 729262 720467 718476 722790 730756 738489 741841 
3385.240 737593 723719 700886 671914 640953 612815 591513 579669 577578 
3389.580 582887 591547 599178 601766 597353 587432 575787 567492 567393 
3393.919 578308 599742 628443 660565 692622 723122 753193 784659 819016 
3398.259 855169 888668 912907 920875 908457 875919 828444 775498 727536 
3402.599 693087 676593 677954 692987 715223 738821 759366 775100 786419 
3406.938 794950 803248 813141 825656 841026 858124 875288 890461 902281 
3411.278 909918 913969 915364 915065 913405 909619 901916 888801 870009 
3415.617 847068 823398 803248 789705 783597 783000 784195 783199 778087 
3419.957 769689 762154 760528 768428 786518 812145 839898 864299 881928 
3424.297 891889 895940 897102 898297 901053 905635 911379 918053 926653 
3428.636 938839 955841 977758 1002367 1025714 1042553 1048333 1040727 
3432.494 1019404 986725 946942 904406 864332 830901 808294 800261 808925 
3436.833 835482 878642 934390 996555 1058264 1111876 1151475 1173634 1178053 
3441.173 1167621 1147654 1126193 1110049 1105033 1112872 1131575 1155129 
3445.030 1175262 1184698 1178120 1155295 1121044 1084106 1054012 1037638 
3448.888 1038535 1055773 1085767 1123403 1163900 1203836 1240253 1271755 
3452.745 1297643 1318082 1334567 1349623 1366175 1386351 1410617 1437245 
3456.603 1462045 1480131 1487812 1483755 1470490 1452936 1436912 1428036 
3460.460 1429266 1440469 1460150 1485218 1512848 1540978 1568013 1592355 
3464.317 1612675 1627641 1636654 1640579 1641477 1642408 1646200 1654814 
3468.175 1667985 1684916 1703610 1723136 1742531 1761261 1777929 1790505 
3472.032 1795628 1790671 1774468 1749118 1718413 1688442 1663794 1647264 
3475.890 1638018 1633428 1630667 1628173 1626776 1628805 1636188 1648594 
3479.747 1662131 1670413 1666355 1645235 1606556 1554512 1497121 1442331 
3483.604 1396157 1362120 1340316 1330080 1330246 1338488 1352115 1366740 
3487.462 1376147 1373155 1352415 1312033 1255406 1189515 1123935 1067331 
3491.319 1024984 998315 984799 980880 982574 987987 997618 1012264 1032888 
3495.659 1058363 1086663 1114201 1137688 1154764 1164697 1167388 1163900 
3499.516 1155129 1142305 1126758 1110182 1094503 1080751 1068992 1057865 
3503.374 1046008 1031659 1014422 994662 973773 952089 929309 903875 874027 
3507.713 839433 802053 765806 736431 718973 715489 724217 740945 760229 
3512.053 778120 792726 805008 816493 828345 839964 848695 851683 846371 
3516.393 832030 810717 785655 760694 738423 720168 705864 695277 688374 
3520.732 685952 688773 697268 710344 725578 740547 753193 764312 775631 
3525.072 790336 811016 838437 871005 905701 938806 967597 990378 1006618 
3529.411 1016116 1018242 1012131 996356 970452 935519 894180 850222 807862 
3533.751 771349 744264 729163 727370 738522 759798 785589 808759 821772 
3538.091 820046 802418 773108 740148 712933 700322 706395 730822 768195 
3542.430 811481 853642 890760 922204 948403 969689 983205 982474 960689 
3546.770 913903 845110 763515 683164 618091 577678 565668 578872 609198 
3551.109 645101 676461 696937 705399 705731 704072 705466 712004 722226 
3555.449 732150 737892 734838 721595 698065 666936 631662 597021 567326 
3559.789 545795 534283 532392 537932 547354 556942 563279 564573 560625 
3564.128 552563 542909 534250 528013 523568 517961 506483 485486 454604 
3568.468 417523 379583 346455 322513 309482 306995 312201 321220 330041 
3572.807 336042 338795 340585 344664 354480 371094 392550 414704 432216 
3577.147 440840 439281 429231 415633 404257 400344 405982 420110 438584 
3581.487 456130 467607 470393 464290 452017 437888 426412 421437 424555 
3585.826 435334 450923 467043 479515 486580 488405 487078 483794 478221 
3590.166 468635 453410 431387 403528 373216 346057 328084 324171 335014 
3594.505 357033 383430 406479 421238 426279 423029 414671 403793 391688 
3598.845 378058 362339 344962 328548 317938 318733 334617 366418 410923 
3603.185 462797 514876 560459 593869 610625 608137 585176 542975 485287 
3607.524 419613 355574 302154 266048 248045 245493 253516 267639 285576 
3611.864 307758 336440 373448 418585 468337 516800 558004 588328 606710 
3616.203 615370 617129 615304 611355 603757 588030 559696 515971 459182 
3620.543 395336 332561 277055 232994 201667 182606 174054 174220 181612 
3624.883 195766 217380 247813 289356 343371 409398 481240 545165 584314 
3629.222 587267 557373 509071 458552 416296 389002 379484 387775 411852 
3633.562 447341 488869 530899 569848 604089 632923 655952 671483 676859 
3637.901 669259 646495 608634 558269 500247 440840 386415 342077 310444 
3642.241 290914 279774 272049 262766 249106 231834 215192 206871 217347 
3646.581 256500 328946 430757 545563 650377 723520 752960 740912 700454 
3650.920 647623 593106 541747 493148 444654 394009 339557 281498 221358 
3655.260 162718 110018 67532 38205 23426 23824 39331 70117 115156 171668 
3660.082 234486 297280 353319 396994 425085 437059 433908 418386 393578 
3664.421 363400 331168 301326 277354 262103 257461 264224 281763 307493 
3668.761 338761 371259 400941 425218 443626 457424 469398 481571 495802 
3673.100 512753 530634 544567 546160 525193 479681 418950 359354 313030 
3677.440 284747 273143 273176 278415 282625 281432 273276 259782 243238 
3681.780 225800 207269 185490 157680 121850 78965 33300 -9045 -40487 -54468 
3686.601 -47379 -19250 24784 75055 119597 149625 162486 161989 154896 147968 
3691.423 146874 154200 171270 197556 230408 265617 297513 320292 328449 
3695.763 320657 298839 269131 239857 219038 211811 220695 245261 283322 
3700.102 331334 384226 435035 475899 499484 501441 482666 447805 403362 
3704.442 356834 313229 274900 240918 208131 172695 132390 88112 44799 10636 
3709.264 -6560 -1756 22929 58750 92718 113764 118735 112206 102727 98551 
3714.085 104550 121751 148664 182408 219203 254544 283156 299933 300629 
3718.425 284316 253814 215921 179955 155028 148233 161889 193579 236973 
3722.765 285344 333854 380843 426644 470493 508739 534648 540122 521013 
3727.104 479979 426677 373083 330637 306498 302088 314158 335313 356569 
3731.444 369535 369933 359122 343835 331068 326095 328349 332693 330737 
3735.783 316114 287201 247217 201965 156652 115388 81749 59214 51559 61269 
3740.605 89338 134942 195998 269761 352788 440243 522174 584181 612284 
3744.945 602795 563279 507213 445782 386349 335180 298872 284316 297115 
3749.284 337104 395203 452150 487111 485884 448203 385022 313826 249803 
3753.624 201070 170740 158243 161160 177237 203722 237801 274734 308919 
3757.964 333655 342973 334252 309416 275829 243073 221159 216120 229082 
3762.303 256698 293070 330803 361709 379451 381076 369535 352589 340055 
3766.643 339922 355010 382933 417159 448568 467076 465617 443261 405517 
3770.982 361510 319629 285875 261804 247648 241647 242211 247913 257129 
3775.322 268004 278216 285013 285643 278017 261572 237868 211115 186717 
3779.662 169911 163646 167193 177966 192617 208595 224441 239824 254311 
3784.001 267639 278282 284316 283554 274569 257527 233757 205976 177469 
3788.341 151316 129573 113465 102694 96961 95668 98452 106041 119133 137461 
3793.163 160365 185059 208032 224342 229447 220364 197888 166729 134346 
3797.502 108328 94276 94276 108593 135705 171800 210253 241879 256698 250366 
3802.324 226497 194772 164442 142996 134942 141870 162917 192982 222717 
3806.664 239194 232431 201269 153636 101832 57590 29125 20145 29655 52620 
3811.485 81716 108759 127286 134445 131429 122546 114658 114824 127385 
3815.825 151680 181446 208827 228850 241117 247913 253251 260677 272447 
3820.165 287831 303116 312135 310411 297778 277685 254212 230508 208065 
3824.504 187811 170010 154664 142433 133683 129208 129805 136600 150355 
3828.844 171966 202363 241282 287135 336076 382369 419646 441868 445815 
3833.183 430657 399050 355110 304575 254875 214164 189932 187546 207932 
3837.523 245460 288759 325365 345493 346554 334185 318070 308421 311903 
3841.863 330306 359255 389963 411719 415931 398918 363632 316843 267407 
3846.202 222949 187910 164906 154034 154597 165734 187081 218308 258456 
3850.542 306432 358658 409132 449463 470128 466081 442498 413013 388836 
3854.881 372254 358824 342409 318435 285212 244200 199214 155426 116912 
3859.221 87681 70150 66074 76380 101899 141671 192385 248874 302586 344200 
3864.043 366318 366351 348809 324171 304475 298839 311538 341845 384922 
3868.382 431055 466446 477458 457590 412648 357000 305735 267971 246222 
3872.722 239161 242907 252952 264258 273342 278713 281299 282990 286339 
3877.062 293965 308123 331002 362670 402002 443593 479813 503000 508739 
3881.401 498456 478221 455600 436528 424953 421536 424720 430060 432548 
3885.741 429198 420343 409464 400609 396430 397392 402267 408635 413013 
3890.080 412714 405915 392185 373614 352656 331466 311273 292605 275398 
3894.420 260014 246686 235448 225701 215955 203623 185523 158641 121353 
3898.760 74756 22564 -28626 -70967 -97370 -102438 -82827 -37572 31312 119100 
3903.581 216386 311273 391721 448833 478885 483064 466048 433642 392119 
3907.921 348577 308786 279409 265385 269363 291014 326095 367346 404821 
3912.260 430326 438153 427705 403594 374045 349572 339823 351429 385121 
3916.600 435102 489897 536804 565933 572701 558535 529572 494608 461404 
3920.940 435400 417656 405352 392053 370961 336573 288428 231701 177203 
3925.279 137461 121287 130832 162088 205844 251062 288196 311969 321983 
3929.619 323641 324602 333356 354181 386349 424024 459149 485054 498456 
3933.958 500015 493215 481771 468337 454439 440906 428568 419414 415865 
3938.298 419911 432382 451752 473776 493281 504891 505322 494143 474075 
3942.638 450558 429596 414837 407242 405352 406181 406612 404357 398321 
3946.977 388504 375670 361112 346090 331599 317971 304873 291478 276724 
3951.317 259881 240354 218971 197623 178960 165834 160762 165038 178198 
3955.656 197987 221491 245161 266645 284615 299204 311969 325299 341348 
3959.996 362206 389002 422133 460442 502171 544501 584081 617859 642812 
3964.336 656583 658010 646760 623665 590717 551070 508839 467673 431088 
3968.675 401272 378953 363301 352556 345062 339093 333920 329278 325332 
3973.015 321751 318302 314356 309814 305603 303481 306399 317407 338397 
3977.354 369203 407242 447639 484391 511227 523700 518957 497693 462864 
3981.694 420011 375272 334882 304011 285444 279907 285709 299270 316147 
3986.034 331665 342674 347052 344565 335744 322513 306863 290682 275961 
3990.373 264523 258091 258058 265285 279509 299204 322215 345360 365854 
3994.713 381142 389997 392086 388040 379252 367910 356569 348113 344996 
3999.052 348643 359454 375471 393844 
##END=
