##TITLE=ad16_2 Oct 02 15:20:31 2026 (GMT+02:00)
##JCAMP-DX=5.01  $$ Nicolet v. 1
##DATATYPE=INFRARED SPECTRUM
##ORIGIN=Vojna akademija
##OWNER=Nicolet
##LONGDATE=2026/10/02
##TIME=15:20:59
##SPECTROMETER/DATA SYSTEM=Nicolet iS20
##DATA PROCESSING=
Ratio against background
%Transmittance->Absorbance
Truncated
ElementMultiply or ElementDivide
##COMMENTS=
Number of sample scans: 8
Collection length: 11,90 sec
Sample gain: 8,0
Background collected on: Fri Oct 02 15:19:35 2026 (GMT+02:00);
Number of background scans: 8
Background gain: 8,0
Sample spacing:  1,000
Number of scan points: 12415
Resolution points: 8286
Number of FFT points: 65536
Apodization: N-B strong;
Phase correction: Mertz;
Laser frequency: 15798,00 cm-1
Number of rejected sample scans: 0
Number of rejected background scans: 0
Bench serial number: BER2010005;
##RESOLUTION= 4,000
##XUNITS=1/CM
##YUNITS=ABSORBANCE
##FIRSTX=400.156891
##LASTX=4000.123047
##FIRSTY=0.012983
##MAXX=4000.123047
##MINX=400.156891
##MAXY=0.200595
##MINY=-0.001372
##XFACTOR=1.000000
##YFACTOR=1.000000E-009
##NPOINTS=7468
##DELTAX=0.482117
##ZPD=6100
##XYDATA=(X++(Y..Y))
400.157 12982938 16067721 19498516 22595436 24810506 25831646 25618284 
403.532 24346478 22371202 20142234 18178518 16924184 16651522 17392000 
406.907 18936974 20915082 22904758 24575168 25719908 26318774 26510536 
410.281 26531036 26593488 26801900 27120900 27400004 27443698 27087642 
413.656 26276812 25069840 23607736 22033572 20469574 18985882 17617022 
417.031 16403394 15421118 14798546 14688822 15173896 16193960 17579724 
420.406 19153898 20800500 22452530 24054900 25515350 26702280 27473240 
423.781 27707540 27378088 26571752 25462854 24236030 23036492 21953406 
427.155 21028790 20295944 19797696 19575908 19648114 19968214 20414248 
430.530 20789828 20895612 20597932 19887836 18895304 17846030 16978722 
433.905 16448678 16296977 16430166 16672730 16817640 16726445 16378585 
437.280 15862849 15315046 14857242 14561890 14443010 14480487 14644131 
440.655 14914848 15284019 15741104 16255906 16765051 17181676 17425972 
444.030 17448736 17249520 16870340 16381750 15859686 15385036 15038555 
447.404 14892799 15013929 15447279 16205240 17265690 18569632 20024144 
450.779 21498024 22846534 23924886 24616056 24867168 24693698 24173042 
454.154 23408508 22519772 21621358 20815064 20204226 19875524 19883918 
457.529 20225540 20826222 21553976 22264258 22850482 23247296 23425328 
460.904 23381162 23133318 22734478 22275034 21886286 21699652 21813148 
464.278 22260666 22997642 23905386 24804120 25505580 25834670 25688970 
467.653 25068084 24073918 22876046 21666388 20641434 19954302 19701750 
471.028 19896718 20450888 21168516 21791270 22100262 21981254 21471426 
474.403 20715278 19898452 19165050 18577584 18120546 17724108 17308824 
477.778 16834998 16328216 15868450 15554826 15451605 15568941 15855493 
481.152 16226530 16594511 16912230 17184570 17453392 17764008 18128492 
484.527 18508980 18834780 19024618 19026486 18835368 18484950 18026418 
487.902 17507998 16971004 16451983 15994767 15659960 15509118 15586491 
491.277 15887180 16341839 16814128 17134728 17165612 16831554 16152827 
494.652 15223789 14189670 13193152 12352464 11750715 11424163 11374366 
498.027 11578697 12001956 12598629 13311621 14072672 14795530 15395781 
501.401 15812365 16029730 16089384 16077040 16093647 16212154 16461067 
504.776 16814092 17202048 17522694 17669612 17564784 17177228 16544530 
508.151 15762372 14966837 14285845 13813527 13590739 13600243 13775048 
511.526 14020105 14244825 14378582 14390364 14287284 14102483 13879342 
514.901 13660965 13487233 13388773 13390209 13505041 13730451 14043410 
518.276 14398551 14739001 15003501 15144183 15137767 14985152 14708084 
521.650 14339780 13921456 13494342 13106029 12808452 12646862 12653071 
525.025 12823843 13112859 13429131 13666095 13741977 13626227 13353817 
528.400 13007998 12694350 12497268 12463612 12587748 12821283 13089193 
531.775 13321495 13477458 13548247 13551801 13515192 13461941 13403912 
535.150 13345275 13292011 13258941 13272367 13363214 13553716 13848178 
538.524 14225960 14647420 15059412 15412054 15667826 15804771 15820097 
541.899 15727155 15554482 15337597 15118692 14935972 14813974 14760666 
545.274 14762311 14789084 14801426 14766185 14665208 14500116 14288174 
548.649 14054362 13823549 13611697 13425714 13264203 13121567 12989596 
552.024 12859098 12719632 12557734 12360168 12118669 11835626 11528472 
555.398 11230547 10987874 10846120 10845474 11008162 11333177 11794087 
558.773 12345850 12934361 13503023 14007922 14423143 14742703 14980453 
562.148 15163123 15320023 15470077 15615960 15742065 15823843 15836112 
565.523 15768213 15630901 15457339 15292461 15183710 15170294 15272761 
568.898 15495967 15829686 16253566 16738154 17245726 17733738 18154230 
572.273 18468042 18657340 18735448 18746828 18759216 18843222 19041650 
575.647 19355342 19735486 20106940 20392752 20552698 20597760 20588240 
579.022 20607904 20733280 21006778 21412874 21877818 22286718 22528148 
582.397 22515200 22217664 21665902 20949538 20194298 19528910 19063910 
585.772 18853052 18886618 19096040 19384028 19647940 19810354 19842366 
589.147 19761492 19621560 19485278 19406272 19406238 19474500 19574592 
592.521 19666490 19723108 19738850 19726816 19707988 19699114 19703378 
595.896 19710660 19701782 19656954 19559860 19400728 19176374 18889456 
599.271 18549506 18176446 17803394 17470018 17218492 17080376 17064522 
602.646 17153100 17302858 17457636 17558678 17567786 17475814 17305996 
606.021 17102778 16919014 16798868 16762812 16804620 16894314 16992746 
609.396 17059940 17070108 17016176 16907302 16762156 16597781 16423970 
612.770 16237674 16027324 15780788 15495692 15185700 14880729 14618292 
616.145 14434858 14349472 14358752 14435269 14539996 14632788 14681933 
619.520 14672096 14601432 14476958 14310603 14119015 13925528 13759349 
622.895 13657307 13651802 13759042 13968469 14239552 14508716 14706473 
626.270 14784970 14731529 14573060 14360020 14147940 13972369 13838327 
629.644 13725629 13607286 13469289 13326962 13221025 13204457 13318113 
633.019 13567903 13917351 14295604 14627373 14851893 14949655 14942626 
636.394 14883232 14828579 14819288 14868797 14963339 15073236 15166244 
639.769 15222108 15233397 15204333 15145041 15067130 14981996 14902778 
643.144 14846682 14833619 14882855 15007171 15206837 15467811 15763333 
646.519 16062908 16335819 16557919 16716667 16810546 16849810 16854908 
649.893 16856044 16884808 16968868 17123838 17344444 17600772 17841678 
653.268 18010428 18054464 17946506 17692632 17335790 16944406 16595097 
656.643 16359765 16283458 16379617 16629832 16994640 17420522 17854556 
660.018 18258164 18608398 18903782 19156704 19388256 19615840 19847672 
663.393 20078726 20295250 20481314 20625834 20730708 20813152 20911848 
666.767 21085622 21408382 21926362 22602346 23309486 23916028 24364842 
670.142 24669394 24874044 25024910 25161118 25310888 25493986 25718324 
673.517 25977320 26252558 26517230 26745974 26920616 27037848 27110600 
676.892 27166258 27235928 27350386 27534026 27803366 28172062 28650994 
680.267 29245236 29948372 30735434 31560556 32357938 33060380 33614720 
683.642 34001000 34243044 34405160 34569528 34802556 35137908 35563376 
687.016 36033824 36488388 36881092 37197516 37456808 37695364 37946852 
690.391 38224640 38517424 38796088 39030780 39207060 39330196 39422344 
693.766 39510556 39618676 39758340 39932264 40137148 40369404 40625868 
697.141 40901484 41186892 41466328 41723108 41947744 42144348 42331908 
700.516 42538292 42790776 43103664 43473796 43882588 44307392 44730668 
703.890 45149576 45575772 46029536 46529168 47082000 47681272 48309816 
707.265 48947912 49579444 50197320 50804596 51411124 52030972 52681896 
710.640 53382652 54149432 54992736 55911312 56891512 57907776 58933708 
714.015 59952560 60966260 61996928 63078976 64243972 65505056 66849500 
717.390 68241536 69639728 71006568 72322456 73584568 74791512 75927416 
720.765 76951768 77798328 78398928 78699280 78674616 78331936 77697984 
724.139 76804992 75680248 74351168 72851768 71229232 69546304 67863672 
727.514 66224204 64642072 63101544 61570512 60023128 58459256 56911156 
730.889 55434200 54081124 52885552 51843396 50916684 50044028 49167564 
734.264 48247568 47272184 46254380 45221012 44201144 43215612 42277120 
737.639 41392188 40563616 39792836 39078156 38413560 37785100 37174808 
741.013 36563248 35934368 35280376 34600568 33900324 33186648 32467328 
744.388 31749588 31040682 30349880 29687138 29061682 28481950 27952638 
747.763 27476910 27055408 26686564 26365914 26082900 25823486 25568342 
751.138 25300000 25009466 24701030 24393720 24116016 23897544 23753648 
754.513 23679602 23646362 23612774 23534660 23381616 23148452 22854986 
757.888 22538232 22237508 21984216 21790922 21651030 21544192 21447684 
761.262 21342498 21221432 21089344 20960318 20852260 20780304 20751874 
764.637 20763552 20800046 20835678 20841274 20789134 20659572 20446998 
768.012 20159208 19815106 19435898 19041062 18642708 18247624 17861356 
771.387 17493200 17156926 16870410 16648423 16496619 16408073 16365578 
774.762 16345795 16327355 16296187 16246824 16178861 16091514 15978955 
778.136 15830683 15635297 15387954 15095877 14780514 14474012 14207952 
781.511 14008676 13889024 13846776 13865864 13921388 13984688 14025512 
784.886 14017642 13942156 13790713 13571253 13309605 13048730 12835617 
788.261 12713729 12706530 12809476 12988161 13188302 13351084 13426159 
791.636 13389799 13248079 13036370 12805039 12611659 12507021 12522742 
795.010 12666716 12918931 13236498 13555767 13808328 13936990 13906095 
798.385 13717422 13410815 13058939 12741912 12533758 12482025 12597470 
801.760 12858245 13217506 13622227 14019010 14367965 14642314 14825562 
805.135 14909910 14896811 14798991 14639949 14454041 14279750 14147256 
808.510 14074520 14061309 14092386 14143969 14195079 14234965 14264615 
811.885 14293858 14333992 14390364 14458254 14523515 14567852 14578233 
815.259 14550891 14497205 14439825 14410539 14439859 14548527 14741469 
818.634 15004633 15305538 15598477 15838860 15989164 16030520 15967609 
822.009 15826661 15646357 15465854 15316830 15215725 15164804 15156157 
825.384 15180073 15228216 15297850 15389430 15505650 15648074 15815973 
828.759 16008483 16224226 16462410 16720593 16992056 17263034 17512898 
832.133 17719310 17862982 17935212 17940600 17896196 17825384 17749476 
835.508 17685556 17641868 17620852 17623200 17649806 17703468 17787100 
838.883 17900960 18040960 18198972 18366374 18536020 18704936 18873606 
842.258 19042550 19210104 19370690 19517092 19645272 19757506 19865014 
845.633 19982680 20123910 20292368 20479162 20662108 20814300 20913900 
849.008 20951452 20934136 20883582 20829420 20797614 20806026 20859074 
852.382 20948358 21056962 21164236 21252646 21308948 21328400 21312776 
855.757 21270912 21215136 21157592 21107882 21069518 21040894 21017802 
859.132 20996972 20979756 20973394 20987894 21032998 21110770 21212874 
862.507 21319666 21406852 21452802 21446152 21392234 21311420 21233578 
865.882 21186956 21190400 21246834 21341416 21445700 21527618 21561114 
869.256 21532842 21447406 21325478 21198992 21099464 21051538 21065796 
872.631 21136686 21245756 21369122 21485214 21578734 21643752 21681366 
876.006 21694358 21683212 21644030 21569854 21456248 21305156 21127886 
879.381 20942342 20770294 20630070 20531266 20474716 20453008 20454780 
882.756 20467734 20483468 20496910 20506670 20514208 20521678 20532482 
886.131 20548356 20568958 20590046 20603040 20595848 20557460 20482078 
889.505 20374312 20249146 20130746 20045932 20015120 20048050 20142268 
892.880 20284974 20457072 20639418 20814438 20965674 21078388 21137974 
896.255 21131398 21053658 20911050 20725078 20527444 20355630 20240604 
899.630 20197698 20225018 20304832 20411922 20520184 20612004 20678266 
903.005 20717328 20730638 20719622 20684522 20626806 20551204 20466866 
906.379 20385876 20320456 20278480 20261712 20266816 20287404 20315908 
909.754 20346742 20375286 20395912 20401816 20385668 20340908 20264872 
913.129 20160214 20033928 19894948 19751332 19610296 19478208 19364732 
916.504 19284086 19250730 19276118 19359188 19482124 19608770 19695370 
919.879 19703310 19611576 19427512 19185862 18939328 18738076 18618776 
923.254 18593010 18648694 18757138 18886098 19011636 19121280 19214294 
926.628 19296174 19372700 19446466 19516674 19582182 19643990 19707122 
930.003 19778416 19863974 19966618 20084382 20211134 20337818 20455682 
933.378 20557284 20638306 20698250 20741308 20777038 20817914 20878646 
936.753 20971586 21103014 21271748 21471042 21692652 21930892 22187222 
940.128 22467916 22781022 23128776 23502410 23881090 24238554 24548802 
943.502 24796684 24982092 25118354 25225408 25320828 25414654 25507374 
946.877 25594314 25670376 25735164 25792896 25850354 25912110 25979924 
950.252 26052958 26133322 26229258 26355246 26528182 26761022 27054740 
953.627 27396722 27761790 28123100 28457326 28751664 29003692 29216670 
957.002 29394296 29537552 29648718 29735498 29816974 29923276 30085742 
960.377 30327068 30648384 31026340 31415916 31765270 32035354 32208714 
963.751 32294080 32317602 32311354 32298222 32286800 32274056 32252964 
967.126 32220670 32182522 32148090 32125682 32115444 32107882 32088224 
970.501 32045238 31978964 31903822 31842064 31815716 31835574 31895656 
973.876 31974078 32041136 32073382 32059614 32006818 31935170 31872622 
977.251 31842780 31859324 31922686 32021374 32136850 32248254 32339088 
980.625 32400240 32431838 32443800 32453332 32481324 32545280 32657076 
984.000 32817814 33018802 33242342 33467892 33674832 33845660 33968036 
987.375 34034288 34041420 33991972 33895664 33769260 33633088 33508334 
990.750 33408094 33333812 33273246 33205748 33108402 32965106 32773044 
994.125 32542922 32295044 32049946 31824558 31626300 31455204 31306792 
997.500 31177614 31067090 30978192 30915284 30882980 30883940 30920266 
1000.874 30994240 31107914 31261284 31449008 31657376 31865456 32046270 
1004.249 32176956 32244686 32252430 32218098 32168678 32131322 32122794 
1007.624 32146700 32193940 32249610 32300360 32342554 32384034 32442440 
1010.999 32536994 32681902 32878782 33114732 33362616 33587620 33758268 
1014.374 33852824 33867904 33820908 33748672 33696100 33703120 33795444 
1017.748 33973804 34215904 34484036 34740204 34955800 35121776 35247028 
1021.123 35352152 35459028 35581860 35725304 35887436 36065220 36258240 
1024.498 36469432 36700884 36947400 37195456 37423468 37609900 37742344 
1027.873 37822368 37864304 37887516 37907512 37927940 37938896 37923384 
1031.249 37866584 37763088 37619188 37448464 37265888 37079964 36892060 
1034.624 36699588 36501544 36302760 36114008 35945668 35802800 35681704 
1037.999 35571824 35462800 35353016 35253028 35184432 35169668 35219540 
1041.374 35325700 35460428 35584988 35661920 35671344 35614944 35515728 
1044.750 35405316 35315168 35267656 35271968 35329220 35436880 35593476 
1048.125 35798768 36051144 36344368 36665696 37000000 37333368 37658972 
1051.500 37978312 38299112 38628992 38971116 39321344 39670588 40010880 
1054.875 40338024 40654024 40964180 41272768 41578728 41875748 42155448 
1058.251 42412784 42650316 42877404 43106700 43349004 43607964 43879876 
1061.626 44155984 44427356 44688944 44940144 45181892 45414616 45635352 
1065.001 45839008 46020544 46179640 46319736 46448664 46574940 46705864 
1068.376 46849304 47015752 47220128 47481964 47817192 48230836 48709252 
1071.752 49220996 49721868 50173252 50559700 50898912 51239476 51644708 
1075.127 52174612 52859280 53692732 54635052 55633876 56640252 57628308 
1078.502 58598856 59571960 60571244 61609760 62685056 63780300 64872688 
1081.877 65941452 66972496 67958128 68893384 69775608 70606376 71396000 
1085.253 72164408 72942104 73758296 74632288 75567296 76548864 77552664 
1088.628 78553984 79536840 80494848 81424760 82318168 83154520 83903120 
1092.003 84535376 85034008 85404368 85671136 85871000 86034368 86177544 
1095.378 86299992 86389848 86432704 86419280 86347000 86213624 86011584 
1098.754 85726192 85337216 84830056 84203448 83473800 82670832 81830568 
1102.129 80987904 80169176 79396272 78688280 78063288 77538480 77124392 
1105.504 76822080 76621952 76508712 76470392 76505240 76624752 76848576 
1108.879 77192976 77660704 78233416 78876216 79551048 80226968 80892288 
1112.255 81553752 82227392 82923136 83635096 84338824 85002416 85596080 
1115.630 86104288 86527680 86874752 87149720 87344192 87435640 87397920 
1119.005 87213184 86880336 86415040 85840840 85177544 84433504 83606376 
1122.380 82693840 81703296 80661264 79610184 78597064 77666760 76850000 
1125.755 76164816 75623648 75239904 75034792 75036528 75271512 75758312 
1129.131 76501096 77491032 78711640 80148696 81796368 83654384 85721184 
1132.506 87983752 90407184 92941960 95529984 98120928 100688192 103228952 
1135.881 105756840 108285416 110814944 113325440 115783568 118151328 
1138.774 120401416 122519944 124503264 126348240 128047016 129585624 
1141.667 130952032 132143856 133172928 134059144 134823872 135479968 
1144.560 136031040 136479792 136837744 137133488 137411696 137716608 
1147.453 138080608 138512000 138997072 139510336 140032704 140561840 
1150.347 141112720 141702944 142337120 142995056 143637616 144221872 
1153.240 144722016 145146464 145535088 145941712 146404160 146928064 
1156.133 147479120 148000592 148431792 148736112 148908752 148969920 
1159.026 148946064 148854512 148695088 148456464 148127744 147710544 
1161.919 147218608 146671232 146078432 145434112 144717312 143905168 
1164.812 142987376 141973904 140890688 139768896 138629392 137475488 
1167.705 136295952 135077216 133814560 132517384 131203816 129887224 
1170.598 128567952 127229872 125849472 124409576 122912048 121379784 
1173.491 119847632 118343792 116880440 115447848 114025824 112596344 
1176.384 111158656 109730064 108339368 107009072 105743688 104526880 
1179.277 103331456 102132440 100921760 99711568 98526272 97387072 96298048 
1182.652 95243048 94193424 93123440 92023008 90903416 89792688 88722592 
1186.028 87712832 86765896 85867696 84999072 84144280 83298320 82465984 
1189.403 81653872 80862712 80084064 79302280 78503008 77680072 76839520 
1192.778 75995928 75167496 74368664 73605136 72876032 72176968 71503056 
1196.153 70850592 70215040 69589896 68965544 68333816 67692408 67050240 
1199.529 66425852 65843120 65320388 64862220 64455540 64075468 63695536 
1202.904 63298152 62882660 62464744 62068176 61712720 61407128 61146528 
1206.279 60918720 60711756 60521804 60355240 60223520 60135644 60090780 
1209.654 60076816 60075404 60069320 60049344 60017844 59984780 59961348 
1213.030 59952068 59953248 59954312 59944880 59919620 59881208 59838728 
1216.405 59803020 59780964 59773664 59778532 59792980 59818724 59863788 
1219.780 59939096 60056308 60221236 60432112 60679712 60950784 61231520 
1223.155 61509728 61777616 62031060 62270200 62498456 62723228 62954128 
1226.531 63199796 63464544 63744804 64030736 64306056 64557216 64777284 
1229.906 64969188 65143616 65313264 65486252 65661272 65828504 65975196 
1233.281 66093320 66183216 66255040 66321036 66390412 66462384 66526332 
1236.656 66565724 66566028 66520304 66429564 66299000 66132940 65929152 
1240.032 65680744 65378816 65020180 64610580 64164876 63699640 63228236 
1243.407 62754884 62274640 61777652 61255976 60707604 60137888 59556036 
1246.782 58969608 58383104 57796632 57210120 56626060 56051040 55494812 
1250.157 54966148 54469936 54006260 53573064 53169660 52800008 52471832 
1253.533 52192660 51963636 51776348 51613476 51452976 51277992 51082428 
1256.908 50872800 50662192 50462516 50275692 50091996 49892544 49661236 
1260.283 49393892 49102076 48808228 48535332 48295708 48085976 47888404 
1263.658 47681272 47449920 47192352 46919400 46646944 46389152 46151040 
1267.034 45929048 45715152 45504016 45295408 45095572 44912288 44750060 
1270.409 44607716 44479372 44358728 44243956 44140028 44056888 44003976 
1273.784 43983844 43989968 44007824 44020512 44013948 43982928 43930244 
1277.159 43862280 43783660 43692852 43581372 43437320 43249872 43013660 
1280.535 42729864 42404600 42044868 41656552 41243692 40809860 40360860 
1283.910 39905640 39455288 39021968 38615264 38242044 37906352 37609976 
1287.285 37354096 37138212 36959448 36810440 36679544 36552864 36417760 
1290.660 36267640 36103420 35934332 35773800 35633472 35520616 35435084 
1294.036 35371272 35321096 35278256 35240452 35209656 35189428 35183140 
1297.411 35191832 35213968 35246132 35284116 35323612 35358408 35380980 
1300.786 35381912 35351432 35283004 35176060 35037292 34879064 34716804 
1304.161 34564040 34428440 34311028 34207872 34112200 34017844 33921208 
1307.536 33821804 33721168 33621556 33525370 33435218 33353812 33284656 
1310.912 33231358 33195626 33177062 33171914 33174456 33178174 33177994 
1314.287 33171378 33157930 33138226 33112336 33079476 33037890 32985408 
1317.662 32920602 32842402 32749746 32641142 32514748 32370004 32208606 
1321.037 32036032 31860176 31688814 31527278 31375632 31228810 31077588 
1324.413 30913362 30731062 30531312 30319680 30103818 29890832 29684302 
1327.788 29485562 29295388 29116528 28956088 28824138 28730530 28682460 
1331.163 28680194 28717644 28782714 28862948 28948826 29036390 29127512 
1334.538 29229960 29353134 29505882 29694944 29922954 30187528 30480552 
1337.914 30788038 31091114 31368614 31603530 31789836 31934884 32055512 
1341.289 32172318 32300864 32445404 32600782 32755036 32895188 33012294 
1344.664 33105542 33182106 33254110 33333312 33427882 33541120 33672324 
1348.039 33819332 33979968 34151736 34330496 34509008 34677824 34825820 
1351.415 34945636 35034092 35093972 35131008 35150408 35154864 35143116 
1354.790 35113836 35069220 35016852 34970412 34943516 34944988 34975692 
1358.165 35028168 35090992 35154756 35217600 35285984 35372356 35486712 
1361.540 35629300 35785244 35928720 36031736 36079512 36074976 36034724 
1364.916 35977956 35918784 35863580 35813056 35767216 35730124 35710804 
1368.291 35720984 35768584 35852244 35961040 36079944 36198052 36315224 
1371.666 36446480 36619624 36869804 37225384 37697276 38267884 38895512 
1375.041 39525544 40109384 40611060 40999284 41242452 41303776 41144308 
1378.417 40740996 40097248 39249820 38253916 37171816 36053660 34930916 
1381.792 33825420 32753892 31732478 30777332 29896510 29086732 28332850 
1385.167 27614138 26912366 26220880 25550454 24923168 24359830 23867612 
1388.542 23434176 23037854 22659454 22289196 21929496 21591306 21288206 
1391.918 21028652 20815656 20645256 20509902 20401122 20313164 20243486 
1395.293 20190480 20152370 20126408 20112456 20113256 20136890 20194020 
1398.668 20291186 20425676 20582368 20739014 20872910 20968004 21016722 
1402.043 21016236 20966752 20869294 20727164 20547244 20341706 20129568 
1405.419 19930122 19760002 19629222 19539932 19491654 19484480 19522706 
1408.794 19617538 19783478 20035524 20382300 20821738 21339956 21914164 
1412.169 22521446 23141532 23759808 24367330 24955350 25513732 26030126 
1415.544 26488348 26871440 27160720 27333590 27365948 27238326 26951286 
1418.920 26538748 26068826 25613890 25219720 24899728 24642284 24427052 
1422.295 24236066 24059452 23899048 23766878 23678972 23647550 23674738 
1425.670 23754978 23882140 24056404 24288238 24597962 25008518 25537066 
1429.045 26184174 26928584 27731766 28547762 29337820 30075374 30749768 
1432.421 31364020 31930320 32467864 32999568 33551000 34147112 34805180 
1435.796 35522988 36267604 36982680 37617420 38152284 38602700 38999860 
1439.171 39371912 39738116 40105608 40472792 40830568 41169336 41481564 
1442.546 41765460 42024608 42267220 42503068 42741088 42990320 43261256 
1445.922 43566680 43924084 44351572 44862764 45460968 46137004 46875544 
1449.297 47667408 48514732 49432056 50436984 51540492 52734568 53990880 
1452.672 55271228 56534604 57757648 58937580 60082712 61203480 62289512 
1456.047 63291168 64117520 64684444 64985312 65095460 65119676 65123448 
1459.422 65129144 65138340 65148928 65162092 65180652 65204404 65225392 
1462.798 65225968 65180652 65059244 64831136 64468192 63931412 63166036 
1466.173 62107204 60685848 58863508 56645612 54090392 51282764 48320336 
1469.548 45279080 42171440 38962960 35589700 32025832 28365320 24854114 
1472.923 21790470 19351982 17526350 16169507 15107027 14214456 13424928 
1476.299 12719871 12102792 11575363 11124915 10728152 10359745 10002160 
1479.674 9648969 9304393 8976630 8673485 8397475 8146825 7917409 7707338 
1483.531 7516619 7346168 7193773 7053151 6914492 6768576 6611841 6449648 
1487.389 6294576 6161638 6060558 5991382 5943613 5903978 5865892 5831637 
1491.246 5807962 5798829 5800910 5805209 5800272 5775626 5724926 5647646 
1495.104 5550076 5442462 5336585 5239118 5150357 5065737 4981234 4897217 
1498.961 4815729 4738879 4666396 4596604 4528666 4465122 4412567 4379565 
1502.818 4375013 4404300 4467433 4556724 4655679 4739549 4774321 4731443 
1506.676 4611607 4459699 4329397 4245138 4199568 4176417 4163136 4151862 
1510.533 4137077 4112825 4073223 4014997 3939893 3856646 3778996 3723616 
1514.391 3703832 3728462 3796476 3896395 4006035 4101921 4170328 4210910 
1518.248 4231286 4237542 4228776 4197025 4132059 4031718 3910905 3801156 
1522.106 3730033 3700992 3695745 3688928 3661761 3606664 3530362 3451133 
1525.963 3392924 3372487 3392289 3439277 3494587 3541652 3572888 3588690 
1529.820 3594069 3593467 3588990 3578901 3559592 3528524 3487305 3441949 
1533.678 3399970 3363872 3328879 3286511 3230927 3160731 3080703 3000622 
1537.535 2934067 2898775 2909849 2971797 3067222 3161833 3223383 3244079 
1541.393 3236435 3215505 3187533 3151787 3107900 3060982 3022577 3006261 
1545.250 3018372 3053974 3097989 3132897 3142575 3117612 3056611 2968861 
1549.108 2873859 2795951 2757035 2765405 2815226 2892104 2980838 3067088 
1552.965 3137669 3181659 3190904 3163769 3106098 3029216 2944208 2856915 
1556.822 2767339 2668813 2551578 2415716 2289922 2222277 2231935 2294386 
1560.680 2376035 2455367 2524416 2581642 2630709 2677915 2730460 2793616 
1564.537 2867621 2945909 3019173 3077800 3117512 3138770 3145812 3143910 
1568.395 3136234 3123852 3105364 3079235 3047201 3013368 2982173 2956051 
1572.252 2934667 2915820 2896840 2876994 2858383 2847110 2851545 2877094 
1576.109 2918255 2958319 2978336 2969829 2937036 2892204 2849444 2821063 
1579.967 2816027 2837338 2881530 2940005 3001623 3054842 3090747 3103295 
1583.824 3088945 3047034 2980605 2897507 2809257 2730260 2674981 2653345 
1587.682 2670247 2723058 2803254 2897774 2993483 3078934 3145879 3189703 
1591.539 3208562 3203989 3181058 3148683 3118279 3100091 3100225 3117044 
1595.397 3141741 3160264 3160197 3136201 3091448 3036957 2986610 2952014 
1599.254 2937603 2940138 2950546 2958553 2957018 2944842 2926628 2909549 
1603.111 2898975 2895973 2897941 2900143 2899342 2895773 2892437 2894906 
1606.969 2906547 2928963 2959921 2994784 3028883 3059080 3084007 3103162 
1610.826 3116210 3122551 3122084 3116210 3108067 3101993 3102527 3112405 
1614.684 3132062 3157728 3183561 3203855 3218075 3232362 3256565 3295992 
1618.541 3350382 3414163 3480859 3543490 3596942 3636801 3659122 3659489 
1622.399 3634296 3582643 3509384 3425384 3344539 3278365 3235567 3220646 
1626.256 3234566 3274826 3335724 3408953 3484733 3555616 3617623 3670215 
1630.113 3714727 3753561 3788956 3822716 3856946 3893119 3932537 3974735 
1633.971 4017606 4057370 4089478 4112691 4130520 4150624 4177454 4210542 
1637.828 4245673 4277829 4303829 4323741 4340407 4359885 4388769 4432752 
1641.686 4495353 4577551 4679090 4799514 4940179 5102781 5289190 5498766 
1645.543 5723281 5943714 6133072 6267615 6341912 6370256 6374896 6373047 
1649.401 6374593 6385555 6409967 6456408 6537398 6670047 6862045 7083999 
1653.258 7260782 7328544 7296868 7217186 7131354 7057192 6997958 6948732 
1657.115 6901195 6846762 6779110 6696629 6602186 6501879 6401291 6304728 
1660.973 6212522 6122151 6031327 5941262 5859107 5795000 5756923 5747522 
1664.830 5763538 5798560 5845473 5898974 5955471 6013588 6073561 6135996 
1668.688 6200053 6261531 6313503 6349242 6365616 6364036 6349040 6326413 
1672.545 6302409 6284087 6279683 6299652 6352805 6441947 6557681 6681554 
1676.402 6794154 6883487 6947621 6989304 7014323 7028331 7038131 7050052 
1680.260 7070393 7105150 7159985 7242117 7360558 7525081 7736480 7972449 
1684.117 8183221 8320124 8376362 8381429 8371160 8367614 8381665 8417441 
1687.975 8476192 8558336 8663920 8792317 8941114 9105053 9276026 9445001 
1691.832 9605234 9754141 9894962 10038169 10200691 10405082 10671913 
1695.207 11006327 11383480 11754358 12073629 12325636 12522401 12689506 
1698.583 12856469 13053750 13310391 13636279 14009496 14386803 14734374 
1701.958 15041952 15313879 15559702 15788244 16010134 16238810 16490217 
1705.333 16775519 17095230 17437044 17783062 18118750 18439970 18752814 
1708.708 19069934 19404262 19764718 20152126 20561280 20985668 21421888 
1712.084 21874508 22355576 22879888 23459426 24096648 24783458 25508814 
1715.459 26268822 27078508 27968326 28970396 30080772 31242198 32371324 
1718.834 33406698 34343260 35224064 36108604 37056760 38115676 39316556 
1722.209 40670692 42171808 43801872 45537428 47359420 49254324 51210584 
1725.585 53218276 55271000 57377640 59576028 61936512 64551256 67502552 
1728.960 70821504 74453488 78268848 82105248 85870840 89614592 93574736 
1732.335 98162336 103905144 111206936 119912384 129083248 137470416 
1735.228 144374944 149910048 154588064 158909200 163219296 167699888 
1738.121 172398336 177241392 182081200 186714880 190934448 194558672 
1741.014 197432432 199430496 200481536 200595248 199885856 198538688 
1743.907 196744384 194598608 192074160 189051344 185405424 181083552 
1746.800 176151216 170755664 165075920 159218656 153174336 146833360 
1749.693 140094592 132978336 125675648 118516568 111829832 105811408 
1752.587 100473832 95693216 91283552 87056344 82850952 78543344 74059696 
1755.962 69409088 64699292 60118480 55869860 52083792 48786576 45911184 
1759.337 43337068 40923548 38541208 36110336 33626820 31177364 28899068 
1762.712 26913038 25266110 23926568 22810950 21825168 20887234 19942716 
1766.088 18969612 17978794 17006426 16098049 15294109 14612089 14046593 
1769.463 13576107 13176484 12825515 12501667 12183921 11851493 11493598 
1772.838 11119102 10752028 10418997 10136482 9908047 9724355 9568854 9423228 
1776.695 9275450 9122039 8968816 8823831 8691131 8565838 8434771 8282534 
1780.553 8101891 7901043 7701874 7528890 7399146 7314862 7263579 7220622 
1784.410 7157931 7056484 6911193 6733408 6541467 6354554 6184962 6038215 
1788.268 5915499 5815450 5736879 5677859 5634522 5598607 5557560 5498900 
1792.125 5415386 5310523 5195288 5081225 4973492 4870645 4767621 4661171 
1795.983 4553141 4451665 4367750 4311627 4287265 4290143 4306741 4319357 
1799.840 4312497 4276557 4210977 4121990 4017973 3905957 3790895 3679137 
1803.697 3578701 3501601 3459750 3460018 3501167 3571317 3651203 3718369 
1807.555 3755566 3755433 3721511 3664835 3597978 3529927 3463157 3395863 
1811.412 3325908 3254762 3188701 3135200 3098990 3079335 3069391 3059247 
1815.270 3039393 3005761 2961889 2918656 2888468 2880663 2895439 2923225 
1819.127 2945509 2942006 2897274 2805055 2671914 2515684 2364641 2247722 
1822.984 2192903 2216948 2319235 2475461 2642643 2775042 2838205 2824064 
1826.842 2747699 2639810 2531881 2450202 2407953 2401456 2411718 2415849 
1830.699 2401556 2372903 2346385 2339389 2362642 2414550 2481826 2541780 
1834.557 2572076 2557344 2496622 2402755 2299948 2214583 2165064 2157272 
1838.414 2182247 2220178 2246189 2239995 2189107 2091212 1953230 1790372 
1842.272 1625313 1482392 1384357 1344404 1360226 1414939 1485318 1554079 
1846.129 1613041 1663794 1712591 1765985 1827337 1894888 1963182 2024762 
1849.986 2071968 2100035 2106960 2093409 2062214 2017339 1965146 1912160 
1853.844 1864173 1826372 1801218 1790738 1796294 1820084 1864073 1928168 
1857.701 2008584 2095507 2175087 2232501 2255249 2240061 2193869 2134962 
1861.559 2083687 2057386 2062047 2090546 2124907 2143553 2129868 2077794 
1865.416 1994270 1897085 1809403 1751613 1736243 1763789 1822080 1888765 
1869.274 1940583 1961884 1945542 1892159 1806275 1695127 1567713 1434918 
1873.131 1310238 1205796 1131575 1093074 1090583 1119915 1173568 1242313 
1876.988 1315456 1381698 1430131 1449844 1434220 1382063 1300966 1206029 
1880.846 1118287 1060091 1048266 1092875 1194765 1345535 1528775 1722504 
1884.703 1903508 2048764 2140256 2165364 2118314 2001161 1824576 1608717 
1888.561 1380003 1168883 1002765 899658 866955 902348 997451 1141309 1322303 
1892.900 1526813 1738040 1937820 2107992 2236098 2319702 2365874 2386963 
1896.758 2392460 2385297 2360610 2310075 2227838 2116516 1989078 1866768 
1900.615 1770310 1714454 1702945 1727394 1770476 1811998 1835955 1833393 
1904.473 1804645 1756803 1702446 1655147 1628240 1631466 1667885 1732052 
1908.330 1809137 1878382 1917585 1911162 1856752 1767449 1667054 1582046 
1912.187 1535159 1536988 1587200 1674671 1784283 1899880 2008517 2101466 
1916.045 2171757 2212619 2218114 2186276 2122642 2041773 1962816 1900047 
1919.902 1857651 1828668 1797924 1746223 1658572 1531235 1375848 1217093 
1923.760 1083740 1003064 991208 1054677 1188486 1378374 1598441 1813995 
1927.617 1989344 2090712 2099402 2018004 1873191 1707701 1565785 1479300 
1931.474 1454033 1471221 1496855 1503039 1480896 1450476 1450110 1520928 
1935.332 1681889 1917053 2173522 2380933 2477260 2433309 2266573 2034283 
1939.189 1810401 1652120 1585837 1595481 1633195 1635124 1553813 1379903 
1943.047 1146325 911014 732448 650776 674635 787912 956472 1143634 1314825 
1947.386 1444259 1517071 1526148 1473848 1371194 1238691 1101512 986525 
1951.244 918153 909951 964243 1069889 1207524 1352614 1481894 1576891 
1955.101 1623949 1615568 1551619 1441932 1304123 1163036 1046240 975035 
1958.959 959594 994994 1062482 1133867 1184897 1203836 1194798 1175163 
1962.816 1167986 1194300 1263979 1377077 1522790 1687011 1853824 2006254 
1966.673 2125273 2185610 2160635 2029755 1786512 1447118 1050658 659569 
1970.531 342774 168585 184231 397691 772942 1237595 1707668 2099003 2350516 
1974.870 2433209 2351815 2138525 1843509 1517470 1199450 913073 669127 
1978.728 470658 321751 226961 194407 231237 341016 519189 751633 1014256 
1983.068 1277936 1513446 1703643 1843708 1941248 2010248 2063612 2105728 
1986.925 2132498 2134063 2103597 2047765 1991841 1975564 2047865 2249254 
1990.782 2593309 3052106 3553512 4004764 4308481 4400250 4265883 3945845 
1994.640 3522913 3100692 2782745 2635676 2681915 2888768 3181058 3453304 
1998.497 3602187 3559391 3303471 2869489 2333693 1799422 1361223 1086763 
2002.355 998249 1071716 1245802 1445290 1606489 1684350 1659603 1533430 
2006.212 1317118 1023954 665178 255671 -180940 -606757 -973248 -1237184 
2010.069 -1370413 -1371899 -1261038 -1067557 -811687 -497620 -115191 345493 
2013.927 876218 1439572 1976729 2421714 2727259 2886233 2939705 2961489 
2017.784 3019674 3148516 3322836 3475248 3517368 3391021 3093317 2692417 
2021.642 2299449 2034116 1977328 2140323 2464064 2842540 3165538 3344772 
2025.499 3343704 3175551 2890536 2546079 2196001 1883341 1641144 1495459 
2029.357 1465137 1553747 1743562 1995003 2253184 2457567 2563077 2554778 
2033.214 2451902 2300781 2157339 2068073 2054423 2108958 2198964 2280529 
2037.071 2306577 2243925 2082589 1838750 1553813 1288703 1115264 1091314 
2040.929 1245570 1564089 1995136 2457533 2865287 3153456 3287746 3273390 
2044.786 3145479 2958086 2761870 2593975 2476894 2416916 2408419 2433908 
2048.644 2465764 2465697 2390594 2207523 1902343 1493397 1030331 591580 
2052.501 258522 96729 139350 375173 752529 1193436 1620756 1970072 2203760 
2056.841 2312973 2306511 2202062 2020102 1784882 1523588 1268964 1056902 
2060.698 915629 860116 885514 969489 1077296 1173302 1235435 1259293 1260623 
2065.038 1266305 1303924 1387747 1512449 1652552 1771574 1830598 1802150 
2068.895 1678396 1473815 1222110 964874 744331 588461 505853 487376 513947 
2073.235 565535 629837 706163 801024 920278 1059393 1198553 1304788 1343607 
2077.574 1287141 1130014 891756 615702 353518 155327 56795 71442 192286 
2081.914 394142 642612 895375 1111477 1255970 1303259 1244805 1092775 881331 
2086.253 658010 474772 373548 370861 456926 598182 753060 882659 966667 
2090.593 1008411 1029899 1060522 1124234 1232212 1379604 1548859 1718612 
2094.450 1870629 1992773 2078827 2125639 2128936 2082722 1981356 1823178 
2098.308 1611843 1360093 1087029 814435 565701 362007 217745 139715 124403 
2102.647 159238 223579 296551 362770 418286 472947 546591 661295 827415 
2106.987 1037837 1262617 1460450 1585205 1606090 1517004 1339951 1116294 
2110.844 893815 715157 603491 563810 584679 647623 733776 828378 923001 
2115.184 1011832 1090284 1153833 1198719 1223772 1230617 1222841 1202905 
2119.042 1171774 1127954 1070852 1003197 934556 879173 853874 871304 934157 
2123.381 1034018 1154631 1276474 1384822 1474313 1547695 1612542 1673972 
2127.239 1731020 1775899 1798357 1791237 1755006 1698021 1631898 1564754 
2131.096 1495658 1414174 1306849 1164730 995226 824361 694647 652236 728100 
2135.436 926122 1216894 1544503 1839582 2044003 2121843 2067540 1900146 
2139.293 1655911 1372790 1079123 790203 512455 250731 20278 -149839 -220848 
2143.633 -152853 77507 465882 974205 1539049 2079226 2517017 2798785 2903311 
2147.972 2846042 2666880 2417249 2139124 1856852 1576758 1290897 989714 
2151.830 671549 350235 56497 -166002 -271349 -219556 11497 417822 966634 
2156.169 1603363 2257114 2849111 3313821 3606865 3718503 3675762 3530729 
2160.027 3340165 3145479 2972898 2832535 2727626 2661512 2639143 2662512 
2163.884 2726526 2814926 2903411 2964258 2979671 2944442 2868922 2769607 
2167.741 2659712 2539080 2394059 2204326 1957191 1662730 1357899 1097094 
2171.599 940533 928513 1067033 1321106 1624648 1903508 2093442 2165330 
2175.456 2125939 2009782 1857085 1697789 1541843 1378972 1191575 966600 
2179.314 706329 429132 163713 -61459 -225782 -322042 -352469 -325122 -245950 
2183.653 -118438 52089 256267 473876 679879 851019 975799 1060788 1128751 
2187.993 1212109 1336361 1507096 1704641 1887800 2005755 2016207 1902409 
2191.850 1679527 1391371 1096463 855700 710510 674768 735303 861809 1015552 
2196.190 1161441 1277803 1353412 1386850 1380036 1335331 1254475 1141641 
2200.047 1008444 874259 766768 715555 742605 855501 1043483 1281159 1532831 
2204.387 1765952 1960686 2112853 2232934 2337657 2439773 2540113 2623909 
2208.244 2666480 2643110 2540246 2362009 2131266 1884838 1661466 1488576 
2212.102 1378108 1323732 1305885 1300800 1291960 1272253 1243808 1213970 
2215.959 1187489 1162372 1131509 1085069 1020832 946576 883622 858987 897666 
2220.299 1011998 1195895 1425643 1665624 1881377 2046367 2146949 2183712 
2224.156 2164798 2099302 1991574 1843742 1657807 1442796 1220349 1020434 
2228.014 877280 817755 852181 970585 1144930 1340017 1519997 1659470 1747255 
2232.353 1781988 1767715 1707435 1601833 1451640 1263580 1054975 852712 
2236.211 689204 592177 574261 628842 731619 849724 950395 1012994 1033254 
2240.550 1019504 985596 944252 901418 857991 812842 769324 735834 725113 
2244.890 745857 798236 868648 936316 979452 986791 964608 936382 935784 
2249.229 990942 1116228 1302495 1520994 1728792 1885936 1965212 1956758 
2253.087 1870362 1728958 1563490 1404235 1279365 1210647 1210116 1278368 
2256.944 1400578 1548061 1678829 1751280 1734447 1618761 1421787 1184897 
2260.802 963512 806037 745028 786784 912807 1088457 1276972 1451041 1594018 
2265.141 1702313 1776831 1818919 1826905 1797891 1731619 1633461 1516372 
2268.999 1397021 1290365 1206560 1147422 1109883 1089387 1084737 1099120 
2272.856 1138286 1204766 1294153 1391969 1478901 1533530 1542075 1502541 
2276.714 1426341 1333470 1246832 1185196 1158053 1165063 1197855 1244473 
2280.571 1291927 1329016 1347961 1343009 1311734 1255040 1178186 1091115 
2284.428 1007979 945481 918153 935187 997584 1096728 1215166 1330246 1419493 
2288.768 1465270 1459286 1404634 1316088 1215066 1124765 1065936 1050724 
2292.625 1082179 1154498 1257665 1379570 1510554 1644171 1775333 1898349 
2296.483 2005455 2085984 2130167 2131599 2091278 2017871 1926804 1835256 
2300.340 1755705 1693431 1645168 1601600 1552816 1493298 1425510 1359262 
2304.198 1308444 1285247 1297178 1343507 1415903 1502075 1589661 1668451 
2308.055 1732451 1780091 1812764 1832761 1842078 1842910 1836221 1823211 
2311.913 1804046 1778993 1747621 1710229 1668019 1624481 1585804 1559433 
2315.770 1552849 1571571 1616932 1685049 1768181 1855521 1934891 1996334 
2319.627 2032951 2041873 2023564 1981356 1920048 1845372 1763357 1680957 
2323.485 1605159 1544004 1503904 1490072 1504502 1545334 1606655 1679095 
2327.342 1752112 1815725 1863474 1893224 1908267 1914190 1917618 1923842 
2331.200 1935457 1953097 1977195 2008251 2046966 2093043 2143087 2189573 
2335.057 2222843 2233600 2216249 2171724 2107959 2037279 1970804 1915755 
2338.915 1872692 1837918 1807074 1779293 1758865 1753110 1767083 1798124 
2342.772 1834325 1857351 1849199 1800220 1715352 1613207 1519066 1452737 
2346.629 1423515 1427438 1452404 1484387 1512781 1532599 1543671 1549524 
2350.487 1554778 1564288 1581979 1613307 1666222 1750581 1875321 2041107 
2354.344 2235465 2426911 2573343 2632209 2575176 2400490 2135662 1830199 
2358.202 1535026 1292924 1124001 1026345 985131 984898 1019338 1091912 
2362.059 1211013 1379404 1587200 1811799 2022265 2188974 2295152 2337024 
2365.917 2322966 2266806 2181448 2074765 1949635 1808139 1654481 1497188 
2369.774 1348659 1221346 1125662 1066667 1043483 1051455 1082877 1129449 
2373.631 1182538 1233441 1274513 1299537 1305619 1293323 1267867 1237429 
2377.489 1210880 1195729 1195396 1208753 1230484 1253312 1270127 1275876 
2381.346 1268731 1250155 1223140 1192041 1160445 1131044 1105132 1083574 
2385.204 1066900 1056171 1052551 1056437 1066767 1079954 1090483 1091314 
2389.061 1076997 1045044 998581 945115 896172 863270 854239 871304 909752 
2393.401 960623 1012695 1057500 1091081 1114201 1131044 1146159 1161807 
2397.258 1177189 1188552 1191443 1183037 1162770 1133136 1097525 1059626 
2401.115 1021530 984533 949930 919979 898696 891225 901651 931667 978522 
2405.455 1035878 1094071 1143601 1176824 1190047 1184299 1164265 1138385 
2409.313 1115430 1104003 1110182 1136160 1178385 1229188 1277836 1312764 
2413.170 1326224 1316154 1287208 1248926 1213139 1188951 1179814 1182572 
2417.027 1189150 1191343 1182771 1163036 1136492 1111112 1093573 1087328 
2420.885 1090816 1098721 1104368 1102707 1092277 1076001 1059626 1049595 
2424.742 1052451 1072081 1110049 1166026 1237096 1319145 1405332 1488510 
2428.600 1560963 1615934 1649692 1661433 1653550 1629537 1593386 1547429 
2432.457 1492101 1426806 1351118 1266172 1175993 1086165 1004260 937046 
2436.314 889465 863901 859452 872898 898330 929210 958963 982009 995525 
2440.654 999610 997485 994131 994894 1002898 1018175 1036376 1050923 1054477 
2444.994 1041856 1011666 967364 915928 865395 822967 793688 778917 777722 
2449.333 787381 805937 831233 862971 900322 942891 989049 1036376 1081116 
2453.673 1119051 1145960 1158451 1154465 1133967 1098788 1052883 1001370 
2457.530 949797 903543 866855 843151 834851 843583 870242 913205 968128 
2461.870 1027309 1079621 1113736 1120878 1098489 1051920 993466 939470 
2465.727 904008 893549 904340 923698 933693 919116 874126 805406 730324 
2470.067 670753 646395 666007 725279 807697 892155 959195 997485 1006717 
2474.406 996289 979884 969489 973176 992138 1024286 1065073 1110879 1158817 
2478.746 1205563 1246068 1272852 1277936 1256236 1208421 1142771 1072978 
2482.604 1015153 981112 974537 989514 1013592 1032523 1036010 1022460 998514 
2486.943 977028 970419 987555 1029966 1092277 1164498 1236066 1298640 
2490.801 1347163 1380933 1401974 1413941 1420390 1424712 1428468 1431095 
2494.658 1428867 1416202 1387382 1339120 1273516 1199583 1132705 1088690 
2498.515 1080153 1110381 1171608 1246135 1312797 1354309 1362353 1341181 
2502.373 1303791 1268266 1248926 1253212 1278734 1317749 1359494 1396024 
2506.230 1424280 1445456 1462777 1478702 1493098 1503704 1507528 1503239 
2510.088 1491336 1474313 1454831 1434286 1411980 1386518 1357001 1325227 
2513.945 1295350 1272951 1263049 1267103 1282156 1301232 1316885 1322801 
2517.802 1317018 1302030 1283619 1268332 1260324 1259858 1262949 1262749 
2521.660 1250853 1221413 1171973 1105166 1028936 954380 895143 862473 864166 
2526.000 901153 967929 1052385 1140678 1219851 1282057 1326258 1357699 
2529.857 1385288 1416767 1455928 1500446 1542541 1571504 1577723 1557039 
2533.714 1512150 1452304 1390938 1342045 1315922 1317118 1342610 1384490 
2537.572 1431660 1473349 1503372 1519697 1525583 1526647 1528575 1534893 
2541.429 1545068 1556008 1564022 1566815 1565751 1564920 1569509 1582578 
2545.287 1602931 1624248 1637153 1633760 1609781 1568245 1518534 1473050 
2549.144 1442132 1430795 1436646 1451839 1466534 1473249 1470257 1461214 
2553.001 1453036 1451839 1460283 1476242 1494095 1506963 1511219 1506464 
2556.859 1496656 1486847 1481328 1482259 1488676 1498019 1508060 1518035 
2560.716 1528741 1541942 1558402 1577091 1594949 1607420 1609914 1598940 
2564.574 1573333 1534261 1484653 1430097 1377643 1335996 1314293 1320342 
2568.431 1358431 1427139 1518567 1619326 1713257 1786812 1831596 1848067 
2572.289 1843542 1831131 1823344 1828901 1850164 1882675 1917785 1945275 
2576.146 1957890 1952132 1928701 1891294 1845106 1794764 1743995 1696225 
2580.003 1654847 1623351 1605757 1604793 1621455 1653084 1694229 1737075 
2583.861 1773038 1795762 1801950 1792701 1772472 1748053 1725997 1710762 
2587.718 1703344 1702213 1702911 1701281 1694562 1682754 1668650 1656710 
2591.576 1651189 1654681 1666455 1683419 1700915 1715751 1726563 1735944 
2595.433 1748918 1770842 1804978 1850230 1899348 1941814 1964846 1958422 
2599.291 1918417 1848300 1759098 1666588 1589129 1540712 1530205 1558835 
2603.148 1620690 1704308 1796560 1885138 1960286 2016606 2052459 2069638 
2607.005 2071236 2061614 2044736 2024229 2003125 1983885 1968807 1959554 
2610.863 1956991 1961118 1970504 1982887 1995269 2004290 2007918 2004856 
2614.720 1994903 1978892 1958556 1935224 1910430 1885570 1861844 1841545 
2618.578 1827204 1822313 1829267 1849498 1881843 1922810 1966377 2006820 
2622.435 2039043 2060549 2072234 2077628 2081557 2088149 2100035 2117015 
2626.292 2136893 2155940 2171125 2180416 2183179 2180349 2173456 2164398 
2630.150 2154608 2145684 2138991 2136394 2138958 2147749 2161734 2178717 
2634.007 2195235 2207057 2211120 2206457 2194602 2178984 2163765 2152810 
2637.865 2147615 2147482 2149580 2150812 2149014 2144385 2138891 2136993 
2641.722 2142954 2159536 2187442 2224808 2268172 2313639 2358778 2402555 
2645.580 2445937 2490190 2535347 2579809 2619142 2647744 2659679 2651911 
2649.437 2624842 2583442 2535914 2492590 2462165 2450602 2459166 2484992 
2653.294 2521416 2560377 2594609 2618409 2629042 2626542 2613375 2593075 
2657.152 2569676 2547312 2529615 2519383 2519317 2531048 2555011 2590909 
2661.009 2636643 2688417 2741063 2789415 2828400 2855047 2868856 2872491 
2664.867 2870490 2868422 2870990 2880096 2895006 2912117 2926728 2934734 
2668.724 2934134 2925560 2912117 2897341 2884132 2873525 2864553 2855114 
2672.582 2843408 2829667 2816027 2806989 2806922 2819395 2845342 2882998 
2676.439 2928163 2976034 3021709 3061716 3093951 3117812 3133464 3141407 
2680.296 3142575 3138103 3129593 3119013 3108501 3099290 3092283 3087344 
2684.154 3083373 3079068 3072828 3063484 3049804 3031118 3007028 2977736 
2688.011 2944642 2910583 2879229 2854547 2839872 2836471 2843374 2856815 
2691.869 2871858 2882931 2885566 2877761 2859283 2832302 2799586 2764871 
2695.726 2731427 2701853 2678782 2663546 2656845 2658045 2665446 2676048 
2699.583 2687016 2695918 2701653 2704820 2706954 2710221 2715723 2723191 
2703.441 2730927 2736295 2737029 2732060 2721691 2707854 2693251 2680082 
2707.298 2669613 2661912 2656678 2653045 2651178 2651844 2656345 2665813 
2711.156 2680648 2699852 2721524 2743397 2763571 2780944 2795917 2809057 
2715.013 2821096 2831501 2838738 2840272 2833802 2818495 2795984 2770607 
2718.871 2748432 2736295 2739229 2759503 2795384 2842073 2892637 2939838 
2722.728 2978703 3006595 3024245 3034455 3041195 3048469 3058913 3073695 
2726.585 3092750 3114808 3138136 3160364 3179389 3192640 3198381 3195177 
2730.443 3182927 3162834 3137435 3110036 3083606 3060581 3041729 3026747 
2734.300 3014335 3003625 2994083 2986610 2982873 2984308 2991614 3003625 
2738.158 3016804 3026714 3028616 3018639 2995284 2959854 2916354 2870290 
2742.015 2827699 2794050 2772574 2764905 2770373 2787080 2811891 2841673 
2745.873 2873192 2903311 2929463 2949379 2961555 2965625 2962222 2953182 
2749.730 2941039 2929063 2919823 2915286 2916554 2923859 2936902 2954983 
2753.587 2977836 3004893 3035522 3068590 3102494 3134298 3161332 3180591 
2757.445 3189903 3188468 3176886 3157294 3133264 3108835 3088412 3075864 
2761.302 3074162 3084774 3107566 3140539 3180591 3223583 3265178 3301701 
2765.160 3330248 3349514 3359431 3361334 3357528 3350482 3343070 3337360 
2769.017 3334789 3335824 3340465 3347978 3357828 3370117 3385477 3405681 
2772.875 3432063 3465662 3506144 3551173 3596675 3638272 3671752 3694542 
2776.732 3706873 3711452 3712621 3715328 3723850 3740293 3765125 3796777 
2780.589 3833212 3872558 3913479 3956010 4000550 4047704 4097439 4149387 
2784.447 4202445 4255175 4306640 4356337 4404300 4451263 4497897 4544837 
2788.304 4592318 4639972 4687329 4733955 4779446 4824172 4868467 4912967 
2792.162 4958008 5003389 5047937 5089706 5126719 5157163 5180836 5199380 
2796.019 5216146 5236066 5263835 5303277 5355705 5419849 5491987 5567293 
2799.876 5641134 5710121 5773107 5830965 5885606 5939583 5994775 6052662 
2803.734 6114254 6180862 6254068 6336028 6428664 6532958 6648008 6770797 
2807.591 6897155 7022001 7141695 7254246 7360827 7464165 7568337 7676850 
2811.449 7791867 7913630 8040658 8170864 8303067 8436393 8571854 8711447 
2815.306 8857139 9010086 9170665 9337637 9509955 9686339 9866421 10052073 
2819.164 10245605 10449950 10667566 10899629 11145210 11402053 11667659 
2822.539 11940341 12220794 12512136 12819304 13148308 13503707 13886766 
2825.914 14295091 14723440 15163912 15609674 16056340 16503399 16954536 
2829.289 17416004 17896092 18401840 18938808 19510160 20117594 20761466 
2832.665 21442044 22160162 22917610 23717358 24563388 25461028 26416826 
2836.040 27438120 28533608 29712508 30984418 32360260 33852108 35473732 
2839.415 37241700 39173480 41286940 43598880 46121088 48860248 51815956 
2842.790 54982128 58345964 61891196 65597764 69440152 73390272 77413528 
2846.166 81467248 85506344 89477040 93320936 96980056 100391656 103495256 
2849.541 106235048 108558288 110421424 111789752 112638640 112955384 
2852.434 112739272 112004024 110775136 109093640 107012208 104589520 
2855.327 101891520 98982304 95920016 92758832 89542672 86308640 83089320 
2858.702 79911736 76801360 73782168 70873840 68094424 65457284 62970676 
2862.077 60639436 58465208 56448752 54591200 52894532 51360364 49989784 
2865.453 48780796 47728016 46822288 46051932 45403176 44860924 44409704 
2868.828 44031368 43705864 43410700 43120496 42811284 42461484 42054980 
2872.203 41584016 41049064 40458500 39825700 39168656 38506124 37856352 
2875.578 37237296 36663784 36148792 35702496 35331236 35038544 34825248 
2878.954 34690064 34630528 34643628 34726424 34875796 35088400 35360744 
2882.329 35688792 36068460 36495780 36967564 37481400 38035632 38629352 
2885.704 39262040 39933428 40642636 41388212 42167824 42978024 43815288 
2889.079 44675796 45556484 46455964 47373532 48310448 49267460 50245040 
2892.455 51241936 52255664 53282212 54318180 55361324 56411740 57471808 
2895.830 58545504 59636460 60747500 61878584 63028252 64194032 65374308 
2899.205 66569312 67782568 69019448 70286048 71588112 72929056 74309688 
2902.580 75729704 77188304 78685384 80222424 81801968 83427344 85101752 
2905.956 86827560 88606776 90441864 92336624 94295920 96324976 98428216 
2909.331 100607688 102861808 105185304 107570240 110007824 112489128 
2912.224 115006544 117553880 120123328 122706256 125290184 127857384 
2915.117 130385664 132848160 135211520 137440624 139497600 141344208 
2918.010 142947392 144278736 145317264 146048704 146463904 146556720 
2920.903 146322480 145760128 144873328 143674192 142185632 140437760 
2923.796 138468208 136316320 134016376 131599400 129089760 126506376 
2926.689 123865856 121182560 118469168 115737200 112996128 110254144 
2929.582 107518840 104797024 102096640 99426072 96792656 94203376 91663000 
2932.958 89174064 86736840 84351048 82015712 79731832 77502480 75333536 
2936.333 73233640 71211464 69274944 67427160 65665976 63982740 62365204 
2939.708 60801508 59282912 57807456 56381368 55016840 53727940 52526796 
2943.083 51420336 50408444 49485376 48642272 47871500 47168456 46532856 
2946.458 45967684 45478372 45068516 44738928 44485648 44300824 44172272 
2949.834 44085604 44026524 43981056 43937208 43885848 43819176 43730964 
2953.209 43615400 43465520 43273848 43032828 42735308 42377568 41959060 
2956.584 41483172 40956384 40386204 39779836 39142080 38474700 37777660 
2959.959 37050084 36291304 35502820 34687412 33849780 32994848 32128074 
2963.335 31254270 30377916 29503188 28633968 27773764 26926186 26094616 
2966.710 25281458 24489028 23717742 22967004 22234370 21517000 20812666 
2970.085 20121376 19446778 18796684 18181110 17609776 17089612 16620915 
2973.460 16197776 15808070 15438695 15077456 14716619 14354164 13992284 
2976.836 13635219 13286613 12948664 12621790 12306172 12003318 11716436 
2980.211 11450017 11208208 10992495 10801211 10629263 10470688 10319535 
2983.586 10172673 10029794 9892725 9763595 9643989 9533358 9430711 9334724 
2987.444 9245394 9163999 9093075 9035018 8991040 8960935 8942941 8935533 
2991.301 8938205 8952479 8981772 9030924 9104748 9206844 9339363 9502267 
2995.158 9693454 9908793 10142791 10388623 10639246 10888009 11130150 
2998.534 11363141 11587511 11805187 12018136 12227030 12429207 12619914 
3001.909 12792072 12938798 13055662 13141033 13196294 13224235 13228231 
3005.284 13209854 13169380 13105789 13018171 12906370 12772109 12618003 
3008.659 12446358 12258522 12053699 11829327 11581964 11308656 11008740 
3012.035 10683662 10338434 9979851 9615329 9252738 8898330 8556714 8230663 
3015.892 7921424 7629300 7353582 7093631 6848411 6617022 6398030 6189970 
3019.750 5991483 5801078 5617907 5441623 5272689 5111230 4957773 4812111 
3023.607 4672894 4538911 4408350 4280138 4154170 4031584 3914449 3805100 
3027.464 3705771 3618057 3543022 3480492 3430126 3390787 3360433 3336993 
3031.322 3317494 3298229 3275660 3246182 3206592 3154857 3089546 3010865 
3035.179 2920524 2822263 2721791 2626509 2544146 2482026 2444538 2432542 
3039.037 2442505 2467263 2497022 2522849 2537380 2537047 2522116 2496155 
3042.894 2464264 2431543 2402156 2378234 2360544 2348317 2340422 2334892 
3046.751 2329895 2323999 2315671 2303746 2287890 2268638 2247255 2226107 
3050.609 2207556 2194902 2190339 2195834 2211653 2236564 2266940 2297817 
3054.466 2322567 2334826 2330062 2306544 2265807 2213018 2155474 2100101 
3058.324 2052792 2017172 1994104 1983153 1982720 1991641 2008617 2032152 
3062.181 2060582 2090413 2118047 2139191 2150845 2151478 2141988 2124607 
3066.039 2101833 2075797 2046800 2014542 1978127 1937887 1896020 1856253 
3069.896 1823577 1801817 1793166 1796660 1808671 1823378 1835290 1839682 
3073.753 1834624 1820716 1801052 1778827 1757468 1739404 1725631 1716018 
3077.611 1710096 1706969 1706371 1707568 1709597 1710861 1708500 1699851 
3081.468 1682621 1656577 1623816 1589528 1560630 1543705 1543405 1559998 
3085.326 1588597 1620524 1645035 1652319 1637086 1600104 1548160 1491835 
3089.183 1442231 1408257 1393398 1395592 1408357 1423515 1433688 1434685 
3093.041 1425742 1409520 1389775 1369931 1352149 1336594 1322934 1311202 
3096.898 1302761 1300900 1309175 1330445 1365444 1411182 1461912 1508858 
3100.755 1543505 1559500 1553581 1527145 1485085 1434951 1383858 1338156 
3104.613 1301299 1273815 1254110 1239455 1227294 1216030 1206162 1199749 
3108.470 1200214 1210614 1232843 1266305 1307580 1351152 1390041 1418329 
3112.328 1431992 1430496 1416368 1395027 1372191 1351982 1336827 1325892 
3116.185 1316885 1306815 1294486 1280462 1267302 1258562 1256768 1262284 
3120.042 1273483 1286244 1296845 1302262 1301863 1297144 1291162 1287175 
3123.900 1286942 1291030 1297776 1305519 1311867 1315523 1316653 1315589 
3127.757 1313795 1312365 1312532 1314858 1319743 1326989 1335763 1344770 
3131.615 1352215 1356902 1358032 1356736 1354741 1354708 1358165 1365145 
3135.472 1373521 1379570 1379803 1371360 1354309 1331841 1308942 1290996 
3139.330 1282389 1284150 1294652 1309308 1323167 1331476 1331442 1322801 
3143.187 1306782 1286144 1263381 1240452 1218156 1196393 1174432 1151940 
3147.044 1129349 1108786 1093406 1086896 1092144 1110613 1140312 1176458 
3150.902 1212840 1242978 1262550 1271788 1274580 1277803 1288172 1310105 
3154.759 1343341 1382994 1420690 1448348 1459685 1452836 1429898 1396290 
3158.617 1357666 1319079 1283286 1250986 1222044 1195895 1172737 1153069 
3162.474 1137455 1126293 1119018 1115530 1116095 1121808 1134100 1154431 
3166.332 1182472 1216528 1252913 1286809 1313562 1329880 1334201 1326723 
3170.189 1309374 1284582 1255871 1226829 1201709 1184432 1177621 1181774 
3174.046 1194034 1208753 1218987 1218322 1203703 1176558 1143402 1112972 
3177.904 1093672 1090816 1104236 1128851 1156558 1179349 1191908 1192639 
3181.761 1183635 1168850 1152272 1135694 1119118 1101179 1080751 1058928 
3185.619 1039863 1029667 1035778 1063113 1112706 1179914 1256004 1328052 
3189.476 1383825 1414839 1417797 1396323 1359461 1319544 1287640 1271423 
3193.333 1273483 1290431 1315390 1339386 1355207 1357666 1345136 1319179 
3197.191 1283419 1242878 1202606 1167455 1140777 1124665 1118088 1118354 
3201.048 1120646 1119350 1110281 1091513 1065206 1035944 1010835 996522 
3204.906 997186 1014455 1046340 1088889 1136824 1185861 1231381 1270160 
3208.763 1299072 1315656 1318813 1309374 1290066 1265242 1239455 1216030 
3212.621 1195862 1177455 1157687 1134033 1106362 1078093 1054012 1040627 
3216.478 1041756 1057533 1084072 1114567 1141408 1157887 1161607 1153235 
3220.335 1136558 1116759 1098755 1085501 1078160 1075635 1075370 1074207 
3224.193 1068594 1055906 1035280 1008046 977592 949665 930372 925159 936482 
3228.532 964807 1007083 1058895 1114999 1171143 1223473 1269130 1305220 
3232.390 1328684 1337126 1329116 1305154 1267933 1222144 1173701 1127389 
3236.247 1087494 1055839 1033553 1020699 1017611 1024087 1039531 1061984 
3240.105 1087494 1110414 1125762 1128818 1117889 1094436 1062582 1028039 
3243.962 996588 973308 961586 962848 976729 1001071 1032091 1064840 1094171 
3248.302 1114699 1123503 1120446 1108687 1093905 1082843 1080884 1090882 
3252.159 1111876 1140146 1169913 1195662 1212906 1219087 1213405 1196360 
3256.017 1168983 1133236 1092211 1049794 1011931 983935 970785 974703 994728 
3260.356 1026412 1062715 1095599 1117889 1124366 1113005 1085468 1045709 
3264.214 1000806 959062 928513 916293 926188 958298 1008278 1068527 1129183 
3268.553 1180578 1216130 1232810 1232843 1221645 1207291 1197822 1198752 
3272.411 1212807 1239256 1274580 1313562 1350819 1382130 1404600 1416700 
3276.268 1419260 1414008 1403803 1392168 1382894 1379039 1382496 1393099 
3280.125 1408357 1424080 1435051 1436912 1427471 1408024 1382994 1359029 
3283.983 1341945 1335165 1338123 1346066 1351916 1348692 1333071 1306583 
3287.840 1275975 1250554 1239755 1249358 1279531 1323964 1372889 1414806 
3291.698 1440436 1445090 1429233 1397952 1358763 1319876 1287507 1265607 
3295.555 1255638 1256502 1265973 1281259 1299371 1317550 1333038 1343740 
3299.413 1347097 1341081 1324131 1296480 1259692 1218256 1178585 1147422 
3303.270 1131177 1133568 1153966 1187888 1227759 1266073 1296347 1315988 
3307.127 1326125 1330645 1333636 1338289 1344870 1351052 1353678 1349756 
3310.985 1338322 1321438 1302894 1287573 1279431 1280827 1291594 1309939 
3314.842 1332572 1356137 1377310 1394030 1405199 1411348 1413675 1415038 
3318.700 1417465 1422751 1430829 1440070 1447783 1451407 1449711 1443495 
3322.557 1436148 1432158 1435948 1451108 1477970 1515142 1559433 1607054 
3326.415 1653517 1694795 1726696 1745525 1748353 1734946 1707768 1672542 
3330.272 1637485 1610912 1598474 1601368 1615502 1633029 1644936 1644736 
3334.129 1629736 1602931 1570008 1537753 1510986 1490205 1473050 1455496 
3337.987 1434652 1410085 1385088 1365078 1355938 1361754 1383626 1419194 
3341.844 1464073 1512582 1559300 1600170 1632330 1654614 1666622 1668750 
3345.702 1662298 1648993 1630934 1610214 1588664 1567613 1547628 1529174 
3349.559 1512283 1497354 1485119 1476707 1473748 1478436 1491835 1514710 
3353.417 1545800 1581647 1617165 1645667 1661366 1660535 1643173 1613041 
3357.274 1577257 1543638 1518667 1505832 1504702 1512449 1524884 1539182 
3361.131 1554512 1572136 1594284 1622153 1655413 1691469 1726463 1757102 
3364.989 1781455 1799688 1812963 1822346 1827770 1827936 1820782 1805410 
3368.846 1783119 1758300 1737408 1726629 1730022 1748120 1776964 1809037 
3372.704 1837020 1853757 1855754 1842544 1817555 1786113 1754607 1729424 
3376.561 1715951 1717781 1736243 1770543 1817222 1870662 1924641 1972568 
3380.418 2009250 2031120 2036546 2025594 1999130 1959487 1910197 1856453 
3384.276 1805643 1765253 1742597 1742531 1765220 1806209 1857285 1908999 
3388.133 1953230 1985383 2005854 2018803 2029955 2044037 2062547 2082955 
3391.991 2099502 2105795 2097771 2074565 2040708 2003258 1971370 1952930 
3395.848 1952598 1971270 2005621 2049163 2093709 2131733 2157838 2170192 
3399.706 2170425 2163732 2156939 2156639 2167228 2189440 2219579 2250319 
3403.563 2272835 2280163 2267839 2236964 2193003 2144852 2101733 2071535 
3407.420 2058218 2061415 2077362 2099702 2121910 2138325 2145484 2142587 
3411.278 2130833 2113686 2096039 2083488 2081124 2092444 2118680 2157305 
3415.135 2202561 2246489 2280696 2298183 2295918 2274833 2240328 2199964 
3418.993 2162333 2134796 2121910 2125306 2143420 2173222 2210087 2249054 
3422.850 2285459 2314838 2333626 2340489 2336191 2324232 2310641 2301747 
3426.708 2302413 2314605 2335792 2360710 2382065 2394026 2393826 2383098 
3430.565 2366840 2352082 2345252 2350383 2367073 2392760 2422280 2450402 
3434.422 2472995 2487924 2495356 2496522 2494256 2491723 2491956 2497788 
3438.280 2511019 2531248 2556311 2581876 2602108 2611042 2604209 2580109 
3442.137 2541280 2493523 2445404 2405854 2381366 2375469 2387696 2413184 
3445.995 2443905 2470962 2486391 2486424 2472162 2449636 2428044 2416616 
3449.852 2420847 2442239 2476194 2513551 2542713 2553645 2540080 2501487 
3453.709 2443472 2376135 2311041 2258380 2226240 2218347 2235165 2274501 
3457.567 2332194 2403155 2481026 2559611 2632076 2692217 2735028 2757135 
3461.424 2757102 2735528 2694851 2638810 2572743 2502920 2436208 2380499 
3465.282 2342088 2325165 2330262 2353148 2386030 2418781 2442139 2449703 
3469.139 2439573 2413750 2377668 2338223 2301148 2271369 2251918 2243825 
3472.997 2247322 2260911 2282528 2308576 2334925 2357912 2374836 2385031 
3476.854 2390061 2392793 2395259 2398124 2399823 2396192 2382332 2354680 
3480.711 2312407 2258213 2197999 2139058 2088382 2050129 2026426 2017239 
3484.569 2021200 2036413 2060615 2090679 2121477 2146883 2160502 2156639 
3488.426 2132698 2089713 2031919 1964713 1894322 1825441 1760895 1702911 
3492.284 1653284 1614437 1589429 1581580 1593053 1623583 1669981 1726297 
3496.141 1784583 1837918 1880079 1907168 1917319 1909565 1884272 1842743 
3499.999 1787677 1723369 1656510 1595647 1548360 1520296 1512715 1521859 
3503.856 1540080 1558569 1570041 1570374 1558502 1536157 1505633 1470024 
3507.713 1431327 1392035 1354741 1323134 1301166 1292193 1298607 1319311 
3511.571 1350819 1386684 1419460 1442231 1449878 1440569 1416002 1381831 
3515.428 1344803 1312598 1290996 1283951 1291495 1311701 1340615 1374152 
3519.286 1408822 1442431 1473216 1500379 1521559 1533696 1533929 1519531 
3523.143 1490604 1450509 1405431 1363350 1330213 1309806 1301531 1301797 
3527.000 1304323 1303991 1297876 1286211 1272486 1261453 1257765 1263381 
3530.858 1278335 1300302 1325726 1350354 1370430 1382795 1384723 1374485 
3534.715 1352714 1322203 1288570 1259626 1242645 1242080 1256901 1280761 
3538.573 1303824 1314459 1304356 1270592 1217126 1152936 1090915 1043218 
3542.430 1017976 1018441 1041756 1082079 1131309 1183004 1232976 1279598 
3546.288 1322236 1359960 1390274 1410418 1417664 1410750 1390573 1359760 
3550.145 1321937 1281392 1242280 1207956 1180578 1160644 1147555 1139183 
3554.002 1133303 1127489 1119782 1108753 1094403 1077828 1061253 1046705 
3557.860 1036841 1032324 1032656 1035014 1035811 1030995 1017312 993666 
3561.717 961918 925757 891092 864598 852380 859120 886710 933161 991241 
3566.057 1048465 1090649 1105797 1090849 1051887 1001869 953284 914500 
3569.914 889299 877114 874857 878476 884385 889366 892520 893284 892188 
3574.254 889200 884319 877214 867785 857128 847334 841325 841325 848695 
3578.594 862871 880700 897168 907328 906697 893350 868183 835117 799896 
3582.933 769324 749542 745227 758271 787580 828743 874359 914201 938939 
3587.273 942957 927815 901385 873927 853277 841923 838802 840495 842819 
3591.612 842520 838370 831067 823266 817821 817489 822768 832528 844147 
3595.952 855003 863237 867951 868715 865561 858257 847234 833590 819714 
3600.292 808825 804211 807763 819116 835250 851716 864432 871171 872201 
3604.631 870939 872599 882792 905735 942094 988452 1037239 1079123 1107591 
3608.971 1119915 1118586 1108554 1094403 1078691 1061320 1040494 1014622 
3612.828 983736 950561 919282 893416 874292 860049 847234 831598 811049 
3617.168 786751 763482 749641 753193 777025 815498 856397 885979 894479 
3621.507 879140 844711 800659 758902 730689 724748 744662 788576 849691 
3625.847 919116 986459 1042254 1078093 1086929 1066169 1021330 966335 915928 
3630.187 879372 858190 849957 850388 855401 861909 867254 870806 873695 
3634.526 878808 888967 905502 926554 947307 960656 959195 939205 901750 
3638.866 853907 806800 772477 760229 774203 812444 868283 932696 996987 
3643.205 1056005 1107126 1150279 1184399 1206660 1210714 1188054 1131077 
3647.063 1038003 918086 793821 693551 640986 644272 691925 758736 818718 
3651.402 857061 869644 861809 841292 816560 794850 781174 778751 786684 
3655.742 799331 806966 800858 776626 737228 690432 647391 618688 611554 
3660.082 628808 666970 716385 764046 797771 810286 800493 773971 740879 
3664.421 712269 695709 694547 706130 724284 740049 744463 730922 697268 
3668.761 647391 593571 553160 540221 558203 599377 651472 703010 746355 
3673.100 777490 793887 795414 784560 768229 755085 751566 757607 768859 
3677.440 780709 790667 798004 803481 808759 815464 824693 837043 851384 
3681.780 866191 878774 886245 885846 875753 856198 829208 798369 768793 
3686.119 745028 730424 726175 729627 735668 737792 733710 726541 724616 
3690.459 736000 764478 807265 856530 901883 934689 949831 946112 925591 
3694.798 892420 851252 805804 759267 713531 670421 631994 601401 581825 
3699.138 576417 587034 612251 647623 685985 719239 742140 754255 759997 
3703.478 766204 779282 803481 840097 887905 943090 1000739 1055474 1102110 
3707.817 1136957 1157255 1161408 1148219 1116925 1066767 998747 916825 
3711.675 828478 744430 675598 629207 607241 606643 621442 643210 663717 
3716.014 676892 679248 671549 659171 650676 654857 677257 717911 770984 
3720.354 825689 869711 893549 893350 873761 844811 819813 809190 817157 
3724.693 841292 873993 905104 925591 931999 926421 915762 907262 907063 
3729.033 917522 939005 968958 1003861 1039199 1069657 1090052 1096230 
3732.890 1085135 1056271 1011234 955974 900356 857294 836910 840728 859850 
3737.230 880800 891922 886809 865793 834918 804643 785124 784858 807398 
3741.570 851252 910317 975268 1034449 1074739 1086398 1068859 1033088 992835 
3745.909 956638 926952 903211 885049 874093 873396 885913 911578 944684 
3750.249 974172 988252 980349 952288 912873 872400 839101 817058 806568 
3754.588 806966 817323 836777 864399 898031 933261 964575 986061 993400 
3758.928 986193 967962 945115 923864 908756 901053 899326 901983 907328 
3763.268 915032 925425 937677 949864 957269 955077 939271 909121 866490 
3767.607 816361 764943 718774 683828 663751 658773 665841 681306 701583 
3771.947 725246 751566 780045 809987 839997 868482 893948 915596 932730 
3776.286 945348 952653 953384 946045 929708 905303 876052 846836 821838 
3780.626 803414 790966 782269 774668 766602 757441 748380 741211 737195 
3784.966 736298 737095 737294 735668 732349 729826 731818 742173 763150 
3789.305 794053 831698 870640 904672 929708 944484 951491 955841 963711 
3793.645 979552 1004592 1035911 1066335 1086597 1088955 1071384 1038966 
3797.502 1002333 971681 954214 952653 965206 986160 1006950 1019637 1019603 
3801.842 1009042 994463 981909 973043 965770 955841 939271 913139 877579 
3806.181 836545 798269 772046 763681 773606 798634 834287 876616 922868 
3810.521 970320 1016780 1060124 1098921 1132771 1161275 1183701 1196659 
3814.378 1194300 1168551 1113736 1032290 938574 851683 788112 756180 756213 
3818.718 783531 829241 882094 927251 951757 950893 931899 907561 888602 
3823.058 878509 875255 874857 873130 867752 858024 845110 830303 814867 
3827.397 798933 781805 763150 743833 726408 714593 711937 720898 741509 
3831.737 771216 805970 842122 878642 915762 955609 999511 1046871 1094968 
3836.076 1138651 1171275 1187157 1183635 1162770 1130512 1095333 1064840 
3839.934 1042786 1029268 1021264 1014057 1002599 983968 957701 927018 897533 
3844.273 876185 868084 874857 894678 922934 954015 982839 1005787 1021596 
3848.613 1031394 1037571 1043184 1050491 1060423 1072480 1084770 1094868 
3852.470 1100548 1100748 1096097 1087394 1074573 1056404 1031394 999345 
3856.328 961652 921174 881198 845973 818386 800460 792460 793887 803879 
3860.667 821008 844545 873429 905569 938275 966966 986393 991706 980980 
3865.007 956671 925225 895707 874624 866490 872134 889399 913172 935519 
3869.347 948403 947075 933626 914965 898264 886510 878343 869080 853808 
3873.686 829440 797638 764611 738456 725113 726242 739451 760395 783962 
3878.026 805738 823000 835715 845973 856696 870375 886842 904373 920377 
3882.365 933659 944352 952952 959394 962051 957634 942559 916227 882493 
3886.705 848994 823764 813074 820311 846604 890395 947307 1009009 1064076 
3891.045 1101312 1113039 1098356 1063545 1018441 972711 934025 907461 895242 
3895.384 897201 910981 932663 956572 976696 987555 984965 967298 935519 
3899.724 893582 846172 798535 756147 724085 707988 713199 742173 793223 
3904.063 858024 923831 976928 1008378 1015784 1002732 976895 947241 922635 
3908.403 908623 908059 920112 941629 967597 993001 1013957 1027773 1033619 
3912.743 1032025 1024286 1011898 996356 979286 962018 945946 932066 921208 
3917.082 913604 909719 910051 915596 926554 942791 962117 981112 994994 
3921.422 999444 991839 971748 941894 907893 876982 856464 850322 859087 
3925.761 879339 905967 934191 960955 984699 1005223 1022227 1034715 1040760 
3930.101 1038069 1024386 999046 963844 922768 881431 845574 819680 806170 
3934.441 805140 815498 834287 858091 883024 905336 922502 933792 940765 
3938.780 946676 955243 969722 990843 1017013 1043483 1064973 1076599 1076665 
3943.120 1066800 1051687 1036807 1026179 1021065 1021198 1023921 1026943 
3946.977 1027209 1022858 1012662 996256 974471 949366 924296 903145 889997 
3951.317 887374 895375 910649 927716 940433 943754 935851 918651 896836 
3955.656 876218 861145 853177 850587 849957 848297 844579 840761 841026 
3959.996 850056 870806 903112 942924 983703 1018673 1041989 1050923 1045609 
3964.336 1028637 1003795 975400 947938 925059 909686 903908 907660 919448 
3968.675 936283 954579 970718 982408 988917 990976 990345 988817 987555 
3973.015 987289 987721 988352 988684 988120 986559 983636 979850 975666 
3977.354 972246 970751 972312 977260 984898 993533 1000507 1003728 1001736 
3981.694 994529 983371 969855 955841 942359 929874 918983 910881 907229 
3986.034 910250 921440 940666 965438 991739 1014389 1029002 1033685 1029932 
3990.373 1021430 1013791 1011832 1018242 1032689 1052252 1072912 1090184 
3994.231 1100781 1103405 1098522 1088158 1074772 1060888 1048133 1037206 
3998.088 1028438 1021430 1015983 1012629 1012729 1017876 
##END=
