##TITLE=ad16_3a Oct 05 07:42:04 2026 (GMT+02:00)
##JCAMP-DX=5.01  $$ Nicolet v. 970
##DATATYPE=INFRARED SPECTRUM
##ORIGIN=Vojna akademija
##OWNER=Nicolet
##LONGDATE=2026/10/05
##TIME=07:42:33
##SPECTROMETER/DATA SYSTEM=Nicolet iS20
##DATA PROCESSING=
Ratio against background
%Transmittance->Absorbance
Truncated
ElementMultiply or ElementDivide
##COMMENTS=
Number of sample scans: 8
Collection length: 11,90 sec
Sample gain: 8,0
Background collected on: Mon Oct 05 07:35:57 2026 (GMT+02:00);
Number of background scans: 8
Background gain: 8,0
Sample spacing:  1,000
Number of scan points: 12415
Resolution points: 8286
Number of FFT points: 65536
Apodization: N-B strong;
Phase correction: Mertz;
Laser frequency: 15798,00 cm-1
Number of rejected sample scans: 0
Number of rejected background scans: 0
Bench serial number: BER2010005;
##RESOLUTION= 4,000
##XUNITS=1/CM
##YUNITS=ABSORBANCE
##FIRSTX=400.156891
##LASTX=4000.123047
##FIRSTY=0.061260
##MAXX=4000.123047
##MINX=400.156891
##MAXY=0.204718
##MINY=-0.002201
##XFACTOR=1.000000
##YFACTOR=1.000000E-009
##NPOINTS=7468
##DELTAX=0.482117
##ZPD=6100
##XYDATA=(X++(Y..Y))
400.157 61259676 61049312 59945600 57804960 54714796 51005996 47114532 
403.532 43507160 40543756 38428036 37226932 36871896 37207624 38044456 
406.907 39227624 40642784 42209416 43859160 45501516 47021180 48310260 
410.281 49276296 49872252 50095828 49982020 49594788 49033296 48430892 
413.656 47922368 47627140 47608100 47857216 48310596 48864696 49413160 
417.031 49855640 50133160 50249464 50291128 50383324 50619116 51005848 
420.406 51472560 51920764 52263548 52431900 52363416 52013048 51375432 
423.781 50509188 49544648 48655024 48014472 47728276 47820816 48240424 
427.155 48887168 49634344 50351176 50927156 51263820 51290780 50975180 
430.530 50337560 49474532 48554600 47800288 47399472 47446264 47890776 
433.905 48560044 49197656 49565440 49552444 49229012 48835516 48661548 
437.280 48919172 49619596 50579428 51482888 52029776 52024136 51459876 
440.655 50514772 49514828 48815088 48668148 49171976 50231168 51615116 
444.030 53024380 54189520 54899140 55008864 54468812 53341252 51837464 
447.404 50277772 49051104 48466640 48641832 49474608 50680028 51896004 
450.779 52777596 53143784 53024196 52648120 52302716 52204952 52384084 
454.154 52698096 52916316 52859356 52496584 51980700 51593660 51610524 
457.529 52131200 52970328 53710768 53910856 53345600 52047148 50265500 
460.904 48332596 46589064 45273744 44477936 44153564 44160572 44347572 
464.278 44605660 44895904 45223844 45603040 46023712 46449808 46829080 
467.653 47121772 47313228 47413848 47441380 47410488 47325828 47193536 
471.028 47034772 46887612 46796932 46786048 46828080 46838896 46704940 
474.403 46334036 45679156 44763280 43669440 42533432 41504280 40723420 
477.778 40297484 40272000 40634340 41317732 42218072 43184576 44032028 
481.152 44567988 44608012 44045264 42881684 41247152 39363896 37505892 
484.527 35941748 34855760 34331500 34341648 34789024 35543956 36486296 
487.902 37522292 38568804 39548732 40387256 41009952 41366420 41439576 
491.277 41252472 40857176 40327224 39733324 39126668 38540524 37994764 
494.652 37507196 37110312 36846796 36758472 36866664 37148280 37525544 
498.027 37876200 38075956 38019572 37661536 37029224 36230396 35428612 
501.401 34795952 34472236 34502908 34832640 35327280 35840188 36251428 
504.776 36503056 36605168 36618364 36625572 36697896 36879004 37170368 
508.151 37541152 37941680 38325964 38655248 38898884 39032736 39034112 
511.526 38887724 38595344 38180900 37691028 37185856 36730492 36379208 
514.901 36166760 36104788 36178716 36351284 36569300 36776140 36918572 
518.276 36954324 36859380 36627736 36272144 35819388 35306288 34768812 
521.650 34238060 33739968 33293314 32915312 32623496 32433692 32358222 
525.025 32400168 32551672 32791052 33090916 33425522 33774348 34124964 
528.400 34467392 34788880 35074216 35308268 35486496 35623040 35753400 
531.775 35924760 36174756 36515056 36917816 37320264 37637148 37795620 
535.150 37757560 37534032 37178132 36767016 36374884 36050208 35814928 
538.524 35666596 35592324 35576068 35602504 35654544 35706560 35727928 
541.899 35691956 35589376 35438928 35289400 35204052 35232080 35389968 
545.274 35645772 35929292 36152248 36247900 36194848 36020940 35783584 
548.649 35542912 35335080 35158672 34983164 34772080 34509724 34215184 
552.024 33940056 33747060 33690732 33790784 34025368 34334764 34644240 
555.398 34880392 34987616 34938632 34728932 34375824 33912324 33387016 
558.773 32857556 32380282 32005608 31761744 31650390 31645794 31708024 
562.148 31794968 31879752 31960346 32056402 32197580 32405380 32682796 
565.523 33008326 33343974 33645116 33878184 34028448 34102632 34121948 
568.898 34117328 34118868 34148976 34221640 34340680 34499964 34685436 
572.273 34877484 35055500 35203264 35315204 35397732 35466936 35538600 
575.647 35620664 35704436 35767360 35778152 35713900 35570100 35365628 
579.022 35139272 34938596 34809880 34781016 34857808 35025400 35259424 
582.397 35536512 35842420 36171044 36515348 36858512 37169216 37400500 
585.772 37507264 37459876 37260620 36948948 36598968 36301464 36130716 
589.147 36124448 36261696 36467524 36624420 36615480 36366780 35875200 
592.521 35217528 34526156 33947828 33581460 33457764 33524226 33672112 
595.896 33762888 33679880 33367590 32843332 32190122 31526458 30980790 
599.271 30646322 30566254 30724340 31057124 31470060 31865776 32170746 
602.646 32338984 32361936 32261066 32081838 31876080 31687778 31544022 
606.021 31446870 31379302 31314448 31230378 31116634 30978690 30828838 
609.396 30677612 30522566 30346824 30124132 29834256 29475350 29073198 
612.770 28674780 28338438 28117338 28042860 28123736 28345972 28685788 
616.145 29114898 29605936 30130380 30647994 31106526 31447760 31618462 
619.520 31594266 31390626 31066020 30700442 30380724 30167246 30076048 
622.895 30078036 30114542 30123634 30062340 29925298 29740324 29555996 
626.270 29413654 29335304 29314210 29324278 29332820 29316444 29267990 
629.644 29194024 29107068 29017332 28929312 28844002 28765118 28706000 
633.019 28687380 28731804 28851120 29035042 29246794 29431594 29534964 
636.394 29515600 29364300 29105968 28793512 28489062 28250098 28114862 
639.769 28094432 28174148 28319800 28490054 28641190 28738708 28764906 
643.144 28720406 28626006 28518394 28442114 28431466 28499606 28625652 
646.519 28759454 28829804 28769402 28542704 28162482 27693378 27231412 
649.893 26882968 26719898 26763100 26976320 27283554 27590868 27817318 
653.268 27922708 27907866 27811842 27686950 27584478 27535792 27548502 
656.643 27612584 27709058 27819368 27928750 28025048 28094432 28118398 
660.018 28077146 27953662 27741974 27453086 27116878 26775538 26473804 
663.393 26249744 26123188 26096164 26157040 26291244 26484474 26724550 
666.767 26997756 27273394 27499714 27623494 27630238 27560400 27478922 
670.142 27442002 27478854 27600578 27799232 28050884 28313752 28537606 
673.517 28680088 28717432 28656232 28529080 28386508 28276690 28231428 
676.892 28258938 28343744 28456902 28572994 28682176 28791670 28920388 
680.267 29081382 29270718 29460882 29609378 29673232 29633250 29504288 
683.642 29338670 29204514 29165426 29251720 29449110 29704948 29952420 
687.016 30142386 30260100 30336022 30428556 30601948 30892016 31293616 
690.391 31759568 32224878 32623392 32911274 33078044 33138048 33118344 
693.766 33044364 32935188 32804094 32666900 32547888 32475966 32477326 
697.141 32563922 32726310 32935436 33154604 33356852 33536036 33711356 
700.516 33916692 34189052 34549260 34995556 35504980 36045384 36584584 
703.890 37101652 37588800 38044996 38471188 38866272 39230704 39571816 
707.265 39908144 40268624 40680952 41160116 41699840 42273944 42846976 
710.640 43392796 43910812 44433084 45015920 45716444 46577852 47608172 
714.015 48781424 50044028 51339220 52621600 53867532 55076720 56261828 
717.390 57438980 58621152 59814844 61020104 62227488 63412740 64533076 
720.765 65528096 66325516 66864804 67111600 67070156 66777772 66293636 
724.139 65676504 64966260 64185196 63340812 62438884 61495680 60538680 
727.514 59599516 58705844 57868364 57080184 56321420 55570572 54810792 
730.889 54035116 53243444 52436312 51611088 50762364 49886376 48987228 
734.264 48078980 47183304 46320064 45500740 44723796 43977792 43247712 
737.639 42524624 41810148 41114584 40451332 39827480 39239412 38675604 
741.013 38121676 37569040 37021540 36492572 36000096 35556684 35164528 
744.388 34814440 34492720 34187012 33894196 33619912 33374350 33164442 
747.763 32989054 32837544 32696228 32553494 32406312 32259568 32121938 
751.138 31997546 31882320 31763632 31626798 31463292 31276166 31078978 
754.513 30889882 30723310 30583250 30462142 30347394 30230046 30108718 
757.888 29990760 29884584 29791920 29702466 29596678 29455210 29273626 
761.262 29069620 28883414 28761612 28743168 28841028 29035504 29279118 
764.637 29516486 29705270 29826414 29888986 29918128 29938966 29961222 
768.012 29974820 29954230 29875640 29726416 29514536 29265438 29014036 
771.387 28790290 28610576 28475158 28372394 28286980 28207066 28128862 
774.762 28055162 27991084 27939420 27898186 27860134 27815624 27755220 
778.136 27671836 27561988 27426226 27268808 27096600 26918536 26741710 
781.511 26570062 26402496 26233904 26057568 25871806 25683240 25509622 
784.886 25374710 25300352 25297788 25359678 25459552 25558292 25619478 
788.261 25619586 25557448 25452104 25335544 25238506 25177796 25153322 
791.636 25150338 25149144 25135136 25107154 25076964 25063626 25082794 
795.010 25139560 25225058 25320652 25403446 25455338 25469426 25449890 
798.385 25409312 25363400 25326202 25304602 25299052 25303512 25309554 
801.760 25309098 25297822 25275662 25248446 25225058 25215154 25227480 
805.135 25267584 25337476 25437348 25565636 25719448 25893258 26077304 
808.510 26253544 26397462 26483628 26490392 26410068 26254600 26054892 
811.885 25852358 25690202 25601976 25601520 25682888 25824156 25997688 
815.259 26177134 26345916 26497858 26634634 26762290 26888290 27019724 
818.634 27162942 27323286 27502362 27696098 27891368 28066506 28197980 
822.009 28264702 28256958 28181750 28061348 27926630 27809476 27735124 
825.384 27715028 27749216 27828976 27944332 28088634 28260990 28463376 
828.759 28698282 28963348 29248992 29538050 29808420 30036208 30200776 
832.133 30290688 30308060 30272036 30214132 30176836 30200102 30310406 
835.508 30514532 30795366 31117952 31437538 31717044 31934884 32089402 
838.883 32194726 32272558 32342408 32414842 32493216 32577708 32672256 
842.258 32787408 32937366 33131968 33369162 33631044 33885168 34094856 
845.633 34235084 34298724 34301308 34272624 34248136 34253224 34296680 
849.008 34371592 34463304 34560200 34661676 34778576 34928364 35124864 
852.382 35368328 35644188 35925408 36184296 36399060 36560148 36670024 
855.757 36736440 36764604 36753348 36695660 36586712 36431488 36252836 
859.132 36087180 35979828 35968960 36071592 36278408 36556400 36860316 
862.507 37143912 37376808 37548880 37668980 37756296 37831444 37909100 
865.882 37993568 38083376 38175436 38268788 38365740 38469776 38581260 
869.256 38695304 38802028 38889864 38949440 38977856 38979052 38961148 
872.631 38933784 38905768 38883848 38874604 38886276 38927332 39005404 
876.006 39122064 39270492 39435260 39595736 39735320 39846364 39935248 
879.381 40019816 40124032 40267348 40456900 40685284 40933632 41177020 
882.756 41392660 41566840 41695536 41782828 41836200 41864000 41872576 
886.131 41866520 41849952 41827628 41805188 41790304 41791292 41817664 
889.505 41878124 41976468 42108532 42257328 42396748 42493272 42518672 
892.880 42460828 42332128 42169032 42020740 41935668 41939792 42029684 
896.255 42172864 42326136 42449612 42525176 42560404 42579372 42604844 
899.630 42640556 42665228 42641324 42534052 42332236 42059796 41772792 
903.005 41540808 41414496 41411068 41503476 41636016 41742080 41774908 
906.379 41722712 41607536 41471104 41353848 41280016 41249736 41245332 
909.754 41243912 41231484 41206420 41179208 41161792 41161028 41173376 
913.129 41188316 41192792 41178916 41145252 41094516 41029324 40948888 
916.504 40849936 40731244 40598760 40468756 40363260 40305520 40309448 
919.879 40374496 40485488 40620264 40756572 40878984 40982056 41065344 
923.254 41128024 41164960 41165836 41120776 41027684 40896604 40749296 
926.628 40612660 40512584 40463664 40468644 40519968 40607456 40723456 
930.003 40866680 41040248 41247336 41486232 41748208 42018880 42282744 
933.378 42526856 42741012 42917564 43048448 43124336 43138720 43092868 
936.753 43000816 42890532 42800904 42770628 42825952 42974076 43200424 
940.128 43474348 43759508 44028764 44268096 44478124 44667936 44847148 
943.502 45019964 45183804 45332076 45460968 45572384 45676872 45788120 
946.877 45918664 46074884 46254640 46449364 46648276 46843692 47033404 
950.252 47221128 47414184 47620708 47846712 48095044 48365220 48654136 
953.627 48955888 49261968 49561876 49843860 50097276 50315612 50498432 
957.002 50652140 50787576 50919328 51060628 51221356 51408552 51625116 
960.377 51872744 52152044 52462484 52800644 53157644 53519092 53863964 
963.751 54169136 54414648 54585904 54680560 54706864 54684768 54638696 
967.126 54594284 54573920 54591504 54654332 54763092 54913504 55096844 
970.501 55300580 55509420 55704348 55868088 55986920 56055336 56078372 
973.876 56071584 56057408 56056996 56086288 56150840 56246100 56359484 
977.251 56475204 56579028 56658788 56705980 56715080 56683516 56613112 
980.625 56513396 56401928 56301128 56234932 56219132 56255488 56330440 
984.000 56419812 56498000 56546832 56563516 56559476 56554756 56565552 
987.375 56597976 56644216 56688236 56712624 56710584 56689180 56668828 
990.750 56673852 56723688 56826396 56976356 57158828 57356048 57554948 
994.125 57748452 57935340 58116472 58291808 58459636 58619184 58771352 
997.500 58922208 59079764 59252680 59446180 59662460 59902012 60167612 
1000.874 60466504 60808480 61201076 61643096 62119704 62605104 63066980 
1004.249 63480728 63838860 64156272 64463728 64799868 65195628 65663396 
1007.624 66194952 66766448 67350272 67922528 68472992 69003720 69527056 
1010.999 70059232 70617128 71217248 71873040 72593536 73379328 74219184 
1014.374 75087408 75949248 76771184 77530520 78226992 78882936 79537640 
1017.748 80230272 80988624 81821008 82717768 83659080 84625712 85605032 
1021.123 86589032 87567648 88522512 89421832 90230752 90922128 91486352 
1024.498 91936112 92299248 92606384 92874664 93104440 93281384 93389376 
1027.873 93421424 93385144 93299456 93184296 93047944 92883320 92670152 
1031.249 92386216 92018056 91566032 91042768 90466224 89850144 89200512 
1034.624 88517720 87801520 87056016 86290168 85512472 84724568 83916504 
1037.999 83070424 82166336 81194688 80164320 79103904 78055112 77059384 
1041.374 76150016 75343232 74638584 74024576 73486808 73014968 72606184 
1044.750 72264936 71999808 71821200 71736264 71747872 71852008 72035752 
1048.125 72275776 72540272 72793784 73001840 73144152 73219448 73247928 
1051.500 73264232 73309856 73421072 73619824 73913272 74295136 74751792 
1054.875 75264144 75811408 76368928 76906400 77391872 77797496 78106392 
1058.251 78321304 78464616 78571048 78673624 78796400 78945712 79112968 
1061.626 79284232 79449864 79610704 79779368 79972640 80205608 80486552 
1065.001 80816936 81194848 81619440 82092040 82610872 83164312 83726624 
1068.376 84256224 84708824 85049760 85267728 85381176 85433888 85481368 
1071.752 85569848 85729184 85965584 86266648 86611160 86980840 87366840 
1075.127 87769640 88197920 88661384 89167680 89718944 90309680 90925392 
1078.502 91545088 92140848 92686392 93168360 93594176 93997712 94434680 
1081.877 94971576 95659016 96519536 97535120 98655248 99807704 100923472 
1085.253 101957760 102894224 103744136 104533200 105292456 106046688 
1088.146 106814960 107613280 108453728 109342352 110273320 111226408 
1091.039 112165000 113047840 113843800 114540624 115148928 115694120 
1093.932 116201200 116679008 117116984 117489384 117772320 117954304 
1096.825 118043136 118056176 118010136 117906352 117730384 117459072 
1099.718 117078576 116594360 116034960 115437776 114835672 114241120 
1102.611 113645408 113026824 112367136 111667104 110949248 110250680 
1105.504 109606928 109041808 108559480 108150192 107798528 107493712 
1108.397 107231688 107012456 106833184 106686584 106561808 106453456 
1111.290 106368152 106325528 106349192 106453584 106630504 106844240 
1114.183 107039088 107161752 107178840 107090936 106929672 106744968 
1117.076 106581464 106461840 106384576 106329840 106274784 106204448 
1119.969 106117128 106019328 105917488 105812040 105698296 105575112 
1122.862 105453192 105358632 105328056 105393976 105575664 105872080 
1125.755 106267000 106740896 107286024 107911856 108642744 109502376 
1128.649 110500056 111621688 112835240 114102392 115398576 116724784 
1131.542 118106320 119578264 121167760 122880384 124697544 126587120 
1134.435 128518224 130477072 132467928 134503632 136591008 138718256 
1137.328 140854128 142958864 144997728 146954416 148830704 150636944 
1140.221 152377264 154041712 155609664 157063024 158399344 159638560 
1143.114 160813120 161954464 163073088 164155248 165169536 166089408 
1146.007 166909248 167652928 168360752 169071968 169803456 170543488 
1148.900 171259520 171920816 172518832 173075472 173634112 174236624 
1151.793 174906768 175637504 176397344 177146528 177857408 178518976 
1154.686 179133024 179700656 180210480 180639344 180965120 181182816 
1157.579 181314848 181405888 181505328 181638560 181795184 181929408 
1160.472 181984928 181919296 181726208 181435520 181097232 180750720 
1163.365 180403600 180028896 179580592 179019232 178331248 177535152 
1166.258 176669136 175770576 174855728 173917824 172936208 171894624 
1169.151 170791456 169643360 168472816 167296896 166117408 164923248 
1172.045 163702496 162453680 161189616 159930800 158687792 157449712 
1174.938 156181584 154839904 153389952 151829216 150191232 148537344 
1177.831 146929040 145407296 143980224 142627424 141315024 140017968 
1180.724 138732032 137470896 136253232 135085952 133955896 132834568 
1183.617 131693440 130517376 129314704 128112752 126944568 125830560 
1186.510 124771416 123749088 122739792 121726264 120707784 119697280 
1189.403 118712024 117760064 116833992 115913488 114977304 114015232 
1192.296 113036320 112064880 111131520 110258888 109451808 108697128 
1195.189 107970864 107251104 106523704 105787488 105048176 104313944 
1198.082 103588488 102872304 102165808 101473016 100803976 100170096 
1200.975 99577824 99023008 98490568 97959472 97411160 96839816 96253872 
1204.350 95674344 95122840 94614392 94150448 93721208 93311280 92908808 
1207.726 92511336 92126432 91765728 91439800 91152008 90898104 90669744 
1211.101 90459448 90265016 90089608 89939680 89820152 89732144 89671456 
1214.476 89631168 89602736 89578792 89551720 89513640 89455584 89369120 
1217.851 89249296 89098104 88925128 88746376 88577688 88431808 88315328 
1221.227 88228568 88169416 88137184 88133336 88161296 88222840 88314848 
1224.602 88428720 88554080 88683056 88814584 88953848 89109776 89287832 
1227.977 89484120 89685064 89872432 90030616 90153832 90248648 90330232 
1231.352 90413992 90506872 90603728 90689336 90748096 90769904 90756672 
1234.728 90720456 90677704 90640392 90611736 90585848 90552832 90503488 
1238.103 90434240 90344840 90236296 90105640 89945432 89746248 89502808 
1241.478 89217808 88904312 88579392 88258280 87947840 87644224 87334752 
1244.853 87003792 86641368 86244056 85815648 85363224 84894144 84414184 
1248.229 83929088 83447184 82979048 82535536 82122864 81737288 81364896 
1251.604 80983904 80575056 80127576 79645256 79144416 78647968 78173632 
1254.979 77728656 77308248 76901136 76497736 76096440 75705136 75336136 
1258.354 74997064 74684304 74381328 74064960 73717416 73334768 72930112 
1261.730 72528768 72157056 71829024 71541656 71275496 71005280 70707392 
1265.105 70370232 69995232 69594680 69184016 68777224 68385360 68014704 
1268.480 67669448 67352008 67062536 66797672 66548884 66304712 66052964 
1271.855 65785900 65502936 65211684 64923508 64650148 64398468 64169756 
1275.231 63960472 63765296 63580908 63405724 63238928 63077524 62912724 
1278.606 62730656 62516324 62256628 61947444 61593876 61209432 60810232 
1281.981 60410220 60017348 59632584 59252224 58870828 58485488 58096360 
1285.356 57706292 57319032 56937444 56562156 56192280 55826188 55462284 
1288.732 55101132 54745128 54397524 54063824 53750664 53464412 53211496 
1292.107 52995520 52815648 52664988 52531544 52399824 52253980 52084352 
1295.482 51888876 51676280 51461964 51266208 51106988 50994632 50930172 
1298.857 50904276 50900440 50897832 50877752 50825676 50734280 50604448 
1302.233 50443648 50264124 50078464 49897080 49725288 49561876 49400204 
1305.608 49230832 49045312 48838260 48611628 48372924 48135056 47910792 
1308.983 47711632 47543180 47405352 47292648 47197008 47111616 47031336 
1312.358 46955868 46887468 46828708 46780180 46738116 46693872 46637464 
1315.734 46559448 46455120 46326700 46183656 46039220 45905552 45789704 
1319.109 45690416 45599028 45503388 45394348 45268156 45128584 44982588 
1322.484 44836788 44692728 44545376 44384492 44199600 43985788 43746868 
1325.859 43495332 43248660 43024524 42833304 42677252 42550500 42443364 
1329.234 42346444 42254880 42168920 42092396 42029316 41981468 41947456 
1332.610 41924648 41911656 41910232 41926288 41968292 42043520 42155740 
1335.985 42302832 42478180 42672908 42877664 43085624 43292476 43494452 
1339.360 43687468 43867300 44029496 44172824 44299320 44413152 44518320 
1342.735 44617812 44712264 44800932 44883852 44963036 45043668 45132996 
1346.111 45237084 45359144 45497356 45647316 45801932 45955900 46106752 
1349.486 46255596 46404344 46553804 46702544 46847528 46985144 47114420 
1352.861 47237236 47357572 47480080 47606248 47735304 47864172 47990564 
1356.236 48115032 48241200 48374256 48517288 48668812 48821724 48964752 
1359.612 49086940 49181216 49246456 49288580 49318420 49347860 49385760 
1362.987 49436776 49499968 49572796 49651688 49733572 49815988 49896412 
1366.362 49974508 50052992 50139556 50244368 50378676 50546188 50740316 
1369.737 50943284 51132412 51288988 51404668 51487332 51560788 51659712 
1373.113 51816968 52052448 52361468 52714588 53067136 53378308 53619096 
1376.488 53770540 53817980 53744364 53529512 53158728 52628632 51954300 
1379.863 51162828 50288300 49361520 48405076 47439204 46482812 45555752 
1383.238 44678292 43863560 43114532 42422392 41770020 41135928 40502144 
1386.614 39861400 39218740 38588936 37988436 37427224 36907064 36423744 
1389.989 35970720 35541436 35130936 34735576 34352368 33981400 33626284 
1393.364 33295746 33003286 32762360 32579888 32451044 32362114 32297186 
1396.739 32245614 32204754 32178492 32173246 32189910 32222166 32256104 
1400.115 32277272 32276486 32253072 32213282 32166716 32122650 32087616 
1403.490 32065104 32055936 32059864 32078878 32117012 32180450 32275378 
1406.865 32405130 32571528 32775186 33016906 33297892 33620160 33983872 
1410.240 34385328 34817060 35266864 35721272 36168848 36600340 37009704 
1413.616 37392916 37745816 38063480 38341132 38572712 38751344 38867540 
1416.991 38905156 38840980 38648112 38309572 37836508 37275528 36690180 
1420.366 36131112 35623868 35168948 34755136 34370480 34008704 33672580 
1423.741 33373098 33122384 32927000 32784368 32685474 32622178 32592710 
1427.117 32604746 32674364 32820068 33054516 33377356 33772736 34212316 
1430.492 34664404 35104500 35517240 35897512 36248372 36577448 36897184 
1433.867 37223576 37577888 37984420 38464820 39024688 39639296 40252844 
1437.242 40803380 41254840 41606552 41880820 42105064 42304808 42498900 
1440.618 42700904 42919612 43158372 43415096 43680652 43941792 44183312 
1443.993 44392488 44564796 44706208 44835468 44979576 45172884 45446288 
1447.368 45817576 46286780 46837420 47447704 48105000 48811604 49580672 
1450.743 50426044 51350520 52336652 53349080 54348480 55300580 56192920 
1454.119 57033064 57839520 58628400 59396752 60108280 60694688 61093856 
1457.494 61302524 61374648 61382088 61365564 61334728 61286080 61217824 
1460.869 61134588 61045536 60956960 60867560 60765336 60628848 60430668 
1464.244 60144664 59751496 59228676 58543080 57650556 56497052 55046476 
1467.620 53293564 51272136 49038044 46657128 44177956 41599548 38884100 
1470.995 35974860 32855376 29619734 26494300 23746230 21535696 19854608 
1474.370 18578832 17557574 16684404 15904330 15204366 14588411 14053951 
1477.745 13582432 13145301 12714036 12272734 11820202 11370352 10942373 
1481.120 10553109 10209138 9905946 9634164 9387032 9164405 8970812 8811219 
1484.978 8685114 8584155 8495214 8405042 8306749 8204122 8108136 8030499 
1488.835 7975317 7934213 7890820 7832519 7757089 7672634 7589410 7512741 
1492.693 7440300 7365208 7279549 7178950 7066386 6952334 6850835 6773624 
1496.550 6720957 6681319 6638386 6583179 6518629 6455534 6403511 6364069 
1500.408 6328834 6284322 6219144 6130686 6025784 5920504 5833282 5779453 
1504.265 5766828 5790601 5831334 5852223 5814779 5706495 5562829 5437932 
1508.122 5360603 5325818 5316493 5319445 5329776 5347453 5372176 5399316 
1511.980 5418842 5418171 5389252 5333164 5261051 5191197 5144187 5135571 
1515.837 5167055 5221177 5268329 5284193 5262560 5218460 5177047 5164406 
1519.695 5197166 5277787 5387742 5491551 5549270 5542324 5480847 5388749 
1523.552 5286306 5184290 5088734 5003590 4934951 4890281 4872789 4878151 
1527.410 4892794 4900903 4889677 4854494 4800787 4741626 4692923 4668071 
1531.267 4677047 4721192 4791607 4866054 4915045 4912196 4850708 4745076 
1535.124 4620515 4500944 4404099 4345862 4341344 4404367 4541824 4743702 
1538.982 4968968 5144824 5204812 5136577 4993133 4843169 4727992 4649818 
1542.839 4589505 4523978 4441355 4345159 4251662 4177822 4132494 4111153 
1546.697 4101687 4090883 4071618 4045597 4023224 4018809 4042119 4092054 
1550.554 4155575 4216397 4262202 4290377 4305436 4314705 4322001 4324611 
1554.411 4314036 4282145 4228408 4164307 4113561 4114197 4215359 4465190 
1558.269 4864613 5305625 5600487 5658657 5545546 5366407 5186570 5028428 
1562.126 4896547 4788425 4702033 4639168 4601761 4588501 4590945 4595299 
1565.984 4587396 4558867 4512427 4461507 4427898 4434693 4496357 4605244 
1569.841 4731878 4838914 4904388 4927377 4920272 4897183 4867897 4836569 
1573.699 4802563 4766214 4733352 4717508 4735998 4796331 4883679 4966186 
1577.556 5016260 5023065 4994105 4947083 4902713 4877682 4878754 4902110 
1581.413 4934448 4961091 4972018 4968029 4958042 4955260 4968766 5000440 
1585.271 5044853 5093528 5139594 5179662 5213732 5240963 5257262 5255517 
1589.128 5229829 5180400 5117533 5060206 5028864 5038584 5092188 5178757 
1592.986 5277687 5367916 5436590 5482021 5511215 5534337 5556721 5576656 
1596.843 5588236 5586020 5571689 5554137 5547056 5561319 5600923 5659630 
1600.701 5724759 5782375 5824685 5852324 5873045 5894775 5921276 5949794 
1604.558 5973510 5986443 5987686 5982748 5980666 5989568 6012480 6045539 
1608.415 6081491 6114523 6143725 6173871 6210573 6256522 6307519 6354924 
1612.273 6390330 6410606 6420963 6432935 6460780 6517081 6606694 6723616 
1616.130 6851374 6972772 7080463 7179826 7279617 7382969 7484660 7575990 
1619.988 7649770 7706832 7757764 7822802 7922707 8068100 8245487 8419399 
1623.845 8548975 8611057 8609333 8568001 8517516 8481699 8474706 8496937 
1627.703 8539480 8590340 8642220 8694004 8748365 8805234 8859439 8901103 
1631.560 8920550 8911858 8876652 8823561 8767907 8726897 8715605 8741535 
1635.417 8801143 8881183 8967125 9050716 9127961 9195134 9247459 9279682 
1639.275 9291191 9287061 9278700 9277989 9292274 9318983 9346981 9360319 
1643.132 9346675 9304054 9243938 9191479 9178787 9237880 9382496 9594733 
1646.990 9826359 10027353 10174199 10271457 10335414 10380241 10413057 
1650.365 10437765 10462169 10506568 10609671 10824888 11170945 11567127 
1653.740 11866033 11995620 11991021 11924777 11852685 11807366 11799365 
1657.115 11822551 11860755 11895932 11917694 11928217 11943372 11984686 
1660.491 12072062 12213228 12399442 12607497 12811080 12992258 13149571 
1663.866 13292421 13430431 13565237 13691911 13803847 13901203 13994474 
1667.241 14106522 14264856 14490490 14780514 15101778 15402475 15642785 
1670.616 15817624 15953345 16084913 16237365 16419841 16628765 16856424 
1673.992 17096436 17348306 17613918 17888978 18158030 18401046 18605322 
1677.367 18773158 18922472 19081464 19278752 19532548 19837476 20163960 
1680.742 20468742 20721950 20923566 21118318 21391918 21859490 22590830 
1684.117 23511152 24401150 25073456 25503192 25784948 26033046 26335778 
1687.493 26745198 27276640 27918998 28644836 29428084 30249690 31098304 
1690.868 31959776 32809130 33616080 34357140 35029676 35667676 36346744 
1694.243 37179468 38276532 39679408 41280488 42852684 44186320 45229508 
1697.618 46084608 46951292 48058732 49623944 51754476 54300340 56846228 
1700.994 58986688 60608008 61853368 62933444 64008580 65181844 66508608 
1704.369 68013696 69689008 71491856 73346144 75160400 76859216 78401384 
1707.744 79788368 81055304 82259824 83462000 84701456 85983032 87275680 
1711.119 88531000 89705224 90788848 91811368 92833224 93918152 95105928 
1714.495 96391448 97734552 99089648 100452536 101876016 103449928 105213416 
1717.870 107085720 108889144 110460016 111744408 112807232 113773352 
1720.763 114778440 115930576 117291104 118870920 120637792 122542920 
1723.656 124545632 126637328 128832832 131147024 133571360 136069072 
1726.549 138594928 141132800 143712896 146413824 149324032 152487488 
1729.442 155850480 159266800 162542464 165549824 168296544 170959904 
1732.335 173841776 177294912 181529584 186354240 191113360 195075216 
1735.228 197939456 199888896 201278368 202381696 203323520 204094080 
1738.121 204598928 204718448 204385600 203618976 202496384 201072768 
1741.014 199321312 197140816 194423504 191115968 187268560 183019296 
1743.907 178547472 173984352 169379584 164706784 159904704 154929648 
1746.800 149785872 144515664 139180752 133817080 128417344 122932800 
1749.693 117325912 111618648 105914112 100389696 95227424 90545152 86363368 
1753.069 82620528 79206208 75993128 72861328 69710488 66477864 63166648 
1756.444 59855764 56677172 53761128 51173528 48900520 46867536 44978360 
1759.819 43143332 41304140 39448756 37615720 35878620 34309340 32945194 
1763.194 31779744 30777688 29895162 29096474 28356300 27657674 26988166 
1766.570 26339014 25706548 25093850 24510482 23967986 23472400 23019056 
1769.945 22593794 22176656 21750126 21310026 20872388 20468082 20125992 
1773.320 19853466 19635808 19450140 19275670 19101820 18927212 18755478 
1776.695 18589482 18426558 18258130 18072254 17859390 17618644 17359858 
1780.071 17103742 16872888 16680857 16527904 16402464 16289445 16175903 
1783.446 16056135 15928734 15794463 15651407 15493152 15311441 15100269 
1786.821 14858853 14592660 14310877 14023150 13735136 13448099 13160466 
1790.196 12871077 12584406 12312750 12073084 11878156 11727396 11607180 
1793.572 11498191 11386270 11266149 11139057 11007958 10872653 10728117 
1796.947 10566927 10383804 10181119 9970798 9773389 9609739 9491801 9415982 
1800.804 9362994 9308286 9230636 9123460 8992867 8851728 8710298 8572462 
1804.662 8434569 8290301 8135819 7974642 7816493 7675130 7560919 7476738 
1808.519 7417279 7372387 7331542 7288007 7239590 7185519 7123372 7046853 
1812.377 6948429 6823200 6673007 6506453 6335793 6172526 6024238 5891686 
1816.234 5771260 5658758 5554070 5461620 5387373 5333331 5293551 5254947 
1820.091 5203236 5129401 5035802 4935252 4845548 4779480 4738410 4708096 
1823.949 4665525 4587396 4464620 4308615 4145540 4001554 3890879 3811953 
1827.806 3751856 3693974 3627479 3552576 3482228 3432030 3408519 3404846 
1831.664 3404879 3393058 3359798 3304573 3233230 3154824 3076265 3000923 
1835.521 2929497 2862885 2805555 2765772 2751200 2764771 2800253 2845075 
1839.379 2883632 2906513 2912951 2910550 2910450 2920457 2939071 2953882 
1843.236 2943407 2888768 2786080 2650478 2509319 2386197 2292754 2228138 
1847.093 2184578 2154741 2136394 2131299 2142154 2168860 2206058 2245423 
1850.951 2281162 2313273 2348650 2398124 2469696 2561644 2660745 2745165 
1854.808 2795284 2798719 2756835 2681249 2589742 2496122 2405021 2311607 
1858.666 2207590 2089680 1965778 1853691 1776165 1750848 1780657 1852659 
1862.523 1941781 2023098 2075298 2089214 2065942 2013810 1943045 1862143 
1866.380 1778727 1699784 1635457 1598640 1600104 1641976 1713257 1793433 
1870.238 1859647 1895753 1896419 1865238 1813429 1755671 1708666 1685947 
1874.095 1697389 1745591 1825940 1925306 2024562 2104530 2149680 2154242 
1877.953 2124907 2077595 2030721 1999596 1990043 1997300 2009716 2014642 
1881.810 2004223 1977627 1937987 1887700 1824775 1742963 1635157 1500778 
1885.668 1349889 1203437 1089520 1032191 1043982 1118486 1232045 1347496 
1889.525 1429300 1457158 1429300 1360691 1272287 1184632 1112142 1064973 
1893.382 1051089 1076698 1144133 1248062 1373454 1496523 1592588 1644636 
1897.240 1646698 1606256 1538517 1461181 1387548 1322469 1263780 1206660 
1901.097 1147853 1088955 1035811 996555 977426 981810 1011002 1065006 
1904.955 1144465 1247065 1364613 1480830 1570340 1608617 1578920 1483223 
1908.812 1342776 1197888 1090350 1048200 1077130 1159315 1263181 1357866 
1912.670 1426507 1467099 1491835 1515408 1548460 1591191 1633960 1662131 
1916.527 1663262 1632264 1573466 1498418 1421354 1353445 1302030 1270824 
1920.384 1263414 1282223 1325958 1386850 1449545 1495193 1511418 1499681 
1924.242 1477904 1472185 1507960 1597210 1733150 1887933 2020035 2089081 
1928.099 2063146 1929666 1698587 1401276 1081116 785024 555715 419281 383662 
1932.439 436760 549942 685587 808029 897201 951823 986393 1020068 1064143 
1936.778 1112607 1143734 1131309 1064176 957037 854273 811481 880534 1082744 
1941.118 1397254 1756171 2074931 2288623 2378101 2378967 2356179 2374236 
1944.975 2462732 2611809 2778210 2911384 2970763 2944141 2847543 2715689 
1948.833 2586776 2490757 2448070 2469030 2557111 2705220 2893571 3079435 
1952.690 3203121 3206192 3049036 2733328 2307776 1859315 1479766 1234671 
1956.548 1140146 1160112 1226596 1271389 1259559 1198686 1127256 1085036 
1960.405 1090018 1121908 1135495 1083408 945680 739783 515473 329145 219402 
1964.745 191921 223977 274933 311936 319032 294230 237934 140477 -17560 
1969.084 -253865 -564667 -912876 -1235234 -1454993 -1514695 -1404102 
1972.460 -1163367 -866584 -579161 -338762 -134900 70713 320358 626353 958697 
1976.799 1255173 1455696 1525849 1474779 1347894 1207491 1103804 1059991 
1980.657 1074938 1133934 1223373 1332938 1452737 1564787 1636022 1626577 
1984.514 1502807 1254940 907295 521511 179391 -46915 -112442 -19780 188142 
1988.854 448800 707656 929210 1103073 1233807 1326557 1374518 1356902 
1992.711 1244473 1016714 674137 246487 -213926 -640009 -962966 -1131873 
1996.568 -1120769 -935095 -612448 -218066 170607 488803 694979 786352 792526 
2000.908 764013 749409 778718 855003 958830 1059858 1134332 1175927 1192041 
2005.248 1191077 1169315 1098854 938308 653895 244266 -246314 -727808 
2009.105 -1086331 -1232690 -1123710 -785923 -299925 222916 677091 993798 
2012.963 1145461 1143800 1025781 839798 628643 430425 282824 220960 275497 
2017.302 461305 767432 1151740 1553614 1908666 2159903 2271969 2233733 
2021.160 2055322 1763423 1396955 1002333 626419 317341 118636 58187 141770 
2025.499 348245 633885 941496 1220615 1436613 1571438 1624448 1602764 
2029.357 1515508 1370696 1178618 952886 716219 498257 325232 213833 161889 
2033.696 146974 140345 114261 58154 -16202 -78586 -92599 -23093 148432 
2038.036 418983 766104 1150378 1523355 1832761 2037545 2115950 2072467 
2041.893 1935257 1750249 1568877 1434353 1375283 1401908 1509357 1683020 
2045.751 1907867 2168327 2445171 2711422 2928463 3049336 3035189 2865987 
2049.608 2553411 2139724 1690903 1280030 965471 785688 745459 820942 964508 
2053.948 1123536 1246866 1297909 1262184 1147355 978854 792460 627083 514445 
2058.287 473909 509005 608236 749376 904705 1050292 1169647 1253943 1299870 
2062.627 1307979 1279797 1218622 1132472 1034981 941728 869445 826718 811248 
2066.966 809987 806402 787448 753923 721662 719571 779083 920776 1146026 
2071.306 1432391 1740202 2017272 2217348 2303779 2256548 2075064 1777662 
2075.163 1399747 987157 594301 274502 68228 -198 68626 251096 505322 788045 
2079.985 1061884 1303126 1504901 1667087 1791004 1873524 1904573 1872592 
2083.843 1771208 1605225 1391670 1158850 940300 764445 651638 609696 633388 
2088.182 707822 809921 913737 992071 1022991 995625 914002 795879 668463 
2092.522 560757 491357 463693 464422 471654 463825 433874 391754 362306 
2096.861 373514 442299 567758 730258 899061 1044214 1148053 1208022 1232610 
2101.201 1233341 1215399 1176259 1107690 1003894 870209 725147 598182 517132 
2105.541 496863 531264 595130 649581 657446 598713 475070 311173 145482 
2109.880 20576 -32668 165 114360 290782 500711 711838 895541 1026777 1087593 
2114.702 1067929 967065 795779 576484 345128 143063 9608 -24385 50466 221093 
2119.524 451553 694647 898530 1024452 1056337 1002798 892951 766237 661560 
2123.863 604586 604254 652103 729030 810651 876251 911977 912541 881431 
2128.203 827448 764577 707158 667202 649614 650377 654890 640854 587598 
2132.542 482567 328482 145151 -34590 -176038 -255355 -264792 -216973 -135066 
2136.882 -47942 22896 65742 77275 58750 13419 -53375 -131985 -203527 -241711 
2141.704 -221312 -125891 38569 240420 424886 534416 522340 369568 89073 
2146.043 -281283 -692346 -1100245 -1471307 -1784176 -2023347 -2169721 
2149.419 -2200678 -2095930 -1849343 -1482600 -1046502 -614268 -254957 -21172 
2153.276 71939 43010 -58643 -175376 -258666 -282442 -245950 -172892 -100318 
2157.616 -62486 -81237 -149640 -231313 -261746 -172892 83936 519122 1090317 
2161.955 1711261 2262243 2635743 2762504 2635009 2308176 1881178 1463043 
2165.813 1131509 923366 824262 786917 753690 682268 551037 360747 124900 
2170.152 -139902 -416096 -687649 -934037 -1131642 -1257668 -1298964 -1259683 
2174.010 -1161747 -1038073 -913372 -791380 -648478 -448370 -157921 226463 
2177.867 669292 1096296 1422651 1582877 1551685 1357201 1069823 783332 
2181.725 577612 497693 545065 688142 877015 1064010 1219286 1326623 1383160 
2186.064 1391204 1353944 1273649 1155395 1008179 846172 688076 552098 449895 
2190.404 384922 351595 335943 320027 286538 223646 130600 17660 -94322 
2194.743 -176965 -205779 -166002 -58179 101633 284880 461835 610492 717779 
2199.083 779979 795912 760262 663950 496565 257560 -37373 -352072 -635443 
2203.423 -839136 -928152 -896112 -767037 -589121 -416626 -292938 -243996 
2207.280 -271879 -363493 -497090 -651125 -806263 -945146 -1050998 -1105632 
2211.137 -1093503 -1004554 -838309 -605301 -321910 -7918 318137 639195 
2214.995 934954 1180179 1345967 1404833 1343341 1170677 923698 656715 435765 
2219.334 311770 308852 416263 595926 795381 965405 1077496 1124366 1117457 
2223.674 1074174 1010072 931401 836810 723686 594964 463461 351362 281830 
2228.014 271850 325266 430226 561089 685487 773705 803315 765407 665808 
2232.353 522340 360581 207137 86223 13187 -5732 25149 94508 184628 275696 
2237.175 348544 386183 376499 316379 213468 86587 -35319 -119464 -140432 
2241.515 -85676 36647 200109 365522 495039 564307 569450 526985 465285 
2245.854 416562 401936 428302 488239 567492 649382 722259 779879 818651 
2250.194 834652 821772 772975 684823 561089 414704 264390 131131 31677 
2254.533 -25578 -39759 -14346 47284 143659 274701 437291 620082 803614 
2258.873 961686 1066435 1099286 1054743 942924 786518 615503 457888 333854 
2263.213 254179 219469 224839 260843 318435 388504 464124 539691 612848 
2267.552 683463 753093 824494 899393 976596 1053149 1123038 1180611 1220050 
2271.892 1237495 1229620 1194765 1132007 1042387 930505 805008 678618 565800 
2276.231 478851 424488 401869 402334 413112 422631 424820 420674 417623 
2280.571 426047 454140 504029 570777 644172 712568 765573 798369 811248 
2284.911 809954 801821 794385 793655 802186 820079 845442 875819 907926 
2289.250 938740 965040 983371 990212 981943 956572 913737 856962 793755 
2293.590 734042 689337 669492 679215 717214 776162 844745 911014 966999 
2297.929 1010537 1045742 1079788 1119882 1169382 1225965 1281425 1325061 
2301.787 1347196 1341480 1308112 1251351 1180179 1103372 1029932 967198 
2305.644 920510 894612 892985 917953 968460 1040228 1124665 1209617 1281990 
2309.984 1329747 1344338 1322701 1268299 1190014 1100980 1015850 948502 
2313.841 908192 899692 920178 962748 1015485 1067331 1109085 1137522 1155029 
2318.181 1170345 1195596 1241781 1317450 1422950 1551851 1690071 1819817 
2322.038 1923376 1987547 2007852 1988978 1945109 1893757 1852560 1833992 
2325.896 1841945 1871294 1909731 1943778 1961751 1960220 1945009 1929200 
2329.753 1927237 1948138 1990376 2041373 2081656 2092876 2066042 2005655 
2333.611 1928168 1855388 1808305 1798091 1822513 1867268 1913092 1942080 
2337.468 1943478 1917186 1869996 1810268 1742597 1665457 1573632 1463874 
2341.325 1341446 1221845 1129316 1089753 1118752 1214867 1354974 1502308 
2345.183 1614437 1660934 1633494 1546132 1427770 1310105 1221213 1178950 
2349.040 1191210 1257067 1369532 1514643 1674904 1832328 1969606 2075198 
2352.898 2144119 2179117 2187542 2177551 2156806 2128336 2091511 2043304 
2356.755 1980290 1900878 1808172 1708333 1612475 1533629 1484786 1477638 
2360.613 1520396 1615868 1760263 1941182 2138159 2322767 2467697 2550345 
2364.470 2560744 2505453 2405521 2289589 2183979 2106927 2061781 2040441 
2368.327 2027991 2011280 1984817 1951932 1921812 1904839 1906769 1925972 
2372.185 1954794 1983752 2004756 2013144 2008817 1992074 1962350 1916054 
2376.042 1847668 1752810 1631366 1489873 1340748 1199051 1079156 990677 
2379.900 935818 911014 908889 921540 943156 970884 1004359 1043982 1088922 
2384.239 1136126 1180279 1215531 1236232 1239821 1226796 1201078 1168053 
2388.097 1133602 1101877 1074639 1050890 1028238 1004525 979817 956704 
2391.954 941031 939869 958996 1001005 1063312 1138884 1217691 1289434 
2395.812 1346066 1383360 1400379 1398185 1378374 1341646 1288637 1221213 
2399.669 1144066 1065339 996522 948702 930206 943389 983935 1041258 1101379 
2404.009 1151142 1179448 1180279 1152538 1100083 1030431 954579 885282 
2407.866 834918 813240 824428 865727 926919 993134 1050193 1087029 1100582 
2412.206 1094669 1078260 1060821 1048266 1041524 1037372 1030796 1019072 
2416.063 1004027 991540 989315 1003562 1036276 1083707 1138120 1189449 
2419.920 1228590 1249125 1248261 1226330 1187057 1136625 1081947 1031759 
2423.778 993334 971748 968061 979386 1000308 1024950 1050093 1076001 1106594 
2428.117 1145794 1195230 1251551 1306948 1351650 1377676 1382928 1371992 
2431.975 1354143 1339186 1333636 1337425 1344704 1346665 1336095 1310438 
2435.832 1272752 1229653 1188818 1155196 1130578 1112740 1098887 1087062 
2439.690 1076931 1069956 1067398 1070088 1077496 1088823 1103770 1123735 
2443.547 1150910 1186525 1230251 1278468 1326058 1368502 1403670 1433189 
2447.405 1460981 1491203 1524419 1556208 1578188 1580649 1557172 1507661 
2451.262 1439173 1364945 1298607 1250920 1226762 1224270 1236963 1256834 
2455.119 1277504 1294752 1306815 1313130 1313362 1307048 1294552 1277936 
2458.977 1260889 1248029 1243077 1247331 1258463 1271157 1280096 1281791 
2462.834 1276640 1268465 1263082 1265042 1274978 1288338 1298208 1296812 
2466.692 1279764 1248693 1211511 1179914 1165461 1176126 1212840 1269927 
2470.549 1336527 1400612 1452703 1488310 1508825 1519897 1529273 1543405 
2474.406 1565518 1594949 1627508 1656943 1677166 1683585 1674471 1650756 
2478.264 1615468 1573965 1532067 1495858 1471321 1462710 1472751 1501776 
2482.121 1547562 1605292 1668883 1731553 1786612 1829068 1855521 1864539 
2485.979 1856453 1833160 1797525 1753709 1706936 1663495 1630501 1615136 
2489.836 1623384 1658472 1718812 1798324 1884838 1962283 2015008 2029922 
2493.694 2000495 1929766 1829234 1716117 1608717 1523122 1467265 1442464 
2497.551 1443561 1463342 1494494 1532732 1575362 1620590 1664593 1701148 
2501.408 1722637 1722770 1699951 1658739 1608717 1561262 1525915 1505998 
2505.266 1498817 1497354 1494827 1488244 1480597 1478935 1491569 1523222 
2509.123 1572768 1633428 1695693 1751014 1795495 1829600 1857152 1882342 
2512.981 1906370 1927869 1944177 1953496 1957490 1960453 1967775 1981522 
2516.838 1999330 2013344 2013344 1991874 1948371 1890695 1833293 1793799 
2520.696 1786512 1817821 1884339 1974732 2072867 2161368 2226340 2259112 
2524.553 2256414 2220345 2158171 2080990 2001594 1934658 1892525 1882775 
2528.410 1908200 1964879 2044736 2136294 2228604 2311774 2378067 2422047 
2532.268 2440340 2432143 2399590 2348217 2286525 2223442 2167561 2123575 
2536.125 2091578 2068373 2049197 2030554 2011081 1992240 1975797 1962250 
2539.983 1949436 1933327 1910995 1882875 1854123 1834092 1832129 1854090 
2543.840 1898749 1957624 2017172 2065077 2093209 2100634 2092544 2077894 
2547.698 2064111 2055522 2052925 2055689 2063678 2079559 2106927 2148415 
2551.555 2202295 2261344 2313639 2346485 2350982 2325198 2274700 2210321 
2555.412 2144852 2087549 2042838 2011247 1990875 1980657 1981821 1997066 
2559.270 2028990 2077328 2137360 2200363 2256714 2298083 2320734 2325998 
2563.127 2319768 2310075 2304279 2307643 2322233 2347384 2380033 2416849 
2566.985 2454301 2489890 2522450 2552478 2581942 2613042 2647544 2684816 
2570.842 2721858 2752367 2769573 2767873 2745198 2703820 2650578 2593942 
2574.699 2541513 2497955 2464031 2437407 2415250 2396225 2381532 2375036 
2578.557 2381232 2402689 2438573 2484792 2534681 2581442 2620409 2649311 
2582.414 2668513 2679348 2682749 2678915 2667546 2649144 2626176 2603175 
2586.272 2585609 2577743 2579843 2588309 2595275 2592475 2573710 2538447 
2590.129 2492490 2447037 2414050 2403422 2419215 2458966 2514651 2576876 
2593.987 2637343 2691017 2736429 2774542 2805088 2827099 2836904 2830434 
2597.844 2806322 2766939 2718557 2670314 2631743 2608442 2601408 2607342 
2601.701 2620209 2634243 2646877 2658445 2672647 2693051 2721258 2755935 
2605.559 2791849 2822730 2842674 2848777 2841573 2825165 2805722 2789648 
2609.416 2782945 2788881 2808223 2838738 2875860 2912785 2942140 2957786 
2613.274 2955584 2935768 2901944 2860851 2819728 2785313 2761070 2747865 
2617.131 2744264 2748099 2757936 2773241 2794150 2820195 2849144 2877561 
2620.989 2901277 2917221 2925461 2929130 2933667 2944175 2963791 2991381 
2624.846 3022476 3050571 3070425 3080570 3083573 3085341 3092516 3108968 
2628.703 3134265 3162701 3185397 3193942 3182226 3149918 3101526 3046166 
2632.561 2993349 2951514 2925894 2917388 2923292 2939137 2960054 2981939 
2636.418 3002691 3022076 3040894 3061049 3083473 3108902 3136134 3163201 
2640.276 3187199 3205558 3216640 3219878 3216807 3210031 3202921 3198715 
2644.133 3199516 3205858 3216807 3230159 3243479 3254628 3262607 3267982 
2647.990 3272556 3278598 3288781 3304005 3324038 3346810 3368781 3386212 
2651.848 3396130 3396998 3389217 3375292 3358797 3343003 3330782 3323337 
2655.705 3320632 3321934 3326041 3332619 3341667 3353988 3369582 3388449 
2659.563 3409655 3431329 3451401 3468134 3480625 3488474 3492048 3492115 
2663.420 3489677 3485802 3481828 3479590 3481093 3488307 3502269 3522478 
2667.278 3546363 3569814 3587988 3596474 3593267 3578901 3556785 3532166 
2671.135 3510587 3496725 3492917 3499163 3513860 3533969 3556251 3577598 
2674.992 3595138 3606931 3611609 3609036 3600584 3589358 3579603 3575326 
2678.850 3579068 3590995 3608301 3625775 3638004 3641078 3634462 3620563 
2682.707 3604693 3592432 3587888 3591930 3603156 3617523 3631389 3642248 
2686.565 3649532 3654210 3657585 3659957 3660291 3656616 3647059 3630821 
2690.422 3609604 3586151 3564502 3547298 3535406 3526954 3518904 3507180 
2694.280 3489209 3464693 3435637 3406048 3380368 3362804 3355491 3358262 
2698.137 3368380 3381470 3392223 3395562 3388650 3371352 3346442 3319430 
2701.994 3297061 3285175 3286978 3302135 3326943 3355658 3382438 3403477 
2705.852 3417870 3428022 3436906 3448361 3463491 3481627 3499597 3513927 
2709.709 3521777 3522178 3516666 3508148 3500532 3496491 3497526 3503438 
2713.567 3513292 3524984 3537043 3548634 3559625 3570683 3582442 3595806 
2717.424 3610774 3626477 3641680 3654377 3662530 3665003 3661628 3654210 
2721.281 3645622 3639441 3639140 3646692 3662363 3684517 3710483 3736650 
2725.139 3760312 3779898 3795073 3806638 3816298 3826159 3837658 3851932 
2728.996 3868714 3886700 3903215 3914550 3917458 3909434 3890377 3862563 
2732.854 3831273 3802593 3782204 3773213 3775152 3784176 3793702 3797747 
2736.711 3792232 3777391 3756769 3737285 3725588 3725989 3739424 3762451 
2740.569 3789424 3814058 3832243 3843007 3848556 3852634 3859053 3869683 
2744.426 3883925 3899270 3912744 3922774 3929428 3935078 3942635 3954639 
2748.283 3971291 3991020 4010582 4027304 4040313 4050647 4061082 4074494 
2752.141 4091786 4111621 4129517 4139753 4137913 4122191 4093960 4058173 
2755.998 4021084 3988278 3963634 3948587 3942334 3943069 3949456 3960055 
2759.856 3974300 3991822 4012087 4034661 4059209 4086067 4115869 4149086 
2763.713 4185082 4221181 4253335 4276658 4287165 4283986 4269831 4250491 
2767.571 4233159 4224159 4226467 4238780 4257016 4275419 4289674 4298141 
2771.428 4302658 4307443 4317014 4334551 4360253 4392016 4426158 4459264 
2775.285 4489427 4517483 4545708 4577350 4614855 4659363 4709704 4762495 
2779.143 4813786 4859386 4896011 4921915 4937297 4944536 4947016 4949328 
2783.000 4956199 4971481 4998093 5036908 5086757 5144690 5206220 5266552 
2786.858 5320987 5366943 5403812 5433604 5460278 5488800 5523095 5564977 
2790.715 5613140 5663592 5711061 5750879 5780528 5801447 5818540 5838588 
2794.573 5867974 5911368 5969445 6039525 6116035 6193700 6267682 6336129 
2798.430 6399778 6461385 6524515 6591892 6664865 6743302 6824917 6907086 
2802.287 6986745 7061469 7130041 7192425 7249967 7304652 7358873 7415055 
2806.145 7475154 7541162 7615306 7700020 7797804 7910660 8038970 8180520 
2810.002 8330594 8482071 8627584 8761043 8880339 8987320 9087898 9189786 
2813.860 9300737 9425497 9565602 9719375 9883539 10054344 10229492 10408239 
2817.717 10590455 10776008 10964325 11153675 11342530 11530106 11717661 
2821.092 11907477 12102860 12306820 12520560 12743345 12973447 13208659 
2824.468 13447552 13690338 13938256 14192751 14454794 14723337 14996162 
2827.843 15271011 15545897 15821679 16101452 16390663 16695730 17022516 
2831.218 17375172 17755138 18162142 18594704 19052070 19534628 20045726 
2834.593 20590288 21175474 21809246 22498904 23251664 24073600 24970474 
2837.969 25948724 27015212 28178498 29448614 30835666 32350228 34000784 
2841.344 35793948 37731936 39813572 42033296 44380416 46840776 49396636 
2844.719 52025408 54704196 57406644 60104208 62769204 65370916 67878088 
2848.094 70259904 72484680 74523344 76350320 77944488 79288520 80369640 
2851.469 81176272 81698456 81928352 81861936 81502024 80861472 79962680 
2854.845 78835368 77515472 76038600 74437328 72741400 70975584 69161872 
2858.220 67320832 65469800 63625596 61802480 60012212 58266008 56574160 
2861.595 54946144 53392092 51920616 50537852 49247716 48051036 46946568 
2864.970 45932952 45008204 44171280 43419564 42748288 42148876 41608884 
2868.346 41114072 40648752 40199920 39758012 39316812 38872976 38423764 
2871.721 37965764 37494840 37006532 36498264 35971408 35432064 34891340 
2875.096 34362772 33861888 33402082 32993380 32641572 32347798 32109450 
2878.471 31921654 31778816 31676408 31611760 31585104 31598542 31655736 
2881.847 31759710 31912382 32112840 32358688 32645680 32970286 33330270 
2885.222 33725360 34157080 34628196 35141428 35698032 36298148 36939532 
2888.597 37617888 38326292 39056480 39798716 40543320 41283408 42015632 
2891.972 42742108 43469404 44207232 44964656 45747364 46555576 47384028 
2895.348 48224428 49067760 49908640 50745900 51582468 52423600 53274492 
2898.723 54138280 55015900 55906564 56810160 57728052 58663628 59621600 
2902.098 60606372 61621368 62668064 63746184 64854496 65991320 67154656 
2905.473 68341536 69549296 70773960 72012912 73265376 74533776 75823480 
2908.849 77142240 78498400 79898712 81347712 82846584 84393744 85985048 
2912.224 87613416 89269320 90939600 92608592 94259896 95877040 97448072 
2915.599 98964616 100422216 101817200 103143392 104389112 105538016 
2918.492 106567232 107452928 108173952 108712704 109058976 109208800 
2921.385 109165720 108938712 108542640 107997336 107322672 106538056 
2924.278 105657896 104689064 103632776 102486496 101248976 99922800 98518456 
2927.654 97051192 95540384 94003880 92456024 90906928 89361664 87822656 
2931.029 86290736 84766288 83248112 81733736 80219552 78701432 77176832 
2934.404 75647000 74117232 72596472 71095816 69626536 68196528 66811048 
2937.779 65472304 64180204 62934712 61735328 60582028 59473536 58407436 
2941.155 57378660 56380876 55408148 54456380 53525912 52621000 51750408 
2944.530 50925068 50155176 49448580 48808600 48233500 47717328 47251568 
2947.905 46826016 46430744 46057160 45697300 45344876 44994972 44643408 
2951.280 44288460 43928996 43566204 43200824 42833044 42461012 42080276 
2954.656 41684048 41264644 40816556 40336932 39827588 39293524 38741784 
2958.031 38178800 37608208 37030164 36442372 35841484 35224712 34591132 
2961.406 33941560 33277504 32600350 31910886 31210010 30499462 29783758 
2964.781 29069654 28365248 27678440 27014718 26375386 25758124 25158344 
2968.156 24571698 23995018 23427846 22871612 22328924 21801790 21291548 
2971.532 20798308 20322574 19864876 19426058 19006998 18607050 18223816 
2974.907 17852624 17487714 17124250 16758852 16391316 16024332 15662193 
2978.282 15310103 14972016 14650848 14348204 14064629 13799571 13551801 
2981.657 13318557 13095647 12877562 12658086 12431832 12196155 11951580 
2985.033 11702513 11455290 11218272 10997287 10796388 10615444 10451274 
2988.408 10298260 10150558 10003618 9855033 9704974 9556017 9411410 9274638 
2992.265 9147180 9028692 8917540 8810644 8706039 8603183 8503831 8411529 
2996.123 8330053 8262169 8207634 8162929 8121572 8076202 8019867 7948252 
2999.980 7860724 7760226 7652400 7543455 7439323 7344483 7261153 7189764 
3003.838 7129064 7076859 7030251 6986375 6942671 6897188 6849522 6800448 
3007.695 6751917 6706084 6665303 6630379 6600369 6572919 6544360 6510994 
3011.552 6469860 6419954 6362153 6299585 6235681 6174778 6119529 6071109 
3015.410 6028371 5988829 5948786 5903978 5851115 5788049 5714753 5632877 
3019.267 5546150 5459708 5379154 5309650 5255048 5216281 5191700 5177047 
3023.125 5166921 5155520 5139728 5119478 5097317 5077973 5065905 5063458 
3026.982 5069827 5080119 5087594 5085516 5068855 5035970 4988909 4932605 
3030.840 4873560 4818275 4772981 4741424 4726217 4727021 4741291 4763333 
3034.697 4785544 4799681 4798710 4779279 4743334 4698014 4653033 4618405 
3038.554 4601360 4603369 4621452 4647909 4675272 4696741 4708330 4708330 
3042.412 4696909 4674033 4640206 4596738 4546980 4496793 4454377 4427430 
3046.269 4420333 4431781 4454745 4476974 4485309 4470780 4430007 4367349 
3050.127 4292418 4216765 4150324 4098643 4063658 4043390 4034929 4035330 
3053.984 4042955 4055798 4072186 4089311 4103894 4113561 4117240 4116070 
3057.842 4112725 4110417 4110684 4113962 4118612 4122626 4125035 4126640 
3061.699 4129617 4136943 4150223 4168990 4189699 4207330 4216196 4212750 
3065.556 4195988 4168254 4134668 4101385 4074293 4057671 4053590 4061216 
3069.414 4077538 4097439 4115200 4124533 4121288 4103426 4073123 4034661 
3073.271 3996036 3965673 3950392 3954705 3978948 4019378 4068741 4118813 
3077.129 4160761 4187323 4194583 4181435 4150390 4106169 4055463 4005198 
3080.986 3961092 3927321 3905489 3894757 3892116 3893420 3894055 3889241 
3084.844 3876470 3854038 3822950 3786482 3749684 3718704 3699455 3695578 
3088.701 3707709 3732305 3762317 3788722 3802560 3797680 3772378 3730734 
3092.558 3681109 3633560 3598980 3584146 3591930 3619628 3661193 3708377 
3096.416 3753026 3790059 3816298 3831440 3836856 3834181 3824554 3808911 
3100.273 3787519 3761348 3731470 3700123 3668678 3638973 3611308 3585349 
3104.131 3560126 3535239 3510787 3487873 3467967 3452837 3443385 3439912 
3107.988 3442316 3450198 3463458 3482295 3506278 3534303 3563300 3589057 
3111.845 3606965 3613179 3605896 3586318 3558456 3528391 3502203 3485335 
3115.703 3480692 3489076 3508482 3535706 3565471 3592198 3610172 3614716 
3119.560 3603156 3576329 3538446 3496858 3460118 3436572 3431362 3445790 
3123.418 3477385 3521242 3570750 3620697 3666607 3704634 3731837 3744671 
3127.275 3740259 3717835 3679271 3630353 3578834 3534070 3503639 3490913 
3131.133 3494487 3509050 3527589 3542421 3548768 3545160 3532232 3512724 
3134.990 3489844 3466664 3445723 3429759 3420608 3419039 3424115 3432798 
3138.847 3440479 3442450 3435537 3420442 3401072 3383574 3374624 3378197 
3142.705 3394427 3419673 3447293 3471474 3488007 3496257 3498328 3497961 
3146.562 3498729 3502570 3510085 3520708 3533702 3549035 3567242 3588823 
3150.420 3613413 3639241 3662764 3680106 3687424 3682445 3664201 3634630 
3154.277 3597543 3558088 3522111 3495188 3481828 3484400 3502403 3533068 
3158.135 3571050 3610339 3645856 3673590 3692203 3701827 3703866 3699555 
3161.992 3689597 3674626 3655546 3634396 3614582 3600116 3595104 3601820 
3165.849 3619828 3645389 3672588 3694576 3705236 3700357 3679171 3643818 
3169.707 3598245 3548801 3502002 3463658 3438943 3430594 3439244 3462689 
3173.564 3496491 3534704 3570282 3597577 3612611 3614248 3604225 3587086 
3177.422 3569146 3556418 3553745 3563032 3582509 3607232 3630821 3646792 
3181.279 3650501 3641847 3624105 3603858 3588757 3585850 3598813 3627580 
3185.136 3668645 3716164 3763755 3805668 3837858 3858217 3865839 3861326 
3188.994 3846249 3823451 3796376 3768802 3743334 3721010 3700758 3679973 
3192.851 3656549 3629284 3599581 3571618 3550705 3540984 3544826 3560360 
3196.709 3582977 3606865 3627346 3642515 3653742 3664669 3678770 3697717 
3200.566 3719673 3739758 3751255 3748748 3729297 3694041 3648195 3599982 
3204.424 3557921 3530128 3521510 3533034 3562498 3604192 3651637 3697650 
3208.281 3736884 3765994 3783875 3791764 3791329 3785045 3774851 3762618 
3212.138 3750419 3740727 3736817 3740995 3754731 3776556 3802292 3827028 
3215.996 3844644 3851631 3847486 3835050 3819540 3806370 3799585 3800220 
3219.853 3806504 3814894 3821747 3824554 3822147 3815161 3804398 3790961 
3223.711 3774851 3756836 3737586 3718536 3702161 3689964 3682512 3678670 
3227.568 3675896 3671184 3662430 3649799 3635699 3623904 3618391 3621432 
3231.426 3633427 3652639 3675762 3700023 3723382 3744236 3762117 3775586 
3235.283 3782505 3780734 3768467 3746843 3719873 3694676 3679806 3682178 
3239.140 3704935 3745607 3795808 3843642 3877807 3889073 3874999 3838794 
3242.998 3789323 3737051 3691769 3660258 3643852 3640477 3645489 3654811 
3246.855 3665504 3677266 3691936 3711251 3736784 3767465 3800153 3830170 
3250.713 3852133 3861426 3855977 3836488 3806772 3772946 3742599 3722948 
3254.570 3718302 3730367 3756769 3792700 3831875 3869315 3901811 3929361 
3258.427 3953736 3977744 4003527 4031417 4059644 4086100 4108577 4126105 
3262.285 4139184 4148015 4152431 4151059 4140823 4119147 4085565 4043323 
3266.142 3999480 3962731 3941531 3940629 3960156 3994364 4034494 4071083 
3270.000 4096636 4107540 4104195 4090482 4071283 4052520 4039410 4035364 
3273.857 4042955 4062888 4093091 4129951 4168054 4201943 4227204 4242461 
3277.715 4249387 4251662 4253101 4255443 4258555 4259559 4255410 4245205 
3281.572 4231553 4219976 4217300 4228241 4252867 4285893 4316512 4333613 
3285.429 4328660 4298642 4248216 4186520 4126907 4081484 4058373 4061082 
3289.287 4087137 4130186 4180565 4228977 4266619 4287399 4288637 4271873 
3293.144 4241858 4205523 4170295 4141960 4123596 4115200 4113929 4116572 
3297.002 4119983 4122760 4125001 4128312 4134501 4145105 4160493 4180465 
3300.859 4203851 4229077 4253569 4274014 4286864 4288370 4276323 4251528 
3304.717 4217601 4181034 4149688 4130821 4128413 4143165 4171365 4207062 
3308.574 4243230 4273947 4295765 4307376 4309284 4303227 4290845 4274014 
3312.431 4254339 4234163 4215627 4201274 4193111 4192676 4200271 4215092 
3316.289 4236237 4262369 4292418 4326318 4364303 4406777 4453975 4504292 
3320.146 4553877 4597408 4627246 4636388 4619677 4576178 4510017 4431313 
3324.004 4353326 4289139 4249889 4240621 4259559 4299579 4350314 4401522 
3327.861 4444535 4475132 4493110 4500643 4501379 4498902 4495755 4493712 
3331.719 4493076 4493244 4493813 4493646 4492373 4489996 4487787 4487887 
3335.576 4492741 4504359 4522672 4545239 4567506 4583612 4588166 4578087 
3339.433 4552974 4515876 4471584 4425990 4383983 4349008 4322168 4303428 
3343.291 4291916 4286763 4287499 4294426 4307644 4326853 4350614 4376319 
3347.148 4399848 4417689 4426660 4426291 4419362 4411496 4410124 4422342 
3351.006 4452134 4498332 4554346 4609263 4651727 4672190 4666564 4637359 
3354.863 4592620 4542493 4496591 4461440 4438342 4425488 4419162 4416451 
3358.720 4415413 4416484 4420200 4427229 4435798 4443798 4448016 4446108 
3362.578 4437539 4424015 4408685 4395397 4388267 4389840 4401756 4423647 
3366.435 4453339 4487016 4519759 4546110 4561512 4564124 4555050 4538878 
3370.293 4521668 4510586 4510117 4522204 4544704 4572662 4600288 4621921 
3374.150 4633910 4634982 4626074 4608961 4586023 4559938 4532717 4506836 
3378.008 4484138 4465792 4452603 4443364 4436836 4430409 4422141 4410626 
3381.865 4395464 4377289 4357978 4339939 4325816 4318587 4320896 4334216 
3385.722 4358279 4390945 4428467 4465524 4497562 4521501 4536902 4546043 
3389.580 4553275 4562717 4577116 4596471 4618305 4638297 4652330 4658023 
3393.437 4655411 4646536 4634546 4622825 4613013 4605512 4599015 4591916 
3397.295 4582942 4572160 4561010 4552538 4550262 4557460 4576178 4606617 
3401.152 4646301 4690243 4732313 4765946 4785811 4789698 4778039 4754824 
3405.010 4724911 4693793 4665693 4642718 4625370 4612578 4603001 4595734 
3408.867 4590811 4588802 4591146 4598480 4611238 4628384 4648177 4668104 
3412.724 4685487 4698650 4706990 4711981 4716168 4722733 4733921 4750804 
3416.582 4771574 4792981 4810904 4821559 4823737 4818878 4810503 4803333 
3420.439 4800820 4804606 4813384 4823971 4832850 4837239 4836301 4831074 
3424.297 4823368 4816500 4813015 4815662 4826785 4847726 4878854 4917960 
3428.154 4961360 5002752 5036271 5057357 5064731 5061178 5053367 5049311 
3432.011 5055747 5076029 5109185 5150256 5192539 5229359 5255853 5270274 
3435.869 5273360 5267591 5256926 5245859 5239152 5241868 5257899 5288888 
3439.726 5332795 5383985 5433202 5470009 5486316 5478095 5447797 5403477 
3443.584 5356276 5317130 5294154 5291370 5308979 5343730 5390963 5445784 
3447.441 5503229 5558533 5607770 5646640 5671715 5681316 5675341 5656441 
3451.299 5629990 5602668 5580147 5567763 5567830 5579912 5601896 5630359 
3455.156 5661577 5692495 5720293 5742553 5756856 5761120 5753465 5733488 
3459.013 5702668 5665370 5629050 5601829 5592901 5608307 5649963 5713948 
3462.871 5792347 5873784 5946973 6004047 6040970 6058576 6060726 6053032 
3466.728 6040701 6027397 6015503 6006130 6000117 5998504 6001695 6010363 
3470.586 6023298 6038652 6053468 6065632 6074435 6080718 6087405 6097687 
3474.443 6113884 6136231 6161873 6186004 6202069 6204456 6189028 6154882 
3478.301 6104777 6044531 5981841 5925744 5883389 5858537 5850107 5852794 
3482.158 5858402 5858268 5847320 5824450 5794262 5764041 5742318 5736409 
3486.015 5749973 5783013 5832174 5891887 5956210 6020576 6081256 6136332 
3489.873 6183853 6222404 6250707 6268354 6275011 6272086 6260926 6243614 
3493.730 6221866 6197162 6171182 6145473 6121411 6099670 6080315 6061902 
3497.588 6042482 6020039 5993431 5963466 5932461 5903911 5881341 5867470 
3501.445 5863003 5866765 5876404 5888764 5901157 5911334 5918152 5920605 
3505.302 5918690 5913450 5906900 5902131 5902332 5910763 5929136 5956512 
3509.160 5989803 6025146 6058542 6087371 6110759 6128099 6137911 6137105 
3513.017 6121680 6088278 6035997 5968538 5894440 5824181 5768642 5734931 
3516.875 5723650 5729324 5740975 5747388 5738793 5711463 5667553 5614684 
3520.732 5562762 5520678 5494269 5484370 5486417 5492423 5494336 5486652 
3524.590 5468633 5444777 5423136 5411662 5415957 5436792 5469371 5504772 
3528.447 5532625 5545377 5540075 5518732 5486652 5450481 5415957 5386333 
3532.304 5363387 5347654 5340476 5344066 5360200 5390426 5432631 5482357 
3536.162 5531518 5570918 5593673 5595250 5574979 5534773 5478263 5409213 
3540.019 5331923 5251225 5171783 5098557 5035802 4985692 4947853 4919871 
3543.877 4897619 4876743 4854461 4830672 4806750 4784873 4766180 4749196 
3547.734 4731610 4709704 4680329 4641981 4594194 4537940 4475768 4411563 
3551.592 4350782 4299646 4263608 4244769 4241290 4246108 4249353 4241022 
3555.449 4213151 4164407 4099446 4029210 3966208 3922841 3906191 3915987 
3559.306 3945276 3982961 4016803 4036601 4036869 4015933 3975103 3917324 
3563.164 3845781 3764590 3677734 3590627 3508583 3436605 3378264 3334856 
3567.021 3304907 3285743 3275093 3271187 3272088 3274592 3273056 3260671 
3570.879 3230693 3178554 3104296 3013601 2917955 2830267 2763571 2726192 
3574.736 2720324 2741197 2779510 2823364 2861151 2883465 2884465 2862285 
3578.594 2818128 2757535 2687916 2617209 2552445 2497821 2454001 2419081 
3582.451 2389795 2363609 2339023 2316271 2296618 2280696 2267939 2255249 
3586.308 2238429 2213751 2180182 2140490 2099069 2058818 2019170 1976396 
3590.166 1924874 1859980 1779692 1685681 1582977 1480131 1387149 1312365 
3594.023 1261287 1234272 1227394 1233574 1245968 1258529 1267302 1270127 
3597.881 1266438 1256236 1240353 1219220 1193336 1162737 1127223 1085899 
3601.738 1039000 986692 929143 867586 802385 734207 663618 592011 521113 
3606.078 454007 395170 348875 318601 305968 309582 325929 351296 381573 
3610.417 413344 443360 466545 475800 464058 426147 362538 280702 193943 
3614.757 116481 59579 30981 33400 66140 124104 198617 276061 340751 377826 
3619.579 379119 345360 285875 214562 144587 85162 40094 7654 -18786 -48107 
3624.400 -87862 -142353 -210085 -283865 -350913 -395506 -402292 -360646 
3628.258 -273832 -164346 -68317 -13087 -6527 -40322 -102073 -179979 -264527 
3632.597 -347933 -420797 -474286 -502088 -502088 -478225 -438076 -391169 
3636.455 -345384 -306448 -277110 -257375 -246116 -241281 -242109 -248632 
3640.312 -261580 -282077 -310520 -347106 -391269 -441915 -497355 -555765 
3644.170 -614400 -670611 -720630 -761712 -791480 -808909 -813076 -801666 
3648.027 -770345 -712261 -623664 -511056 -393123 -297541 -248268 -253798 
3651.885 -307937 -394182 -493251 -585613 -655558 -691486 -686888 -644376 
3655.742 -575984 -501790 -439698 -399975 -382264 -379848 -384449 -389680 
3659.599 -392394 -392659 -391931 -392924 -398088 -409409 -427384 -451051 
3663.457 -478324 -506125 -531542 -552920 -569928 -584223 -597194 -609867 
3667.314 -621117 -626907 -622010 -602720 -572311 -543356 -532667 -552820 
3671.172 -603514 -673357 -744612 -799285 -821576 -797334 -720001 -597922 
3675.029 -462602 -357600 -313831 -328664 -376471 -429171 -468891 -489114 
3678.886 -491464 -483024 -472267 -466574 -469884 -482660 -503544 -531277 
3682.744 -564634 -603150 -646096 -691420 -735978 -776232 -808545 -830869 
3686.601 -842906 -846941 -847470 -849785 -857060 -867906 -876140 -873561 
3690.459 -854745 -819228 -771635 -719704 -672001 -634980 -611786 -603249 
3694.316 -608246 -625418 -653342 -691850 -740279 -797499 -860433 -923391 
3698.174 -978471 -1016951 -1028851 -1006273 -943757 -842741 -711897 -568638 
3702.031 -435196 -330187 -266547 -247970 -271249 -328002 -407556 -497984 
3705.888 -587003 -665087 -725923 -768493 -796308 -815920 -833349 -850148 
3709.746 -861524 -857126 -827628 -770246 -695555 -622672 -571848 -553979 
3713.603 -567579 -601363 -641398 -674515 -692247 -692611 -678915 -658404 
3717.461 -638454 -624855 -618767 -616948 -612944 -601066 -577969 -544779 
3721.318 -507019 -473624 -454626 -457538 -485705 -536804 -603878 -675243 
3725.176 -737599 -778878 -791843 -777225 -744248 -706306 -674581 -655492 
3729.033 -648842 -648942 -647387 -636369 -611720 -575223 -533759 -494773 
3732.890 -460848 -424670 -371306 -284461 -158914 -8349 135373 237205 275729 
3737.230 252190 183004 89338 -12259 -111879 -205846 -295190 -382794 -469355 
3741.570 -553515 -629620 -689898 -726022 -734325 -721192 -703925 -701774 
3745.427 -721457 -756982 -796771 -831762 -855969 -867410 -865691 -851273 
3749.284 -822799 -776828 -710144 -624789 -531840 -450687 -399743 -389216 
3753.142 -415831 -466773 -524195 -571351 -597922 -599477 -579194 -545441 
3756.999 -509766 -481733 -465648 -460252 -461444 -465813 -474683 -493350 
3760.857 -527041 -577175 -639777 -705546 -762605 -800376 -811687 -796308 
3764.714 -763135 -728172 -706670 -707398 -727973 -757445 -780069 -780896 
3768.572 -751128 -691122 -612448 -534255 -477166 -453633 -465846 -507184 
3772.429 -567116 -632928 -692710 -737533 -760389 -759232 -736243 -697805 
3776.286 -652416 -608610 -573932 -552688 -546533 -553979 -571583 -594746 
3780.144 -619562 -642622 -661083 -672497 -674482 -665219 -645633 -618900 
3784.001 -591602 -571087 -562384 -565230 -574495 -581510 -578333 -561556 
3787.859 -533428 -501128 -474584 -462503 -469851 -495468 -533395 -575752 
3791.716 -614929 -646460 -668858 -683414 -692115 -695820 -694232 -687252 
3795.573 -676302 -665682 -661778 -670347 -692677 -725327 -759000 -781061 
3799.431 -778250 -738558 -657841 -546434 -433077 -351608 -322870 -346774 
3803.288 -406728 -482925 -557288 -616617 -651423 -656948 -634814 -595242 
3807.146 -553449 -522441 -507581 -505563 -508773 -509435 -503610 -491861 
3811.003 -479284 -473558 -481369 -506390 -546831 -595474 -640373 -669454 
3814.861 -673225 -651621 -617444 -592628 -594613 -629024 -688939 -760058 
3818.718 -823990 -861723 -857258 -803022 -708887 -603183 -520985 -481435 
3822.575 -481832 -505066 -532501 -549313 -548684 -531840 -508309 -493218 
3826.433 -500962 -539550 -604805 -683282 -755825 -805668 -822402 -803651 
3830.290 -756652 -697110 -645732 -619363 -626808 -664855 -721325 -778515 
3834.148 -820550 -835366 -815821 -761117 -675144 -567347 -450223 -339292 
3838.005 -250354 -194983 -178820 -198858 -245851 -306216 -366970 -417189 
3841.863 -449363 -460848 -453964 -435659 -415269 -403517 -408350 -434004 
3845.720 -481071 -547195 -628329 -719340 -814796 -909404 -997447 -1073143 
3849.577 -1130783 -1163730 -1164358 -1123380 -1031925 -885498 -695655 
3852.953 -498679 -344622 -269196 -269759 -317871 -382331 -443603 -493218 
3856.810 -530450 -558115 -580584 -600569 -619164 -636336 -652184 -667965 
3860.667 -686822 -712625 -747919 -790785 -834341 -866980 -876537 -856432 
3864.525 -809471 -748283 -688707 -643251 -614764 -597757 -580848 -552721 
3868.382 -505761 -441948 -375445 -328366 -317208 -341908 -387495 -433541 
3872.240 -463794 -469222 -450918 -419837 -394480 -391832 -421062 -479780 
3876.097 -557387 -639579 -711401 -759926 -773719 -744512 -672001 -566851 
3879.955 -452607 -360083 -316679 -333035 -401630 -501988 -610132 -700947 
3883.812 -754072 -756189 -705843 -617676 -518966 -439002 -394049 -383820 
3887.669 -397062 -420234 -440856 -450753 -446251 -428509 -403385 -379848 
3891.527 -366639 -369221 -387793 -418115 -454261 -490206 -520919 -543422 
3895.384 -557222 -563542 -565097 -565693 -568870 -576778 -589948 -607286 
3899.242 -626907 -646890 -666145 -683778 -698268 -706273 -703627 -685995 
3903.099 -651952 -604176 -550967 -501690 -464655 -442511 -433541 -432349 
3906.957 -434103 -435130 -434401 -432382 -430595 -429900 -430429 -431455 
3910.814 -433276 -437049 -445953 -463364 -491133 -527504 -567116 -601330 
3914.671 -619992 -615690 -585977 -535083 -474187 -416824 -374418 -352336 
3918.529 -349489 -361110 -381702 -406827 -434468 -464026 -495005 -525750 
3922.386 -552622 -571384 -578466 -572212 -555203 -532667 -511983 -499010 
3926.244 -496991 -505728 -522739 -543985 -564468 -579723 -585348 -578730 
3930.101 -559075 -528729 -493019 -459061 -434666 -424934 -431356 -450389 
3933.958 -475842 -500234 -517477 -523500 -517212 -499936 -474385 -444696 
3937.816 -415467 -390971 -374650 -369188 -374981 -391103 -415103 -443041 
3941.673 -470811 -496329 -518436 -539021 -560134 -583231 -607220 -629090 
3945.531 -644078 -648379 -640406 -622407 -599477 -578797 -566520 -565197 
3949.388 -573370 -585779 -598121 -606955 -612183 -616121 -621646 -630546 
3953.246 -642060 -653077 -659595 -658470 -649206 -633392 -615029 -597922 
3957.103 -583495 -570987 -556692 -536638 -507581 -468792 -422783 -374418 
3960.960 -328830 -290819 -262408 -243168 -230949 -222967 -218000 -216443 
3964.818 -221113 -235486 -263070 -305123 -359421 -420300 -479350 -526677 
3968.675 -554376 -558479 -540378 -506754 -467766 -434567 -415335 -413978 
3972.533 -428476 -452971 -479085 -499208 -509137 -508607 -500797 -490735 
3976.390 -482858 -480111 -482958 -489544 -497487 -504173 -507317 -506191 
3980.248 -500135 -489643 -475378 -458498 -440194 -421856 -404709 -389084 
3984.105 -375246 -363195 -352833 -345119 -341709 -344821 -355978 -375610 
3987.962 -402127 -431919 -460683 -484248 -500300 -508210 -509435 -506191 
3991.820 -499771 -490272 -476140 -456016 -429271 -397890 -365678 -338034 
3995.677 -320023 -314758 -321678 -338233 -359752 -381602 -400637 -415434 
3999.535 -425464 -430926 -430826 
##END=
