##TITLE=ad16_0 Oct 01 13:55:37 2026 (GMT+02:00)
##JCAMP-DX=5.01  $$ Nicolet v. 970
##DATATYPE=INFRARED SPECTRUM
##ORIGIN=Vojna akademija
##OWNER=Nicolet
##LONGDATE=2026/10/01
##TIME=13:56:05
##SPECTROMETER/DATA SYSTEM=Nicolet iS20
##DATA PROCESSING=
Ratio against background
%Transmittance->Absorbance
Truncated
ElementMultiply or ElementDivide
##COMMENTS=
Number of sample scans: 8
Collection length: 11,90 sec
Sample gain: 8,0
Background collected on: Thu Oct 01 13:54:46 2026 (GMT+02:00);
Number of background scans: 8
Background gain: 8,0
Sample spacing:  1,000
Number of scan points: 12415
Resolution points: 8286
Number of FFT points: 65536
Apodization: N-B strong;
Phase correction: Mertz;
Laser frequency: 15798,00 cm-1
Number of rejected sample scans: 0
Number of rejected background scans: 0
Bench serial number: BER2010005;
##RESOLUTION= 4,000
##XUNITS=1/CM
##YUNITS=ABSORBANCE
##FIRSTX=400.156891
##LASTX=4000.123047
##FIRSTY=0.005462
##MAXX=4000.123047
##MINX=400.156891
##MAXY=0.235416
##MINY=-0.003368
##XFACTOR=1.000000
##YFACTOR=1.000000E-009
##NPOINTS=7468
##DELTAX=0.482117
##ZPD=6100
##XYDATA=(X++(Y..Y))
400.157 5462325 9859608 12632160 13980923 14329198 14204665 14064698 
403.532 14234896 14820487 15726089 16707715 17492268 17886390 17836706 
406.907 17432320 16835930 16217828 15701286 15378067 15313123 15558397 
410.281 16153378 17098780 18336408 19725292 21061032 22106712 22644094 
413.656 22555124 21838130 20589074 18936974 17012972 14930519 12800978 
417.031 10827911 9339058 8764762 9460409 11378991 13954371 16398059 18176100 
420.888 19125574 19374744 19174780 18807792 18522188 18485642 18780354 
424.263 19379420 20179686 21040964 21845726 22500682 22932036 23076848 
427.638 22878806 22312250 21410438 20287126 19126128 18133260 17502374 
431.012 17332238 17594768 18120476 18666228 18978128 18877724 18324692 
434.387 17430870 16438836 15636533 15284224 15482747 16136320 16981650 
437.762 17717274 18115504 18095260 17747716 17307686 17082582 17326376 
441.137 18170848 19540210 21175614 22689302 23730202 24113388 23861662 
444.512 23159878 22248738 21334318 20519836 19827140 19232754 18723548 
447.886 18326142 18106728 18128180 18418296 18939432 19597400 20258866 
451.261 20807312 21178954 21391538 21527722 21696518 21969158 22346052 
454.636 22748794 23044668 23079714 22692898 21765872 20263100 18283668 
458.011 16055619 13884474 12056118 10749650 10052479 9979613 10497877 
461.386 11528677 12933746 14525058 16068375 17358100 18259788 18724584 
464.761 18781840 18505454 17987808 17308168 16535752 15720833 14902401 
468.135 14122815 13434498 12902308 12601085 12590375 12889850 13452747 
471.510 14158586 14820728 15238991 15285837 14943311 14310260 13534095 
474.885 12755834 12055131 11449371 10919811 10448389 10045392 9761934 
478.260 9661166 9781555 10094428 10502222 10848838 10981791 10818705 
481.635 10391406 9855812 9440294 9376536 9790604 10654662 11774206 12868552 
485.492 13646537 13915299 13635664 12897290 11867021 10719118 9610959 
488.866 8647459 7887446 7355064 7047123 6944220 7011899 7209977 7493863 
492.723 7830055 8206486 8636677 9148974 9765425 10479853 11244521 11969496 
496.580 12539555 12857425 12869746 12587680 12075060 11431647 10769520 
499.955 10188751 9785283 9631387 9763866 10168874 10775498 11465871 12097988 
503.812 12554187 12757881 12692815 12398249 11953317 11449201 10957460 
507.187 10518787 10138042 9803381 9511038 9282729 9165691 9215135 9463694 
511.044 9901335 10461626 11045887 11543988 11878360 12023041 11998379 
514.419 11848974 11614906 11314063 10934048 10446963 9835646 9119095 8364439 
518.276 7675501 7153080 6872614 6851037 7048065 7383879 7775001 8161681 
522.132 8521638 8869787 9242720 9675158 10177625 10722989 11246630 11667693 
525.989 11908090 11925969 11727600 11360385 10891033 10383838 9892318 
529.364 9454279 9102481 8869550 8784676 8865627 9104477 9461018 9861100 
533.221 10215956 10449203 10514680 10420354 10225318 10023420 9902454 
536.596 9918488 10073877 10322350 10584546 10779438 10853662 10788304 
539.971 10601149 10330664 10024335 9722627 9459292 9263265 9157637 9159431 
543.828 9272946 9483775 9755361 10036203 10277293 10444723 10535829 10575651 
547.685 10605258 10657005 10740582 10836404 10907443 10914239 10835962 
551.059 10678365 10470688 10248557 10037627 9847406 9672583 9505247 9348944 
554.916 9225221 9171986 9229722 9423329 9750040 10175895 10647464 11101732 
558.773 11488597 11781627 11975830 12082827 12118669 12096523 12024199 
562.148 11909043 11765285 11618751 11511086 11493462 11614021 11909928 
565.523 12389180 13024181 13746388 14461028 15060235 15444361 15555341 
568.898 15389361 15006622 14511251 14035779 13701931 13591594 13741327 
572.273 14137602 14729198 15439314 16186599 16888666 17465638 17851070 
575.647 17993712 17876030 17523694 17011696 16446993 15940009 15588758 
579.022 15450128 15534221 15806353 16202558 16647598 17078138 17461670 
582.397 17792072 18083238 18352998 18614694 18871910 19120900 19353576 
585.772 19562494 19739820 19875420 19956592 19969082 19900604 19747586 
589.147 19517092 19228044 18905964 18582254 18287020 18045622 17876686 
592.521 17786202 17766562 17795040 17839816 17863394 17832668 17728458 
595.896 17551018 17321512 17074104 16848846 16676726 16573478 16539125 
599.271 16560845 16617713 16686745 16748693 16789708 16806240 16805206 
602.646 16806758 16840304 16934760 17108326 17353446 17631516 17876168 
606.021 18016818 17999514 17809194 17477952 17076310 16687054 16368607 
609.396 16139416 15972560 15817657 15627740 15391422 15141266 14945643 
612.770 14873460 14968792 15225848 15593085 15984729 16311392 16510731 
616.145 16554305 16451156 16231002 15931381 15582575 15209960 14839482 
619.520 14499740 14222467 14033178 13938085 13919096 13933637 13930420 
622.895 13860287 13697144 13443656 13131812 12810091 12533997 12356145 
626.270 12314012 12428764 12699127 13100326 13581304 14071576 14497410 
629.644 14791347 14920369 14893759 14764265 14605990 14491278 14466750 
633.019 14538968 14680870 14848670 15007720 15143668 15265622 15391627 
636.394 15529310 15662467 15751857 15746877 15612147 15342470 14971227 
639.769 14557572 14173101 13877324 13700699 13645306 13689620 13802445 
643.144 13951360 14110834 14263862 14399543 14516321 14623329 14742841 
646.519 14904424 15138145 15459364 15856937 16287070 16682440 16973966 
649.893 17107188 17064110 16864898 16560949 16213460 15882162 15613211 
653.268 15431520 15347276 15358638 15455828 15621454 15831884 16059950 
656.643 16279330 16475212 16648768 16817468 17006046 17234972 17509240 
660.018 17815304 18125832 18414560 18669756 18898904 19125158 19374258 
663.393 19661184 19982230 20318756 20646194 20949156 21228428 21508190 
666.767 21835204 22272314 22858094 23557394 24256774 24842852 25268674 
670.142 25546976 25709678 25784528 25792544 25754254 25700606 25674242 
673.517 25721944 25888898 26202580 26666552 27260834 27946912 28676160 
676.892 29395430 30060318 30635620 31101116 31454920 31718288 31937700 
680.267 32176598 32506532 32978688 33603980 34343368 35119152 35835364 
683.642 36409112 36805856 37047664 37204300 37357200 37572904 37875800 
687.016 38246536 38637176 39000292 39311696 39579908 39838448 40129228 
690.391 40484868 40917540 41421676 41980008 42571512 43172792 43757200 
693.766 44294364 44750424 45100680 45341932 45502544 45635464 45805060 
697.141 46061988 46420272 46854656 47309904 47729720 48077760 48355552 
700.516 48597432 48853872 49163592 49538480 49958636 50387008 50784968 
703.890 51132260 51433280 51712484 52003484 52333852 52723756 53184528 
707.265 53723180 54345176 55053848 55844876 56703336 57606628 58528440 
710.640 59450208 60367116 61287796 62224772 63183048 64153776 65117864 
714.015 66059640 66981928 67913880 68906512 70015040 71272488 72676880 
717.390 74187312 75744064 77282112 78755040 80138416 81415360 82556408 
720.765 83506208 84181808 84504384 84424208 83945728 83124512 82051296 
724.139 80817528 79483408 78074984 76585272 74997496 73304792 71523496 
727.514 69691696 67861240 66079700 64384676 62800100 61334424 59984972 
730.889 58738688 57575716 56468560 55391136 54325500 53268840 52235296 
734.264 51248684 50329784 49479548 48671704 47853960 46967500 45963448 
737.639 44824592 43572176 42260432 40956316 39718764 38587596 37574928 
741.013 36673056 35861416 35119620 34429264 33775384 33144950 32524996 
744.388 31905320 31283394 30668652 30079988 29539930 29065864 28659204 
747.763 28302966 27964298 27606898 27200296 26730116 26201032 25634204 
751.138 25058782 24504102 23998798 23565302 23220486 22975144 22830888 
754.513 22777776 22792232 22840352 22881356 22876920 22802184 22648458 
757.888 22426222 22157582 21873044 21601612 21367868 21190190 21079014 
761.262 21035712 21052754 21113414 21190676 21252052 21267432 21211518 
764.637 21073864 20858308 20582610 20270530 19948162 19638996 19360400 
768.012 19123290 18930778 18777414 18647932 18519354 18365546 18162142 
771.387 17894850 17565096 17190672 16798698 16417639 16069062 15760722 
774.762 15488241 15241222 15010945 14796729 14607394 14456164 14355636 
778.136 14309507 14311904 14347691 14400674 14458048 14513306 14564459 
781.511 14608320 14634673 14625659 14557710 14413244 14188882 13903427 
784.886 13594295 13308170 13090082 12964503 12929274 12953852 12992463 
788.261 12994443 12922925 12766343 12538942 12275428 12016432 11798072 
791.636 11637129 11529256 11451957 11377018 11279819 11150377 10995452 
795.010 10837933 10706450 10625256 10608891 10656293 10754032 10879516 
798.385 11008604 11119952 11196376 11226263 11201408 11115567 10966329 
801.760 10757462 10502765 10225014 9957746 9736689 9592769 9547515 9606386 
805.617 9757800 9976358 10231324 10492208 10738340 10963950 11177065 
808.992 11396305 11640669 11924027 12246082 12590477 12926236 13218053 
812.367 13432549 13549716 13569065 13510543 13410336 13308239 13242305 
815.742 13236634 13298810 13420828 13582808 13759384 13922004 14047449 
819.116 14117989 14123397 14062781 13944278 13784590 13603868 13424484 
822.491 13264510 13135466 13044428 12995433 12993488 13045760 13158998 
825.866 13336392 13572552 13853343 14156155 14456335 14734956 14981517 
829.241 15196372 15385997 15556440 15707333 15830819 15914401 15949324 
832.616 15937498 15895704 15850889 15835321 15875461 15984006 16158881 
835.990 16384674 16638853 16895280 17131350 17328064 17472054 17557228 
839.365 17588004 17580966 17563750 17571444 17635898 17774742 17986390 
842.740 18248938 18528758 18790180 19009524 19178900 19305216 19401526 
846.115 19478900 19539758 19579306 19591092 19573760 19534352 19486628 
849.490 19444352 19415698 19401872 19401490 19417464 19463064 19559064 
852.865 19726402 19971718 20279244 20606690 20898114 21102944 21190572 
856.239 21162324 21046528 20883236 20701482 20509798 20295770 20040486 
859.614 19737082 19406412 19094584 18864296 18766894 18822634 19011014 
862.989 19279374 19559410 19791732 19948162 20031984 20071092 20097742 
866.364 20135640 20189960 20250812 20302680 20335388 20350630 20359658 
869.739 20375318 20405602 20447936 20491528 20521816 20527896 20506046 
873.113 20458426 20390010 20303756 20200094 20076816 19934146 19776162 
876.488 19611334 19450278 19300954 19165776 19041650 18922472 18803950 
879.863 18688124 18583672 18503932 18463446 18471570 18530800 18636586 
883.238 18781184 18955976 19154384 19371452 19601386 19835012 20057938 
886.613 20251298 20395704 20475896 20483364 20419076 20293376 20124222 
889.987 19932100 19737984 19558752 19404298 19277540 19175716 19093442 
893.362 19024374 18965288 18917662 18887068 18882050 18911086 18979028 
896.737 19083816 19214086 19349938 19466876 19539514 19549290 19490684 
900.112 19373288 19220632 19064568 18937804 18861322 18839554 18857894 
903.487 18890736 18908662 18891498 18836544 18758764 18686396 18647966 
906.862 18665468 18744718 18875788 19036732 19202934 19351982 19466704 
910.236 19537504 19559722 19533380 19464868 19370170 19275046 19210486 
913.611 19206710 19278510 19417394 19587138 19734688 19802448 19748974 
916.986 19566654 19286302 18969716 18687156 18502342 18448336 18522050 
920.361 18685944 18884784 19060830 19168512 19186208 19114216 18970998 
923.736 18782672 18577516 18379234 18202772 18056780 17943570 17862496 
927.110 17812750 17794176 17808814 17860046 17950580 18081408 18249006 
930.485 18446506 18662632 18883816 19097668 19292988 19462580 19603362 
933.860 19716312 19806712 19884924 19965578 20064880 20198810 20377368 
937.235 20600990 20859628 21135536 21409184 21664438 21894892 22103400 
940.610 22298334 22485784 22663678 22818178 22929940 22978986 22956872 
943.985 22871924 22751274 22632330 22552752 22542770 22616028 22769850 
947.359 22988138 23249672 23532350 23816716 24089188 24338034 24554412 
950.734 24733332 24874466 24984584 25077842 25174142 25293678 25452736 
954.109 25659266 25910422 26192690 26484122 26760702 26998286 27178180 
957.484 27290436 27334718 27320180 27262882 27183648 27101818 27033616 
960.859 26990530 26978894 27001706 27059040 27147986 27261364 27387264 
964.233 27510694 27614736 27687198 27722832 27725198 27703444 27666432 
967.608 27616220 27545606 27438896 27281086 27067540 26811876 26546286 
970.983 26314408 26161016 26115480 26184138 26347640 26568688 26799752 
974.358 26994020 27118254 27152184 27092190 26948222 26744318 26515222 
977.733 26300784 26143422 26073188 26102322 26218558 26389326 26568476 
981.108 26710490 26787064 26790728 26736000 26648162 26554000 26468804 
984.482 26394116 26322646 26246612 26166154 26093878 26049862 26056194 
987.857 26126566 26260584 26443026 26649324 26854310 27036896 27186010 
991.232 27299150 27379606 27432684 27464168 27479524 27485066 27488418 
994.607 27498974 27525556 27576816 27658592 27773728 27921082 28095526 
997.982 28286980 28479970 28657258 28801230 28899918 28951590 28967174 
1001.356 28969192 28983466 29034796 29137752 29293898 29491662 29712364 
1004.731 29936338 30146754 30335064 30499000 30640882 30764422 30873090 
1008.106 30968408 31049720 31114142 31157144 31173520 31160882 31123292 
1011.481 31074528 31039686 31048368 31129912 31302270 31565364 31899900 
1014.856 32272700 32647572 32992918 33291596 33540870 33747596 33920888 
1018.231 34067080 34188876 34287108 34365856 34433604 34500360 34573584 
1021.605 34652560 34728684 34789740 34829196 34852168 34877232 34927396 
1024.980 35019868 35154360 35310100 35450508 35539244 35557372 35511952 
1028.356 35435984 35373684 35366100 35432132 35563732 35729980 35892940 
1031.731 36018600 36088584 36101728 36067776 35999408 35906836 35798628 
1035.106 35683608 35575208 35490952 35446408 35448744 35489228 35545000 
1038.481 35582040 35566932 35479340 35315956 35092424 34835260 34576096 
1041.857 34342616 34155000 34026516 33963092 33965528 34028232 34140948 
1045.232 34286500 34444616 34598520 34737296 34861760 34983236 35120988 
1048.607 35294824 35519896 35803556 36145008 36536504 36965832 37418916 
1051.982 37880104 38332628 38762248 39158288 39518356 39849232 40165680 
1055.358 40483052 40811276 41150612 41491156 41818576 42120908 42396088 
1058.733 42651008 42897740 43143476 43384040 43602800 43777648 43890980 
1062.108 43942304 43952568 43962468 44015084 44146416 44369884 44673560 
1065.483 45023160 45375440 45694468 45959656 46172820 46352836 46529464 
1068.859 46729924 46970896 47253820 47565544 47883784 48186924 48464716 
1072.234 48724004 48990344 49300752 49695192 50201632 50828956 51565788 
1075.609 52390216 53280116 54224428 55227688 56304636 57467764 58713128 
1078.984 60012552 61317216 62573992 63737588 64791136 65747000 66638760 
1082.359 67501240 68357632 69212808 70059736 70894552 71729616 72594168 
1085.735 73527704 74558752 75688768 76885560 78095328 79261640 80344280 
1089.110 81335120 82251416 83120864 83960328 84767944 85524656 86209744 
1092.485 86814656 87351360 87845168 88319760 88778888 89200304 89541536 
1095.860 89760672 89831232 89753088 89546136 89238312 88850280 88388960 
1099.236 87855632 87256848 86613096 85960728 85336200 84762024 84235624 
1102.611 83731880 83216328 82666336 82087552 81514848 80999600 80585512 
1105.986 80294728 80118888 80029120 79992432 79993552 80041952 80170536 
1109.361 80417160 80812904 81367848 82071376 82897512 83815944 84800168 
1112.737 85823568 86858280 87869624 88815032 89656176 90366584 90941448 
1116.112 91395024 91751728 92029024 92227456 92326912 92297112 92110784 
1119.487 91753448 91230288 90559568 89766088 88872280 87899200 86869976 
1122.862 85811488 84757064 83738952 82780704 81894744 81084336 80352608 
1126.238 79716824 79213240 78896760 78830968 79064712 79622760 80496248 
1129.613 81650912 83037976 84614072 86355688 88258360 90331176 92583584 
1132.988 95013840 97606264 100334000 103165448 106073936 109034016 112017024 
1136.363 114987160 117895360 120689720 123330384 125797760 128098336 
1139.256 130253392 132282320 134184600 135935664 137495808 138832832 
1142.150 139937760 140834816 141568400 142190224 142737312 143227040 
1145.043 143666112 144064032 144444032 144844896 145303984 145841856 
1147.936 146448736 147089584 147718416 148303696 148845456 149375392 
1150.829 149939216 150571936 151281248 152044144 152822144 153582064 
1153.722 154315696 155038960 155775872 156535024 157293104 157996416 
1156.615 158583952 159009440 159267408 159390752 159434928 159444256 
1159.508 159432112 159374048 159225872 158944752 158513392 157944544 
1162.401 157271856 156527056 155725072 154862016 153926400 152915104 
1165.294 151843168 150737680 149622512 148499184 147340800 146097696 
1168.187 144722160 143195568 141540576 139817408 138098816 136448480 
1171.080 134893920 133424104 131999568 130575792 129118920 127616864 
1173.973 126075832 124512000 122940232 121369712 119806456 118256904 
1176.866 116730672 115239000 113788896 112379112 110999560 109636704 
1179.759 108279888 106927432 105586016 104265752 102972800 101705080 
1182.652 100454584 99214712 97986552 96782960 95621808 94516888 93468136 
1186.028 92458112 91456944 90435496 89381120 88303800 87233640 86205704 
1189.403 85247168 84363128 83536336 82735048 81929952 81104944 80262720 
1192.778 79419944 78598288 77813032 77067848 76356088 75667112 74991904 
1196.153 74325176 73664888 73007168 72344888 71668960 70973008 70259328 
1199.529 69540400 68837632 68174504 67567392 67023984 66541388 66112028 
1202.904 65728768 65387248 65085992 64821640 64584896 64359500 64126276 
1206.279 63871756 63594104 63306660 63032812 62799916 62627264 62519656 
1209.654 62466888 62448984 62442672 62428132 62393476 62333652 62248748 
1213.030 62142072 62020856 61896580 61784988 61704928 61672160 61694424 
1216.405 61769208 61885120 62026972 62182636 62348528 62529408 62733828 
1219.780 62966696 63225284 63498640 63772932 64037836 64292148 64543144 
1223.155 64801596 65073328 65354244 65630712 65887928 66116772 66322700 
1226.531 66523240 66742420 66997932 67292200 67610360 67926864 68216296 
1229.906 68463024 68667032 68840584 69000232 69157008 69312688 69461264 
1233.281 69595656 69712816 69816624 69914384 70009984 70099336 70169312 
1236.656 70201368 70179944 70098408 69959496 69771528 69542064 69273160 
1240.032 68961160 68601104 68193536 67746816 67276608 66796668 66312240 
1243.407 65815084 65286844 64705752 64058148 63345724 62585780 61805308 
1246.782 61030052 60279632 59562116 58877584 58222848 57596488 57000308 
1250.157 56437848 55911840 55421928 54965884 54542136 54152620 53803244 
1253.533 53500016 53245392 53032884 52846520 52663644 52464052 52236080 
1256.908 51981560 51712856 51448052 51202044 50980396 50779196 50588360 
1260.283 50397540 50200848 49997968 49791756 49583532 49371840 49152828 
1263.658 48923100 48683228 48438416 48195848 47961812 47738704 47524808 
1267.034 47317480 47116492 46925636 46751508 46599912 46470824 46356120 
1270.409 46241956 46114420 45966324 45801412 45632852 45479768 45356900 
1273.784 45269112 45210572 45167700 45125276 45072892 45007724 44932316 
1277.159 44850452 44761004 44656884 44525624 44355752 44139484 43876172 
1280.535 43570676 43230364 42859740 42461084 42034064 41579896 41104420 
1283.910 40618808 40136932 39673344 39238468 38837284 38469268 38130904 
1287.285 37817020 37522800 37244404 36979256 36726124 36486120 36263208 
1290.660 36063780 35894420 35760380 35662280 35594844 35548484 35512420 
1294.036 35478512 35443208 35408228 35377852 35356396 35344352 35339176 
1297.411 35336012 35330912 35321384 35307224 35287636 35259356 35216664 
1300.786 35153248 35066240 34958996 34842552 34731664 34638424 34566588 
1304.161 34508752 34449028 34369012 34256844 34112956 33950872 33791288 
1307.536 33655212 33555832 33495486 33466246 33456154 33456008 33460948 
1310.912 33471148 33488434 33512198 33537540 33556796 33562240 33551070 
1314.287 33525228 33491582 33455900 33421118 33386372 33347550 33300504 
1317.662 33244412 33181212 33114694 33046972 32975830 32894046 32792910 
1321.037 32663934 32501678 32303646 32069422 31799034 31493146 31154616 
1324.413 30791416 30416864 30049912 29708674 29406988 29150968 28937990 
1327.788 28760762 28612026 28489628 28397154 28341268 28325494 28345548 
1331.163 28388028 28434544 28467834 28481278 28482376 28491750 28533962 
1334.538 28630890 28792026 29012548 29274616 29555676 29836528 30105274 
1337.914 30359794 30602554 30836626 31061110 31272356 31468030 31651140 
1341.289 31829942 32014630 32212316 32424160 32644644 32865026 33076576 
1344.664 33275608 33464492 33650272 33838892 34032248 34225620 34410436 
1348.039 34577604 34723192 34849552 34964384 35075864 35187668 35296732 
1351.415 35394028 35468952 35512384 35521264 35499296 35455896 35403052 
1354.790 35354456 35321924 35313768 35333424 35378644 35441016 35506416 
1358.165 35560208 35589268 35586932 35554884 35504436 35452804 35417468 
1361.540 35412396 35442992 35504616 35586536 35676416 35766028 35850444 
1364.916 35926952 35992428 36043008 36075264 36089992 36092868 36094884 
1368.291 36108712 36142956 36198848 36271060 36353340 36444464 36554020 
1371.666 36702076 36916592 37227080 37651712 38188608 38809312 39466428 
1375.041 40106660 40686300 41174760 41543400 41759880 41784100 41574500 
1378.417 41106716 40386168 39453256 38367404 37194628 35988504 34783672 
1381.792 33607128 32480896 31425178 30456312 29577738 28775986 28022256 
1385.167 27281192 26521208 25728310 24915906 24121690 23391758 22758466 
1388.542 22231160 21799388 21445178 21152480 20909832 20709438 20542658 
1391.918 20398692 20265392 20133662 20003186 19886762 19807060 19785800 
1395.293 19832098 19935604 20073624 20220124 20358582 20481210 20589004 
1398.668 20685842 20773734 20849966 20908164 20941716 20946932 20923218 
1402.043 20870510 20787674 20671214 20515980 20319624 20086708 19832238 
1405.419 19578510 19349730 19164462 19031644 18953622 18929810 18960924 
1408.794 19053488 19218728 19470168 19819302 20269802 20815968 21443332 
1412.169 22133420 22864556 23614242 24360250 25077000 25739278 26326202 
1415.544 26821638 27218782 27516976 27717606 27817954 27810430 27687938 
1418.920 27456580 27145834 26799716 26455316 26132478 25832278 25546904 
1422.295 25271272 25010518 24786580 24636254 24593928 24676268 24870464 
1425.670 25143176 25454668 25776336 26099682 26437006 26818746 27284050 
1429.045 27867836 28583892 29419184 30336236 31287738 32226094 33114694 
1432.421 33934072 34677112 35349348 35965216 36545408 37116052 37705552 
1435.796 38338124 39016168 39713100 40382492 40982460 41495236 41925776 
1439.171 42292900 42620744 42934720 43257008 43605364 43987764 44401632 
1442.546 44835540 45274188 45702824 46111284 46497268 46865100 47225820 
1445.922 47595528 47995784 48450156 48979216 49597792 50308652 51108144 
1449.297 51994260 52970476 54046636 55230588 56519736 57889376 59293700 
1452.672 60682416 62008016 63247860 64404392 65495036 66539772 67541608 
1456.047 68469144 69249688 69810432 70139336 70295088 70366336 70412360 
1459.422 70457912 70511968 70580104 70669304 70786480 70933608 71102800 
1462.798 71272024 71406976 71458376 71368272 71080792 70537456 69681072 
1466.173 68460144 66824876 64756020 62273948 59448308 56368424 53131652 
1469.548 49808032 46397928 42852464 39096320 35106400 31006552 27097412 
1472.923 23728662 21091674 19147146 17707542 16562257 15571104 14667744 
1476.299 13845578 13120440 12501872 11976171 11513196 11079400 10651470 
1479.674 10221892 9797789 9392992 9020437 8684911 8383220 8108373 7856000 
1483.531 7626771 7424391 7250405 7100368 6962469 6821315 6664831 6490107 
1487.389 6306577 6133677 5991953 5893835 5836204 5802186 5772671 5734730 
1491.246 5687560 5636267 5585786 5537021 5487256 5432698 5369962 5299085 
1495.104 5223088 5147272 5076599 5012238 4951741 4891118 4829767 4770502 
1498.961 4717709 4673597 4636656 4602565 4566401 4526456 4484673 4445840 
1502.818 4415714 4397739 4391815 4392284 4387799 4363533 4305135 4210809 
1506.676 4102289 4015498 3967813 3947951 3935780 3920166 3900741 3884226 
1510.533 3879378 3893253 3926820 3975805 4030481 4081885 4122559 4148952 
1514.391 4160326 4156378 4137378 4103995 4059778 4011519 3966643 3929227 
1518.248 3897131 3862863 3815830 3747077 3653675 3546229 3448361 3387013 
1522.106 3369682 3379466 3386312 3365275 3303705 3201919 3073028 2939371 
1525.963 2828766 2761070 2743531 2769473 2825732 2899609 2983174 3071893 
1529.820 3161866 3248119 3323971 3381236 3414530 3423848 3419373 3419840 
1533.678 3445055 3502203 3582309 3668210 3744905 3803630 3838260 3844678 
1537.535 3816499 3743434 3612645 3413896 3155692 2876160 2632576 2465997 
1541.393 2381566 2357412 2365641 2385630 2405487 2422680 2440473 2464164 
1545.250 2496288 2535214 2576076 2613975 2645210 2669513 2688617 2706754 
1549.108 2728526 2756302 2788948 2821029 2844808 2852413 2837371 2795851 
1552.965 2727359 2637476 2538180 2445771 2372903 2323866 2293020 2267473 
1556.822 2229970 2165630 2072201 1981622 1961751 2059217 2234499 2411018 
1560.680 2543479 2624142 2662579 2672580 2668813 2663946 2667380 2683016 
1564.537 2707254 2730227 2742197 2737196 2715356 2681249 2641543 2601942 
1568.395 2565543 2533781 2506686 2485425 2472262 2469863 2479393 2499988 
1572.252 2528215 2559811 2589509 2611908 2621809 2614442 2587242 2543213 
1576.109 2492856 2452035 2434275 2444738 2480426 2533914 2596575 2658745 
1579.967 2711288 2747665 2764605 2763771 2750833 2732327 2712488 2692317 
1583.824 2671047 2648744 2629276 2621309 2634809 2677248 2749266 2842874 
1587.682 2941940 3027815 3084841 3105130 3090480 3050304 2996085 2936736 
1591.539 2876127 2814726 2751800 2688683 2630776 2585242 2559611 2558544 
1595.397 2582042 2625342 2681449 2742497 2801353 2851912 2888535 2905646 
1599.254 2900209 2872958 2830134 2782678 2743164 2720724 2716390 2722591 
1603.111 2725659 2712488 2676414 2620809 2558511 2506786 2479626 2484392 
1606.969 2518584 2570910 2625342 2668913 2695518 2707587 2712422 2718723 
1610.826 2732694 2755768 2786813 2823264 2863786 2908215 2956985 3010432 
1614.684 3066054 3118146 3158028 3176585 3170110 3143777 3109502 3078434 
1618.541 3057879 3050971 3058412 3080102 3114575 3158228 3202720 3235200 
1622.399 3241509 3212534 3153055 3081938 3024779 3000890 3020041 3081237 
1626.256 3175184 3286177 3395929 3487973 3551841 3587287 3602354 3609003 
1630.113 3616587 3631355 3654444 3684050 3716030 3745440 3767598 3778093 
1633.971 3774684 3759076 3739658 3730066 3743000 3780800 3834482 3891982 
1637.828 3945978 3995166 4042621 4093960 4154371 4228341 4316814 4418224 
1641.686 4528397 4642416 4755393 4862301 4959516 5043076 5110895 5164909 
1645.543 5216817 5288855 5406764 5584577 5807828 6042683 6255849 6429942 
1649.401 6560876 6652248 6711232 6743436 6752826 6740072 6708137 6669912 
1653.258 6651642 6675834 6737783 6817007 6893452 6953109 6984254 6978092 
1657.115 6931360 6845719 6730178 6597275 6461923 6334885 6221262 6120605 
1660.973 6028639 5940221 5852559 5766828 5686285 5613644 5548566 5487793 
1664.830 5426894 5362985 5294523 5221680 5145964 5070833 5001311 4944837 
1668.688 4910688 4905829 4931064 4977380 5030540 5075794 5104189 5115052 
1672.545 5113845 5110928 5119813 5153810 5220841 5316828 5424143 5521383 
1676.402 5594814 5644693 5679772 5711531 5748596 5795034 5850208 5910125 
1680.260 5970655 6030655 6092748 6162478 6244790 6340164 6438920 6519402 
1684.117 6560775 6564173 6554889 6557916 6584592 6632094 6692490 6756797 
1687.975 6819161 6879280 6942773 7019913 7121452 7252561 7410875 7587387 
1691.832 7771189 7954326 8132848 8309316 8490924 8687176 8905399 9142815 
1695.690 9380735 9591379 9754038 9865811 9936760 9984394 10030235 10103652 
1699.547 10241874 10467091 10762115 11071854 11345829 11563486 11730767 
1702.922 11865148 11987888 12120850 12282141 12481070 12711068 12950234 
1706.297 13172283 13361232 13516936 13651084 13779392 13915606 14067470 
1709.673 14236710 14421773 14620279 14833413 15064660 15318512 15597378 
1713.048 15896907 16207304 16514860 16808134 17086856 17368068 17686006 
1716.423 18082480 18595464 19234244 19969012 20748468 21528384 22294950 
1719.798 23060706 23848990 24684474 25588164 26579116 27673496 28887524 
1723.174 30236902 31735898 33392206 35205344 37166400 39264180 41493960 
1726.549 43870892 46441768 49284200 52491424 56137832 60230332 64676376 
1729.924 69302040 73905104 78378688 82793496 87458088 92904376 99834224 
1733.299 108826184 119755160 131452504 142279184 151272432 158529344 
1736.193 164696624 170434768 176231200 182377712 188995376 196024976 
1739.086 203259312 210360352 216958688 222751840 227531696 231179200 
1741.979 233657872 235020192 235416048 235047952 234100528 232638896 
1744.872 230589024 227783952 224076096 219423712 213942992 207850528 
1747.765 201397216 194726192 187814512 180492720 172593424 164106752 
1750.658 155255504 146461808 138165088 130643728 123939680 117915968 
1753.551 112351344 107017800 101724760 96328944 90746912 84992464 79189344 
1756.926 73549560 68298264 63578068 59414724 55732640 52397320 49253616 
1760.301 46159152 43026500 39854864 36747616 33867008 31354618 29264196 
1763.677 27556198 26129768 24872148 23685794 22509128 21320606 20140534 
1767.052 19017624 18005662 17141588 16427206 15834669 15320675 14849184 
1770.427 14396084 13948897 13502784 13055081 12605519 12162250 11737711 
1773.802 11346305 10998137 10696601 10436374 10206322 9993277 9787520 
1777.178 9585790 9391434 9209449 9042190 8884802 8726559 8555565 8368222 
1781.035 8172721 7986049 7823612 7690239 7576867 7464199 7329150 7157459 
1784.892 6952368 6734687 6534504 6374425 6263178 6192255 6143154 6093655 
1788.750 6026624 5932663 5809339 5658153 5482424 5286239 5077806 4872019 
1792.607 4689004 4545708 4450159 4399179 4382276 4386694 4402426 4424986 
1796.465 4454477 4493244 4540819 4588769 4621854 4619811 4566836 4461608 
1800.322 4322536 4183175 4078207 4030213 4038674 4083792 4135036 4165812 
1804.180 4158988 4111755 4032086 3934878 3835686 3745974 3673791 3622835 
1808.037 3593701 3584647 3590761 3603858 3612745 3606865 3578734 3527756 
1811.894 3458915 3379901 3295592 3206159 3107600 2996352 2873158 2746832 
1815.752 2631643 2544846 2497855 2491257 2512951 2543113 2563910 2564244 
1819.609 2543713 2509552 2471529 2435141 2399557 2358845 2306377 2238929 
1823.467 2160136 2079559 2009349 1958755 1929766 1918484 1919515 1931330 
1827.324 1957823 2005288 2078693 2175454 2280996 2370738 2419415 2414184 
1831.182 2357645 2263109 2144219 2012545 1876053 1742198 1621322 1525350 
1835.039 1466268 1451507 1479699 1540313 1615103 1685747 1736975 1761926 
1838.896 1761427 1741233 1707236 1662830 1610746 1554512 1500712 1460583 
1842.754 1445090 1458289 1490338 1518434 1516106 1470324 1389177 1298573 
1846.611 1228025 1200546 1224270 1290664 1376645 1453102 1498983 1506730 
1850.469 1485318 1452504 1428302 1425344 1447617 1490638 1546731 1609249 
1854.326 1674139 1738871 1799821 1848733 1874389 1864872 1813429 1719677 
1858.183 1590925 1436347 1263580 1078293 886112 695974 523866 389565 312433 
1862.523 303746 361211 467739 596026 717779 810087 863867 885182 890627 
1866.863 898430 921374 961951 1011832 1058098 1092344 1114799 1132638 
1870.720 1153003 1178684 1206893 1232976 1253146 1267800 1282123 1304888 
1874.578 1343607 1401875 1476142 1557238 1633295 1692101 1725465 1729257 
1878.435 1703809 1652752 1583476 1505998 1431128 1369100 1327520 1307480 
1882.292 1306217 1317816 1336029 1357201 1380501 1406828 1435084 1459386 
1886.150 1469991 1453867 1401875 1312831 1199051 1083342 996655 965272 
1890.007 1001271 1098024 1234305 1383227 1516472 1611976 1651887 1622918 
1893.865 1518966 1345834 1125596 893981 695974 570279 537037 593703 715621 
1898.204 864000 993832 1070852 1076665 1012795 895873 750869 602695 469763 
1902.544 365754 298441 272745 290284 349472 444090 562649 691096 815332 
1906.883 925026 1014622 1082445 1126659 1142106 1120347 1053215 939603 
1910.741 788941 619916 454372 310809 197291 111775 45727 -8217 -50228 -69840 
1915.563 -49400 29092 172132 366816 576384 753458 858024 875388 820643 
1919.902 728432 637934 578109 565402 599477 665775 739219 794983 813705 
1924.242 784593 705565 581095 423195 250764 90498 -27434 -77924 -46650 63158 
1929.064 231105 422266 599908 736498 820245 855866 860747 854571 850056 
1933.403 849924 848396 835715 807265 768262 733544 725545 763681 856962 
1937.743 998747 1167023 1330545 1457191 1524652 1521559 1450642 1324064 
1941.600 1159980 974072 773008 554719 313594 47748 -233532 -510229 -754402 
1945.940 -937211 -1039462 -1052584 -980422 -834639 -631274 -386932 -118239 
1949.797 154365 408071 616564 753790 803647 766137 662257 528278 411023 
1954.137 352855 381308 506782 720965 1001902 1317982 1635523 1919915 2138092 
1958.476 2261044 2267306 2149713 1917885 1602598 1245104 882427 541980 
1962.334 233558 -43701 -291316 -502452 -663995 -758934 -782252 -750764 
1966.191 -703991 -694794 -772826 -957709 -1226974 -1518393 -1754510 -1864354 
1970.049 -1799289 -1546062 -1127213 -599676 -38566 467043 835615 1007747 
1973.906 948303 660366 188938 -374087 -912446 -1311054 -1489964 -1431810 
1977.764 -1182367 -836391 -495733 -247606 -135000 -151826 -260752 -415103 
1981.621 -576679 -720465 -838739 -929540 -993910 -1032718 -1046899 -1041015 
1985.478 -1024025 -1007827 -999133 -997216 -988918 -956222 -886060 -779077 
1989.336 -656683 -558578 -532601 -616782 -823891 -1130882 -1484449 -1811399 
1993.193 -2042970 -2132992 -2061635 -1839610 -1501223 -1097403 -681363 
1996.568 -304825 -9409 180485 259351 240089 148366 16004 -126984 -257176 
2000.908 -354224 -401763 -385773 -298037 -142751 55900 251958 389333 410161 
2005.248 279476 3015 -365248 -739749 -1032024 -1181277 -1179063 -1068615 
2009.105 -927953 -836722 -849355 -977083 -1191289 -1433891 -1642723 -1771703 
2012.963 -1791964 -1697580 -1498483 -1214121 -868138 -488915 -112740 222817 
2016.820 479714 634914 690200 669591 610426 542245 477657 406048 304542 
2021.160 152244 -49168 -270852 -456612 -547923 -501293 -309891 -10602 316313 
2025.499 572635 672146 557440 218607 -307308 -943691 -1595518 -2160588 
2029.357 -2553903 -2724003 -2658474 -2385350 -1962330 -1477118 -1029148 
2032.732 -711798 -598055 -716958 -1045246 -1511658 -2016026 -2445188 
2036.107 -2703226 -2741717 -2568100 -2245081 -1862804 -1518724 -1281686 
2039.482 -1177344 -1182169 -1239662 -1280398 -1249673 -1129890 -941807 
2042.858 -734788 -562615 -470645 -479085 -582503 -757181 -973413 -1204341 
2046.715 -1426559 -1620012 -1762529 -1830008 -1802358 -1669657 -1436995 
2050.090 -1124900 -766938 -399379 -55330 237271 462001 610492 682666 687445 
2054.430 641916 571507 502934 461106 457424 487410 530335 558369 548681 
2058.769 493115 402665 302785 222353 177833 168121 174883 175645 156255 
2063.109 122016 94342 103324 167524 281995 415169 523004 565833 527051 
2067.448 420110 283753 163713 92122 78634 108925 157348 200573 231701 261837 
2072.270 311273 395469 513947 647623 768096 849293 881729 874558 851816 
2076.610 838271 847467 876650 909819 928679 921573 890860 848828 808726 
2080.949 775232 738622 677157 569151 401505 180120 -70039 -310421 -503974 
2085.289 -623962 -662274 -630910 -557288 -476868 -422088 -419572 -483653 
2089.146 -614830 -797995 -1004720 -1198724 -1339760 -1396076 -1350033 
2092.522 -1203746 -977083 -705380 -428807 -180344 18290 160895 251294 298043 
2096.861 307360 280802 216551 114029 -23358 -184616 -353926 -511619 -638751 
2101.201 -720895 -748482 -718513 -634682 -507283 -351443 -186405 -34226 
2105.058 87151 165469 198816 195468 171601 146808 138522 159834 216187 
2109.398 307128 426876 566198 714360 857659 981577 1070719 1110846 1092609 
2113.738 1014024 881265 707391 512521 318833 146344 13154 -69940 -99191 
2118.077 -78056 -15440 75021 178198 280371 369336 437059 479482 495901 
2122.417 488338 461338 421702 377560 336971 306100 286206 272513 255604 
2126.756 226662 180319 121287 63224 26342 27601 72006 146344 222419 263595 
2131.578 238498 136467 -26042 -208230 -362600 -447906 -448833 -380212 
2135.436 -280256 -191571 -141260 -129302 -130197 -105817 -26572 109654 
2139.293 269828 393578 417756 294628 17329 -379616 -821675 -1222778 -1508091 
2143.633 -1632292 -1593768 -1427682 -1190661 -933210 -692016 -475279 -270488 
2147.490 -55562 186153 450790 711207 923598 1037206 1009706 820875 477326 
2151.830 12094 -530019 -1097667 -1647047 -2146213 -2573864 -2916648 -3167927 
2155.687 -3321314 -3367773 -3294416 -3085324 -2728086 -2224116 -1604101 
2159.062 -924845 -269494 274734 641783 795414 739949 519222 203490 -134933 
2163.402 -439830 -685962 -882191 -1056253 -1236093 -1432504 -1628727 
2166.777 -1790215 -1883094 -1888735 -1817998 -1708637 -1613311 -1576139 
2170.152 -1619187 -1730749 -1876957 -2010617 -2091248 -2097645 -2026744 
2173.528 -1890120 -1702960 -1480388 -1234045 -978835 -740212 -552258 -455619 
2177.385 -483123 -644045 -916083 -1245972 -1566432 -1804800 -1908397 
2180.760 -1854556 -1655134 -1351684 -1004290 -679908 -431422 -292938 -271680 
2184.618 -347039 -472267 -587466 -638454 -588194 -435494 -212900 18290 
2188.475 191921 256002 188374 2518 -259660 -545375 -813242 -1035793 -1205597 
2192.815 -1327109 -1405158 -1440859 -1432075 -1377910 -1285750 -1173214 
2196.190 -1063194 -972785 -905271 -847106 -774546 -666774 -520091 -355382 
2200.047 -216344 -151727 -198129 -364619 -626808 -932549 -1217359 -1426493 
2203.905 -1523214 -1496204 -1358324 -1138681 -871478 -589286 -321347 -88624 
2207.762 96695 231834 322878 382900 423062 446180 440408 380313 239094 -198 
2212.584 -329194 -706935 -1063128 -1319874 -1410971 -1302267 -1007662 
2215.959 -585679 -129733 266313 519952 584679 457324 174220 -199951 -588988 
2220.299 -915025 -1120802 -1173280 -1067921 -826007 -488816 -107506 270491 
2224.156 604453 869080 1053580 1156824 1184366 1145030 1053713 930937 805970 
2228.496 713630 683264 731884 852613 1015153 1168053 1258031 1249457 1137721 
2232.835 955044 763748 638000 634084 773307 1029501 1340516 1620956 1793932 
2237.175 1816623 1689506 1454465 1178385 932929 764577 686350 675100 688142 
2241.515 680376 623898 519089 392948 285079 228850 239393 304973 393346 
2245.854 463228 482799 440077 346322 229082 121320 48345 20477 33300 74856 
2250.676 133219 202860 285941 387078 505886 633255 748811 827183 848496 
2255.016 804742 704968 571540 433908 318667 240686 202628 196264 209523 
2259.355 231138 255671 283786 318435 361543 411056 461106 504526 536406 
2263.695 557373 574460 598680 639858 701815 778452 854571 909188 921938 
2268.034 881962 792692 673540 554686 471886 453278 511957 640920 815863 
2272.374 1000142 1154930 1251617 1276873 1235202 1145495 1035014 930571 
2276.231 851252 807663 799199 817821 850853 885481 911512 922270 916526 
2280.571 897301 872234 850156 840694 850853 884651 941297 1016913 1103372 
2284.911 1191343 1271190 1333636 1371294 1380003 1359262 1313196 1250620 
2288.768 1183535 1124632 1083940 1067199 1073775 1097492 1128685 1157754 
2292.625 1178120 1187190 1187389 1183734 1182339 1186957 1199550 1218024 
2296.483 1238691 1256103 1265607 1264477 1252382 1232610 1211378 1195961 
2300.340 1192439 1203470 1226430 1254110 1275477 1280096 1261453 1218622 
2304.198 1156624 1084172 1010636 942559 883257 834055 796178 772809 769224 
2308.537 790004 834885 896471 959760 1004393 1013858 980116 909785 821241 
2312.877 741476 695543 698032 749873 839267 947207 1053580 1144697 1215133 
2317.217 1267302 1307247 1341679 1375881 1411880 1449612 1487512 1522590 
2321.074 1550322 1564587 1558868 1528010 1471255 1392999 1302761 1210780 
2324.931 1124865 1047967 977659 908889 837308 763748 695211 644006 623964 
2329.271 646196 715688 829407 978389 1151740 1338422 1529041 1715652 1889996 
2333.611 2042905 2166696 2254383 2303713 2316570 2298050 2253084 2184378 
2337.468 2092577 1977461 1842876 1697955 1557837 1439638 1355340 1307380 
2341.325 1286011 1273383 1251451 1209418 1148784 1083574 1032589 1009573 
2345.183 1016149 1040527 1062881 1064375 1035346 976496 897268 810585 729229 
2349.522 664414 622703 606909 615967 646362 692489 748048 806170 856962 
2353.862 887971 883423 826121 702247 506550 247482 -52613 -357766 -624392 
2358.202 -813804 -895914 -860466 -716826 -493516 -228200 42214 287400 490196 
2362.541 644803 753989 824726 865561 885813 894910 904373 926786 972080 
2366.881 1046373 1147555 1264743 1381232 1479666 1546598 1576825 1574364 
2370.738 1550854 1521194 1498517 1491768 1503704 1531136 1567181 1604494 
2374.596 1636421 1659071 1671012 1672176 1662098 1639414 1599605 1537054 
2378.453 1447085 1328451 1186127 1031825 884319 763714 687445 665974 698496 
2382.793 773938 873064 975301 1062549 1123137 1154066 1158186 1141242 
2386.650 1108919 1065106 1011632 949930 882194 812477 745658 686217 636341 
2390.990 596125 564307 540420 526122 525392 542278 578640 630766 689237 
2395.329 740016 769988 769921 738721 682832 615138 549477 496764 463096 
2399.669 449132 451818 466579 489566 518194 550274 584347 619186 654492 
2404.009 691461 732780 781174 837541 898596 956074 998714 1014920 998880 
2408.348 952421 886909 818884 767100 745492 758902 802418 863402 926554 
2412.688 977061 1006385 1012463 999677 975533 949001 927649 915828 915662 
2417.027 926321 945481 969988 996455 1021828 1043350 1058629 1065139 1060223 
2421.367 1041424 1007315 958464 897965 831897 767897 712933 671615 643840 
2425.707 625457 609497 590153 564739 536439 512222 501839 513019 548383 
2430.046 604254 671250 737759 792095 825955 835515 820543 783498 728532 
2434.386 661129 588229 519156 465185 436793 441669 481240 549278 631596 
2438.725 711838 774469 810551 820444 813273 803680 804543 823996 861145 
2443.065 907428 949366 975002 978024 959992 929276 897334 874890 866756 
2447.405 871935 884319 896803 904240 905569 903709 902680 904971 908690 
2451.744 907926 895209 865096 817224 757873 698164 651141 625092 622670 
2456.084 638133 660133 675033 672113 646528 600771 542577 482865 433145 
2460.423 401869 394441 412582 455168 518127 595926 681405 766137 842022 
2464.763 902580 943488 963645 964508 948967 920145 880302 830536 772212 
2469.103 707324 639792 575355 520914 482633 464190 466048 485154 516502 
2473.442 553989 593571 633852 675930 722857 777091 838736 903610 963213 
2477.782 1006219 1021563 1000673 942459 853011 746090 638730 549378 491821 
2482.121 472947 491523 539989 606809 678319 743202 792360 819614 822502 
2486.461 802286 764312 717580 675465 652302 659802 704138 782867 885249 
2490.801 993566 1090184 1160445 1197191 1201477 1179914 1141375 1092344 
2494.658 1035412 969689 893748 808759 720500 638995 576815 543572 543804 
2498.998 574559 627216 689503 749608 799763 836047 858721 869644 871636 
2503.337 866191 854671 838736 820610 803713 791929 787713 791497 801589 
2507.677 814170 824925 830137 827880 817523 799995 777257 752595 730955 
2512.016 718708 723321 751334 806203 885315 979618 1073377 1148584 1189582 
2516.356 1187290 1142472 1066036 975998 890860 826585 790900 783431 796344 
2520.696 819016 841159 854937 856298 844446 821075 789074 753093 719538 
2525.035 695211 687312 700587 735435 786551 844977 899891 943223 972046 
2529.375 989880 1004625 1024253 1052518 1086763 1118586 1136326 1130811 
2533.232 1099718 1048731 989979 937179 901916 888436 893815 909819 926421 
2537.572 936150 935286 924661 907063 885415 860747 832826 800062 762254 
2541.911 720666 678153 638697 605748 581228 565933 560260 565070 582257 
2546.251 614109 662025 725346 799862 878011 949665 1004691 1034649 1034881 
2550.591 1005787 953218 887905 822967 773108 750736 763714 814004 896571 
2554.930 1000440 1110049 1209484 1284051 1323566 1323665 1285347 1214535 
2558.788 1120015 1012662 902779 799199 708785 634980 579237 540454 516900 
2563.127 506848 508971 522838 547785 582787 625689 673739 724483 776494 
2567.467 829971 885946 944617 1004227 1060223 1106129 1136160 1147887 
2571.324 1144531 1134399 1127722 1133070 1152538 1180645 1204899 1212175 
2575.182 1193602 1149581 1090583 1034781 1001869 1004957 1046871 1118586 
2579.039 1203038 1279498 1331609 1351517 1340782 1308444 1267069 1228590 
2582.896 1199948 1183070 1175063 1171143 1165893 1156724 1143834 1130479 
2586.754 1121177 1120712 1132273 1155794 1188187 1223240 1254176 1274480 
2590.611 1280096 1270592 1248627 1219485 1189316 1164000 1148252 1144631 
2594.469 1154332 1176193 1206959 1241914 1275543 1302395 1319112 1326823 
2598.326 1330179 1337890 1358796 1399548 1461247 1538750 1620357 1693298 
2602.184 1744859 1767681 1760429 1727428 1677166 1618595 1560863 1510387 
2606.041 1471554 1446952 1436979 1440503 1453767 1471820 1488443 1498119 
2609.898 1498052 1488676 1473815 1458787 1448880 1447384 1454266 1468030 
2613.756 1486016 1506264 1528442 1553115 1580815 1611045 1640678 1665092 
2617.613 1679693 1681789 1671943 1654382 1635789 1624182 1625712 1644237 
2621.471 1680026 1729790 1788176 1848500 1904273 1949735 1980756 1995535 
2625.328 1994503 1980190 1956525 1929200 1903042 1883008 1872625 1873723 
2629.186 1886702 1909864 1940583 1974965 2009117 2039975 2065476 2086151 
2633.043 2103597 2120478 2138625 2158404 2178317 2195734 2206990 2210420 
2636.900 2205925 2195801 2183446 2172157 2164165 2160136 2159370 2160902 
2640.758 2164698 2171724 2183879 2202861 2229404 2262809 2300382 2338590 
2644.615 2374003 2403755 2426312 2441406 2450069 2454634 2458166 2464131 
2648.473 2475694 2494289 2518917 2546046 2569977 2584742 2586275 2574743 
2652.330 2554645 2533414 2519484 2519017 2533614 2559744 2590242 2617709 
2656.188 2636043 2643677 2642377 2636510 2630509 2626976 2626409 2627542 
2660.045 2629242 2631009 2633976 2640443 2652411 2670580 2694185 2721157 
2663.902 2749399 2777743 2806322 2836337 2868622 2902944 2937670 2969695 
2667.760 2996085 3015036 3026180 3031485 3034121 3037091 3043397 3054709 
2671.617 3071660 3094051 3120749 3149984 3178688 3202787 3218042 3220679 
2675.475 3208595 3182760 3147214 3107867 3071393 3043597 3027314 3022410 
2679.332 3025513 3032353 3037891 3038626 3032987 3021442 3005460 2987044 
2683.189 2967694 2947911 2927329 2905079 2880730 2854714 2829000 2806389 
2687.047 2790382 2783846 2787981 2801853 2822196 2844675 2864320 2877327 
2690.904 2881697 2877094 2864653 2846343 2824297 2800086 2775009 2750433 
2694.762 2727259 2706687 2689117 2674514 2661812 2649511 2636343 2621875 
2698.619 2607209 2594809 2587342 2587242 2595275 2610042 2628343 2645910 
2702.477 2659045 2665146 2663612 2656112 2645677 2636343 2631976 2635776 
2706.334 2649511 2673081 2704753 2741163 2777810 2809490 2831835 2841373 
2710.191 2836604 2818428 2789615 2755135 2720591 2692251 2675681 2674381 
2714.049 2689283 2718323 2756802 2798118 2835937 2865554 2885066 2896106 
2717.906 2902611 2909649 2920790 2937103 2956918 2976067 2990247 2995852 
2721.764 2992115 2980605 2964658 2948311 2935168 2927462 2926461 2933066 
2725.621 2947944 2972164 3006628 3051272 3104463 3162701 3220245 3270653 
2729.479 3307811 3326642 3324839 3302803 3263442 3212300 3154724 3097021 
2733.336 3044331 3000022 2966126 2943107 2930898 2928796 2936135 2951547 
2737.193 2972898 2996919 3018673 3032820 3034955 3022343 2995251 2957085 
2741.051 2913919 2872191 2837838 2814993 2805322 2808656 2823364 2847043 
2744.908 2876727 2909249 2941005 2968027 2987611 2998020 3000155 2997053 
2748.766 2992682 2991114 2994717 3002925 3013134 3021742 3025646 3023611 
2752.623 3016804 3008730 3003025 3003125 3010899 3027014 3050671 3080570 
2756.480 3114642 3150418 3184229 3212067 3230293 3236468 3231194 3218009 
2760.338 3202654 3191538 3189102 3196545 3211232 3228156 3241843 3248786 
2764.195 3248419 3242711 3235066 3228390 3223383 3219444 3215171 3210698 
2768.053 3208495 3213135 3230426 3264577 3316025 3380668 3450799 3517468 
2771.910 3573122 3613948 3641379 3660959 3679872 3704935 3740025 3785045 
2775.768 3836288 3887602 3932671 3966442 3986706 3994498 3993929 3990251 
2779.625 3989047 3995033 4010582 4036467 4071484 4113795 4161563 4214055 
2783.482 4270768 4331672 4396635 4463951 4531311 4595600 4654105 4705751 
2787.340 4751307 4793316 4836133 4883311 4937230 4998026 5063458 5129066 
2791.197 5190426 5244048 5288587 5325046 5357483 5391063 5430517 5479102 
2795.055 5537223 5602769 5671078 5737248 5797586 5850611 5897597 5941833 
2798.912 5987586 6038013 6094327 6155655 6219850 6284894 6349678 6414978 
2802.770 6483010 6556369 6636502 6723414 6815930 6912472 7012303 7116770 
2806.627 7228674 7351425 7487188 7635235 7791530 7949163 8100237 8238395 
2810.484 8360993 8469773 8570975 8672539 8783492 8910066 9055858 9220584 
2814.342 9401490 9594869 9796806 10005245 10219857 10441940 10673407 
2817.717 10916447 11171795 11438451 11713678 11993713 12274984 12555142 
2821.092 12834662 13117434 13409687 13719200 14053199 14416464 14810065 
2824.468 15230892 15672876 16129237 16593754 17063456 17539116 18024900 
2827.843 18526164 19049368 19599132 20177984 20786700 21425162 22093256 
2831.218 22791778 23522346 24286976 25087706 25925406 26800738 27715098 
2834.593 28671592 29677382 30743900 31885744 33121168 34468972 35946356 
2837.969 37569400 39350908 41302064 43433000 45753516 48274008 51005104 
2841.344 53957636 57141784 60565764 64235172 68150664 72307040 76691480 
2844.719 81279664 86039656 90928824 95894520 100882344 105830184 110673288 
2848.094 115347576 119782488 123905920 127646032 130928200 133683640 
2850.987 135850800 137378688 138233056 138397760 137878480 136701328 
2853.880 134914640 132583784 129782320 126592216 123092768 119356384 
2856.773 115451784 111437496 107366288 103287328 99242072 95269128 91403160 
2860.149 87670904 84096184 80697376 77486832 74474264 71665440 69063728 
2863.524 66671752 64490752 62522024 60765680 59219564 57878552 56733356 
2866.899 55770688 54972312 54317124 53782164 53341212 52967220 52631400 
2870.274 52301780 51948024 51540680 51056080 50480792 49813460 49065312 
2873.650 48257308 47417544 46575164 45754580 44976672 44255292 43600856 
2877.025 43022400 42528244 42126748 41825144 41626936 41531220 41532132 
2880.400 41620956 41786908 42021068 42317224 42672320 43085660 43558108 
2883.775 44090040 44681928 45332772 46041432 46806160 47624220 48491612 
2887.151 49403248 50352892 51334408 52343232 53376916 54435568 55521696 
2890.526 56638480 57787964 58969652 60179788 61411744 62656388 63903964 
2893.901 65146932 66380492 67605136 68826920 70057328 71310520 72600816 
2897.276 73940096 75333416 76779608 78271704 79800272 81356216 82933888 
2900.652 84532512 86155520 87807528 89494224 91220184 92989536 94807584 
2904.027 96681616 98619864 100631000 102720456 104889104 107132232 109442096 
2907.402 111812256 114240304 116731584 119297776 121955544 124720808 
2910.295 127605360 130614368 133746120 136992256 140339920 143774160 
2913.188 147275488 150821936 154388784 157947264 161468064 164920784 
2916.081 168273072 171492176 174540496 177375472 179953472 182228032 
2918.974 184157648 185709584 186860320 187597152 187915280 187816512 
2921.867 187307376 186398464 185106640 183452912 181464112 179171520 
2924.760 176606784 173804704 170800448 167628464 164325296 160924272 
2927.654 157454848 153941520 150400688 146843072 143275952 139705088 
2930.547 136137888 132584184 129054160 125558432 122106112 118703616 
2933.440 115357088 112071704 108853600 105709624 102646248 99668336 96778568 
2936.815 93977264 91263976 88639200 86105104 83667040 81331528 79104464 
2940.190 76990104 74989064 73098472 71313328 69628488 68040392 66548460 
2943.565 65155128 63865312 62684180 61615984 60662564 59822300 59090888 
2946.941 58461568 57927044 57480808 57118012 56835952 56632552 56504336 
2950.316 56444376 56439360 56468824 56508336 56529848 56508412 56426604 
2953.691 56274876 56053152 55766808 55422944 55025152 54572944 54060444 
2957.066 53480900 52828408 52101160 51302004 50437284 49514156 48538668 
2960.442 47515344 46448036 45340864 44200848 43037108 41861116 40684516 
2963.817 39515636 38359696 37217984 36088840 34970452 33862064 32765716 
2967.192 31686104 30629326 29602602 28612026 27661560 26752528 25883832 
2970.567 25051516 24250502 23475198 22721106 21985960 21270460 20577748 
2973.943 19913228 19281592 18686742 18129942 17609534 17121974 16663160 
2977.318 16228972 15816661 15423899 15049155 14690227 14345327 14012679 
2980.693 13691707 13383409 13090354 12815994 12563191 12333374 12125620 
2984.068 11937412 11764843 11604254 11453079 11310085 11175297 11049693 
2987.444 10935543 10835725 10753930 10694869 10662846 10661216 10691337 
2990.819 10751925 10839937 10951208 11082799 11234083 11406509 11602722 
2994.194 11824901 12073425 12345442 12636254 12941222 13256584 13580860 
2997.569 13914922 14259719 14614796 14977572 15342505 15703760 16056066 
3000.945 16396340 16723933 17039230 17341202 17626306 17887424 18115364 
3004.320 18301432 18438796 18525162 18561504 18551270 18497604 18401530 
3007.695 18261690 18075190 17839504 17554260 17222422 16850808 16447680 
3011.070 16021650 15580102 15127372 14666030 14196756 13720294 13237898 
3014.446 12751875 12265543 11782717 11306922 10841534 10389573 9953236 
3017.821 9534035 9132732 8748703 8380247 8024592 7678671 7340136 7007858 
3021.678 6683068 6369180 6071176 5793993 5541787 5316158 5115756 4936626 
3025.536 4773684 4621921 4477743 4340173 4210441 4090984 3983964 3890344 
3029.393 3809145 3737452 3671285 3606764 3541285 3473277 3402508 3329647 
3033.250 3255329 3181392 3109569 3042963 2984875 2939238 2908582 2893738 
3037.108 2892204 2899242 2908015 2911283 2903645 2881830 2845776 2798719 
3040.965 2745798 2693384 2646877 2610442 2585675 2571243 2563410 2556844 
3044.823 2546512 2528282 2501287 2467163 2429544 2393127 2361343 2335858 
3048.680 2316337 2300781 2287691 2276266 2267872 2263975 2265807 2272502 
3052.538 2281229 2287124 2285792 2274667 2254716 2229970 2206224 2189507 
3056.395 2183512 2189107 2203960 2224508 2246456 2266573 2282361 2292687 
3060.252 2296251 2292520 2281762 2264741 2244391 2223642 2205525 2191705 
3064.110 2181781 2173023 2161734 2145218 2122376 2094741 2066142 2040242 
3067.967 2020235 2006820 1997699 1989477 1977794 1959953 1934392 1901744 
3071.825 1864705 1826905 1792335 1764954 1748386 1744028 1751180 1767083 
3075.682 1785780 1800653 1805477 1796094 1771208 1732750 1684882 1632563 
3079.540 1580084 1530670 1486482 1449512 1422352 1407293 1405664 1416601 
3083.397 1436214 1457657 1472551 1474346 1459585 1430031 1390938 1350387 
3087.254 1315689 1291462 1278169 1273649 1274281 1276640 1279365 1282356 
3091.112 1286178 1290797 1294851 1295848 1291761 1281525 1266372 1249557 
3094.969 1234936 1226098 1224170 1227992 1234770 1240918 1243177 1240187 
3098.827 1231746 1218655 1202540 1184665 1166425 1149149 1134166 1122473 
3102.684 1115264 1112142 1111942 1112507 1111743 1107856 1100582 1091115 
3106.542 1081781 1075104 1073111 1076566 1085434 1098721 1115397 1134299 
3110.399 1155229 1177090 1198187 1216528 1228324 1230251 1220283 1198287 
3114.256 1166558 1129682 1093772 1063910 1043550 1033154 1030497 1031028 
3118.114 1030132 1024386 1012895 997285 981146 969191 965106 970552 984599 
3122.453 1004160 1024950 1042653 1054909 1061851 1065538 1068859 1075403 
3126.311 1086630 1102276 1119616 1135097 1145461 1148418 1144232 1134532 
3130.168 1122805 1111643 1102774 1095931 1089520 1081648 1070985 1058098 
3134.026 1045509 1036010 1031825 1032955 1036044 1035180 1022925 993898 
3137.883 945912 881895 809456 739651 683363 648685 638929 652003 681140 
3142.223 717314 752064 778585 794286 799929 798800 795381 793688 796643 
3146.562 805539 820377 840362 864033 889797 915629 938408 954314 958797 
3150.902 948071 919448 873927 815464 751931 693186 648320 624097 622471 
3155.241 640190 669657 702114 729959 748811 759001 764710 771515 784361 
3159.581 804875 831266 858589 880169 890860 887407 870009 842022 809157 
3163.921 777224 751334 734871 728632 731054 738755 747816 754852 758072 
3168.260 758171 757607 760096 767764 780875 795813 807033 807630 793290 
3172.600 763183 722525 679447 643907 624063 623101 639261 665742 694547 
3176.939 717779 730557 731851 723321 708021 689337 670918 655023 645002 
3181.279 644039 654791 678352 713099 754022 793389 823398 837839 834586 
3185.619 814933 784394 749508 715787 686715 663618 645997 633155 624395 
3189.958 620214 620712 625092 631762 637701 639792 635710 625092 608800 
3194.298 589722 571208 556279 547819 547553 556444 574493 600107 629937 
3198.637 658872 681140 691361 685918 664580 630667 590253 549643 514611 
3202.977 487542 468270 453742 440873 427108 412880 399979 392219 392418 
3207.317 401637 418684 440010 460741 476065 482699 479150 466313 446710 
3211.656 423725 401173 383032 372453 372486 384491 408900 443460 484988 
3215.996 527814 566033 594334 609165 609397 597585 578706 558535 543207 
3220.335 536406 539093 549378 563710 578109 589058 594035 591348 579470 
3224.675 556411 520449 470692 407740 335644 261307 192684 137760 101534 
3229.015 84433 82909 90863 102992 116150 131296 152277 183667 227325 281465 
3233.836 339126 391787 430259 449198 448302 432216 408701 385519 368573 
3238.176 359785 357696 359222 361112 360946 358658 354446 348942 342276 
3242.516 333423 321353 305968 288162 270524 256334 248211 247913 254676 
3246.855 266512 280470 293865 304641 312102 315650 315285 311107 302718 
3251.195 289953 273375 254278 234983 217844 204717 196463 192816 192120 
3255.534 193413 196131 200639 208463 220828 238067 258157 277619 291611 
3259.874 296452 290682 275663 255870 237437 225535 222916 229381 241216 
3264.214 253483 261473 262500 256897 247316 237702 231171 229779 234022 
3268.553 243404 257063 274668 296485 322679 352258 383165 411918 434538 
3272.893 447871 450326 442531 426677 405219 380910 355275 328747 302022 
3277.232 275497 251129 231138 217214 210485 210220 214098 219137 222817 
3281.572 223646 221690 218143 214297 210452 206275 200043 190197 176905 
3285.912 161823 149095 143924 150819 172496 207899 252389 298938 339889 
3290.251 368706 382402 381739 370364 353186 335081 318800 304774 292009 
3294.591 279111 265948 253947 246653 246620 255704 272215 291412 306863 
3298.930 312466 304044 281531 247979 208761 169149 132688 100838 73497 50267 
3303.752 31478 19483 16898 25679 44965 70912 96563 114426 118569 106737 
3308.574 81649 49969 19284 -2948 -12425 -8084 8184 33002 63257 96695 132059 
3313.878 169049 207203 245658 283388 318170 348477 372453 388372 394441 
3318.218 389433 372752 345095 309250 269231 230641 199280 179225 172496 
3322.557 178297 193678 213866 234519 252554 266147 276094 283454 289953 
3326.897 296684 302884 306797 306167 298408 282261 257925 228022 196065 
3331.236 166099 141107 122116 108162 96099 82975 66637 47417 28330 14181 
3336.058 9608 17892 38801 69056 102561 132556 153106 160663 154233 135009 
3340.880 106207 71310 33566 -3843 -38466 -68018 -91175 -106380 -113734 
3345.219 -113535 -107407 -97171 -85212 -73650 -64440 -58875 -57417 -60034 
3349.559 -65633 -72358 -77924 -80442 -78984 -74081 -68018 -63844 -65169 
3353.899 -74644 -93295 -120193 -152555 -186868 -218828 -245122 -262077 
3357.756 -267640 -260223 -239493 -207237 -167228 -125824 -89817 -65799 
3361.614 -57881 -66064 -86305 -111183 -133045 -145102 -144738 -132780 
3365.471 -114396 -95879 -82926 -79216 -85411 -99556 -118007 -137219 -153681 
3369.811 -164711 -168652 -164711 -153482 -136656 -118139 -102239 -93957 
3373.668 -96972 -111879 -136093 -164181 -189750 -207435 -214423 -212072 
3377.525 -203892 -194552 -187531 -183225 -180344 -175044 -165075 -150071 
3381.383 -133045 -119431 -114396 -121187 -139306 -165108 -191770 -213297 
3385.240 -225451 -226975 -219821 -207038 -191936 -176204 -160935 -146229 
3389.098 -133145 -123605 -119796 -123506 -135000 -151992 -170441 -186040 
3392.955 -196009 -199752 -199752 -199222 -201242 -206674 -213728 -219391 
3396.813 -220351 -215251 -205846 -195844 -189816 -191008 -200480 -215516 
3400.670 -232505 -246612 -254295 -253401 -243566 -225087 -199056 -166731 
3404.527 -130131 -92401 -58278 -33397 -22663 -28693 -51454 -87398 -130031 
3408.867 -172792 -209886 -237572 -255057 -262971 -263700 -259759 -253865 
3412.724 -249063 -247904 -252672 -264229 -280885 -298865 -312937 -318036 
3416.582 -310818 -291481 -263633 -234194 -209886 -196440 -196572 -208959 
3420.439 -230054 -254129 -276680 -293667 -303070 -304163 -297474 -284925 
3424.297 -269296 -255355 -248268 -252507 -270885 -303070 -344821 -389978 
3428.154 -432117 -466409 -491033 -507317 -518602 -527604 -536241 -543621 
3432.011 -547923 -546930 -539947 -527537 -511983 -495336 -478225 -459921 
3435.869 -438241 -411296 -379119 -343563 -309129 -280885 -262507 -255156 
3439.726 -256613 -261845 -263733 -256050 -234194 -196804 -145864 -86603 
3443.584 -26141 27866 68228 89537 89371 68692 32571 -11696 -54733 -89088 
3448.406 -109891 -115688 -107307 -87531 -59471 -25843 10337 46522 80059 
3452.745 108991 132026 149493 163182 174784 186021 196463 204219 206507 
3457.085 201335 189070 173855 162254 161392 176308 207667 251759 300497 
3461.424 345692 381673 406877 424588 440773 460774 486812 517298 547586 
3465.764 572502 588395 595097 595794 595694 599012 607672 620248 633354 
3470.104 642712 645698 642513 635644 629638 628278 634483 647922 666505 
3474.443 685686 700952 707922 703342 685819 656085 615934 568521 517961 
3478.783 468536 424024 387907 362936 350666 351661 365290 389167 419347 
3483.122 450591 476530 491788 492286 477458 449961 415434 380910 352888 
3487.462 335081 327056 325000 322746 314953 298872 274668 246322 218573 
3491.802 196463 183336 180054 185424 196429 209822 222485 232099 237138 
3496.141 237370 233624 227789 222386 219767 221822 228618 238796 248642 
3500.481 253947 250764 236740 211977 179789 145615 114692 91592 77739 72801 
3505.302 74723 81550 91857 105180 121618 141041 162751 184562 203225 215258 
3510.124 218275 211314 195468 173623 149294 126623 108461 96828 92818 95701 
3514.946 104020 116117 130335 145416 161359 178761 199380 225005 257560 
3519.286 298176 346322 399283 452150 497792 527681 534748 514744 469332 
3523.625 405783 336507 275066 231569 211280 212275 226961 243802 252389 
3527.965 246222 225502 196496 169712 155360 159238 181513 216518 254079 
3532.304 282990 294827 284946 255074 211579 165105 128247 111510 121585 
3536.644 158409 215822 282128 344399 391124 413875 410127 381639 335313 
3540.984 279476 222949 172728 132523 103125 83108 70249 62031 56828 54011 
3545.805 53481 55271 59247 65411 73696 84533 98253 114890 134014 154498 
3550.627 174850 193446 209557 223745 237735 253383 271883 293070 315517 
3554.967 336739 354778 368308 378091 385785 393611 403660 416628 432913 
3559.306 451387 471289 491921 512587 533255 552364 568388 578640 580797 
3563.646 573663 557672 535975 513118 494044 482235 476729 471886 459779 
3567.986 434670 395933 348179 298839 256069 226265 212805 216319 233790 
3572.325 260445 290318 318899 343537 364063 381606 397259 411222 422133 
3576.665 428170 428203 423593 418618 418983 430060 453775 487476 523137 
3581.004 550108 558833 543904 506284 452647 393910 340519 299800 274138 
3585.344 260843 253582 245891 235315 225369 223944 237735 267805 309151 
3589.684 353087 390859 416528 427241 423162 406479 380545 348411 312533 
3594.023 275762 242177 217148 207733 219535 255439 313030 385287 461106 
3598.363 527250 572801 590717 580631 548814 507313 469033 444422 439314 
3602.702 453112 480842 513682 542311 557008 549511 514279 449861 360449 
3607.042 255273 148399 53779 -19813 -71762 -108864 -140896 -176767 -219888 
3611.382 -268402 -315222 -351542 -369916 -367731 -349986 -325949 -304924 
3615.239 -292143 -288170 -288567 -286614 -274031 -243533 -191041 -116781 
3619.096 -25015 76480 179723 278017 366086 440541 499716 543075 571839 
3623.436 589091 599609 608634 620812 638299 660034 681140 692390 682932 
3627.776 642281 568421 474042 384591 320756 288792 280470 282526 281465 
3632.115 266346 230475 171336 93414 6693 -74280 -135530 -166400 -160670 
3636.455 -117543 -40885 60639 175712 290782 393810 476961 536638 573862 
3640.794 592675 598946 598548 596689 597486 603292 615138 633288 657578 
3645.134 686947 719173 750736 774203 780112 757607 698928 604122 485220 
3649.474 364229 265783 206573 189170 203059 231304 257726 270888 263230 
3653.813 231237 175811 102561 22498 -48704 -95084 -107142 -83655 -29554 
3658.153 47980 142499 246918 353551 451619 529373 576848 587764 564407 
3662.492 515473 455434 399183 359089 341083 344465 363267 389101 413842 
3666.832 430624 434870 422963 391224 336739 258688 162387 59214 -38831 
3671.172 -124433 -199321 -271448 -351972 -451216 -575951 -722846 -869791 
3675.029 -972785 -988554 -904610 -748713 -560498 -370379 -192697 -32138 
3678.886 109256 229149 324735 393545 435964 456097 461636 462167 468303 
3683.226 489533 531596 596159 680244 778153 881895 983039 1071782 1135329 
3687.566 1160079 1132671 1046738 907760 733046 546823 371525 223579 111344 
3691.905 35885 -7455 -26108 -28262 -21602 -11497 -2385 2816 2120 -5500 
3696.727 -20443 -41780 -67753 -95813 -122876 -145367 -159544 -160968 -145765 
3701.067 -111183 -57086 13253 93613 176872 256135 326857 386216 433145 
3705.406 468668 495205 515739 532989 548250 560359 565369 557539 532094 
3709.746 487874 431520 376997 343437 344863 383032 445848 513848 567492 
3714.085 593338 586802 550440 492617 424256 357862 304807 272248 262733 
3718.425 273541 298905 332130 368673 405750 441370 473312 496266 503100 
3722.765 486613 442564 372354 283023 187877 102561 42413 17826 29788 69520 
3727.586 121884 171701 206606 218872 205811 168121 110549 40060 -33232 
3731.926 -100881 -158550 -208893 -260024 -320254 -392758 -469520 -530450 
3735.783 -553383 -527537 -458664 -365414 -267673 -180476 -111051 -59372 
3739.641 -20873 10304 39298 66935 89769 99579 86057 40922 -34226 -119994 
3744.463 -183590 -197765 -160471 -90015 -9476 65278 124204 162320 178629 
3748.802 174187 152841 119066 79495 41518 13750 4705 20013 59877 119133 
3753.624 188838 259450 322049 370861 402135 415036 411852 397392 377593 
3757.964 358227 343669 335810 334484 338198 344266 350467 354082 353584 
3762.303 348080 337435 323110 307725 294694 287367 287035 292241 298640 
3766.643 302088 299635 291544 280802 271817 269595 276226 290152 305769 
3770.982 317142 320259 314555 302486 288361 276989 271751 274768 286273 
3775.322 304774 327620 352457 376798 399349 418983 435699 450293 464290 
3779.662 479349 495802 512720 526752 533454 528444 508208 471753 422133 
3784.001 366617 314589 273839 247847 233724 224143 210750 188739 157415 
3788.341 121983 90564 72304 73431 95933 136268 188043 243437 296186 343172 
3793.163 383994 420143 452382 480012 499948 507644 499086 473909 435798 
3797.502 391555 347317 307858 276094 253085 239989 237735 245791 260909 
3801.842 277055 287897 289853 282758 268733 250466 230508 210916 192816 
3806.181 176905 163282 152211 145747 147140 159834 186651 228850 284946 
3810.521 350931 419878 485154 540885 584977 619053 648320 678883 715190 
3814.861 757574 799232 828909 834553 811614 762453 693054 608004 509370 
3819.200 397259 272248 140411 16037 -81369 -136490 -147355 -123208 -76665 
3823.540 -18157 44898 106340 162320 208396 242443 265020 280172 294429 
3827.879 313395 341945 381407 431254 488803 549643 608634 659669 698430 
3832.219 722027 730026 724118 706561 680011 646063 604951 554222 489367 
3836.559 404158 293766 158973 9244 -137650 -259958 -340782 -373525 -361904 
3840.898 -317341 -253302 -181900 -110222 -40156 31180 108196 194341 289688 
3845.238 390030 488670 578275 652435 707291 741476 756014 754387 741476 
3849.577 722525 702778 686184 675598 672312 675199 678518 673076 650012 
3853.917 607639 553027 496266 446047 407507 383629 374775 379152 392517 
3858.257 409000 422299 426843 419049 398686 368606 334948 305006 286538 
3862.596 284383 299867 330372 370331 411819 447075 470426 479183 473246 
3866.936 453576 421669 379616 331035 282493 242973 220098 215258 223646 
3871.275 236707 248709 257560 264357 272546 285444 304509 328681 355076 
3875.615 380412 403594 424621 444952 464986 484092 499948 507910 503531 
3879.955 484789 453808 416794 380180 348013 319828 293103 263561 228784 
3884.294 189269 149891 118536 102197 103257 118039 140378 164773 189137 
3888.634 213601 239989 269828 302917 336573 365854 386912 398089 402533 
3892.973 405551 412184 425616 446180 472317 500778 527980 551269 567857 
3897.313 575720 573796 561388 538729 507180 468768 425616 378920 328780 
3901.653 274734 217745 162221 116316 91525 97789 138058 206242 288892 370165 
3906.474 436462 480444 501010 502536 493082 482102 477823 484922 504427 
3910.814 533918 569019 604520 636142 660631 675830 680576 674569 658574 
3915.154 635179 608833 585209 568786 561454 560459 560658 555748 542245 
3919.493 520682 495503 472649 457556 452283 454837 459978 461271 453775 
3923.833 436428 412714 390096 376433 376632 390295 412416 436263 454240 
3928.172 461006 454206 435433 409497 383065 363002 354513 359785 377925 
3932.512 406214 440574 476928 512654 545795 574493 597519 613777 622371 
3936.852 623997 620613 615237 611587 612749 620181 633354 650510 669160 
3941.191 687080 703707 718940 734141 749873 765308 777855 784261 781440 
3945.531 767797 743833 712668 679613 650742 631894 625955 632259 646196 
3949.870 661494 671250 670255 656317 630401 596789 560791 527947 502470 
3954.210 485386 475203 467607 458021 442863 420774 393943 366981 345394 
3958.550 333920 334948 348278 371027 398851 427971 454870 477956 497394 
3962.889 515009 533354 555051 582024 614109 649150 681837 705997 714427 
3967.229 702114 668596 618688 561885 510298 476065 466147 481704 516668 
3971.568 560890 602264 630766 640953 632558 610625 582356 556113 538695 
3975.908 534184 544269 567957 602098 642314 683629 720600 748347 763615 
3980.248 764411 750969 725147 690266 650178 609431 572668 543804 526620 
3984.587 523435 535046 559928 594997 635478 676427 713265 743567 766005 
3988.927 780245 786883 786385 778983 766005 749243 731751 717181 708851 
3993.266 708718 716551 729959 744928 756910 762851 761325 752960 739883 
3997.606 724914 710544 698795 690830 687511 689337 696206 
##END=
