##TITLE=ad17_3 Oct 06 13:39:47 2026 (GMT+02:00)
##JCAMP-DX=5.01  $$ Nicolet v. 1
##DATATYPE=INFRARED SPECTRUM
##ORIGIN=Vojna akademija
##OWNER=Nicolet
##LONGDATE=2026/10/06
##TIME=13:40:18
##SPECTROMETER/DATA SYSTEM=Nicolet iS20
##DATA PROCESSING=
Ratio against background
%Transmittance->Absorbance
Truncated
ElementMultiply or ElementDivide
##COMMENTS=
Number of sample scans: 8
Collection length: 11,90 sec
Sample gain: 8,0
Background collected on: Tue Oct 06 13:38:59 2026 (GMT+02:00);
Number of background scans: 8
Background gain: 8,0
Sample spacing:  1,000
Number of scan points: 12415
Resolution points: 8286
Number of FFT points: 65536
Apodization: N-B strong;
Phase correction: Mertz;
Laser frequency: 15798,00 cm-1
Number of rejected sample scans: 0
Number of rejected background scans: 0
Bench serial number: BER2010005;
##RESOLUTION= 4,000
##XUNITS=1/CM
##YUNITS=ABSORBANCE
##FIRSTX=400.156891
##LASTX=4000.123047
##FIRSTY=0.018190
##MAXX=4000.123047
##MINX=400.156891
##MAXY=0.219525
##MINY=-0.003111
##XFACTOR=1.000000
##YFACTOR=1.000000E-009
##NPOINTS=7468
##DELTAX=0.482117
##ZPD=6100
##XYDATA=(X++(Y..Y))
400.157 18189884 20821668 23066542 24817170 26066328 26869150 27294388 
403.532 27393862 27194088 26720426 26031076 25236364 24487240 23941060 
406.907 23696328 23773842 24119834 24640322 25226674 25787094 26257170 
410.281 26585596 26726944 26634950 26271778 25644400 24829450 23994702 
413.656 23343960 23064934 23250300 23864986 24751362 25665068 26332362 
417.031 26467924 25876060 24554306 22818842 21220598 20276188 20179234 
420.406 20770122 21741244 22814650 23824032 24679564 25349280 25832138 
423.781 26134274 26261324 26211202 25967260 25504034 24796226 23842410 
427.155 22690314 21462444 20361602 19622080 19485346 20110374 21521004 
430.530 23576880 25991428 28393546 30402544 31762992 32376822 32308214 
433.905 31717148 30810054 29779782 28769826 27881756 27168340 26645026 
437.280 26301524 26113370 26048208 26067630 26129838 26187692 26190334 
440.655 26089760 25843530 25430918 24865414 24208774 23564952 23055988 
444.030 22794956 22843146 23198114 23791970 24519492 25261824 25926952 
447.404 26486236 26977554 27485100 28090226 28835364 29695760 30581862 
450.779 31353656 31870018 32025616 31787552 31204884 30391454 29480634 
454.154 28580600 27772952 27111060 26637028 26398058 26437990 26778852 
457.529 27389062 28177260 29013612 29775666 30393232 30841144 31122152 
460.904 31241878 31195200 30970542 30563910 29994808 29308858 28568252 
464.278 27838232 27166152 26580700 26096340 25716778 25443180 25274468 
467.653 25207044 25235242 25356094 25576216 25920094 26424150 27123332 
471.028 28018652 29047300 30057902 30830828 31161808 30926990 30147144 
474.403 28965792 27597754 26245906 25050884 24079730 23322072 22724388 
477.778 22229520 21815658 21503874 21341068 21359550 21548126 21836040 
481.152 22115464 22273080 22246400 22047724 21762528 21500288 21344794 
484.527 21305990 21314202 21247286 20991894 20501460 19813510 19039156 
487.902 18315914 17776124 17495892 17480954 17674618 17991986 18354898 
491.277 18722060 19098186 19517508 20013700 20588066 21194120 21743820 
494.652 22132616 22260700 22071884 21571874 20844124 20028688 19297560 
498.027 18803986 18631676 18786582 19197948 19753240 20323478 20811796 
501.401 21179440 21449008 21679276 21923714 22194300 22452390 22623918 
504.776 22634564 22447400 22077986 21597154 21103534 20699014 20445472 
508.151 20349796 20368512 20434218 20479578 20455230 20339588 20133418 
511.526 19855232 19533658 19209966 18932580 18751706 18717010 18860628 
514.901 19186276 19659312 20211376 20752534 21194748 21483716 21605234 
518.276 21584202 21459904 21269834 21032512 20748918 20414074 20033788 
521.650 19632272 19256860 18961928 18800146 18804712 18978128 19288208 
525.025 19674948 20068490 20402372 20635908 20760806 20795946 20769216 
528.400 20700578 20587788 20405012 20106592 19644092 18990622 18158550 
531.775 17209908 16244072 15388469 14759809 14437461 14449793 14763134 
535.150 15294658 15931208 16570793 17134038 17578102 17891396 18077264 
538.524 18142138 18090354 17928100 17674514 17368480 17074758 16865036 
541.899 16804758 16929420 17230524 17655430 18123516 18556906 18894820 
545.274 19116364 19240096 19314810 19395636 19524058 19715998 19958674 
548.649 20218632 20452904 20624930 20709404 20698596 20600956 20438212 
552.024 20239424 20033892 19848296 19697624 19581454 19480704 19364108 
555.398 19197256 18957152 18644888 18291168 17949370 17676378 17516934 
558.773 17484474 17559332 17698326 17858388 18015090 18173784 18365960 
562.148 18631988 18997998 19455960 19958292 20428974 20791148 20985320 
565.523 20994570 20846836 20608078 20355840 20161218 20074040 20113984 
568.898 20276848 20542658 20886608 21280342 21694776 22101482 22468964 
572.273 22770198 22986638 23111582 23151072 23120038 23037050 22918308 
575.647 22779348 22637044 22511500 22428524 22412404 22478560 22626676 
579.022 22838364 23080656 23314206 23510104 23656998 23765268 23856726 
582.397 23952614 24059592 24164180 24237538 24248680 24180504 24040400 
585.772 23862012 23697342 23604692 23629358 23796170 24100746 24510692 
589.147 24964298 25380472 25675016 25768530 25614522 25214242 24628538 
592.521 23961930 23337806 22865044 22599834 22540396 22630062 22785946 
595.896 22918414 22963998 22900356 22742474 22528880 22299658 22084782 
599.271 21895172 21728388 21578456 21445142 21337276 21269452 21253444 
602.646 21291512 21372602 21473828 21564736 21615856 21604990 21518566 
606.021 21355166 21124510 20847984 20553324 20274558 20042880 19877432 
609.396 19782058 19741694 19728968 19708890 19651858 19540484 19371696 
612.770 19153414 18899006 18622268 18332812 18038992 17751650 17484542 
616.145 17256450 17085546 16983856 16953880 16987680 17069486 17179160 
619.520 17297550 17404210 17477332 17495062 17435492 17286308 17051324 
622.895 16757440 16450744 16184330 16006146 15937395 15967026 16051320 
626.270 16133983 16161632 16105406 15969466 15788313 15612902 15490714 
629.644 15457717 15524674 15680021 15893847 16131952 16360005 16551655 
633.019 16691359 16773177 16800556 16782716 16732473 16660508 16572790 
636.394 16469602 16347654 16205894 16050840 15899485 15777215 15711730 
639.769 15721040 15809549 15963588 16158881 16367953 16571000 16760606 
643.144 16938136 17106018 17258726 17377344 17436078 17410590 17291996 
646.519 17094472 16856390 16630486 16465783 16396821 16431060 16551241 
649.893 16723417 16914226 17099400 17267724 17419592 17560438 17695152 
653.268 17825522 17950372 18068350 18178276 18279486 18370420 18447922 
656.643 18507632 18547154 18568146 18578762 18590934 18620436 18682900 
660.018 18790870 18955008 19183022 19477100 19830642 20224082 20623296 
663.393 20983234 21263954 21438354 21501958 21469512 21373994 21261516 
666.767 21182814 21190712 21309364 21503664 21689690 21811686 21882696 
670.142 21955846 22079066 22282358 22573028 22938114 23345986 23754592 
673.517 24126804 24438198 24685982 24886606 25070576 25272360 25524732 
676.892 25853590 26270756 26769372 27322544 27888504 28415194 28855226 
680.267 29183924 29405036 29551562 29669542 29803594 29978122 30193850 
683.642 30434456 30680990 30923538 31167966 31428772 31718894 32036568 
687.016 32363362 32668576 32927036 33132148 33302688 33474046 33682784 
690.391 33951020 34276028 34634512 34995264 35337272 35658000 35974428 
693.766 36309712 36681236 37086348 37504120 37901220 38250552 38540340 
697.141 38779928 38992896 39207788 39445964 39715716 40014116 40333444 
700.516 40666800 41013156 41375024 41755280 42152820 42561900 42974444 
703.890 43384960 43794616 44212920 44655084 45137040 45673268 46272920 
707.265 46940032 47673584 48468380 49314188 50194976 51091632 51983316 
710.640 52853480 53695960 54516592 55330764 56157324 57013156 57907512 
714.015 58842640 59818344 60836188 61902352 63027256 64219960 65485292 
717.390 66819584 68213896 69653144 71117824 72582024 74003592 75323400 
720.765 76466360 77348592 77903448 78094696 77925376 77432256 76672584 
724.139 75704776 74570360 73295808 71894384 70376824 68763368 67085044 
727.514 65381900 63697412 62066532 60514568 59054064 57685780 56401512 
730.889 55188372 54031928 52919124 51842504 50800944 49801236 48853496 
734.264 47966072 47140164 46366404 45625196 44891164 44142632 43365552 
737.639 42557992 41727816 40889216 40056116 39240100 38450844 37697348 
741.013 36989032 36334464 35736528 35188384 34671868 34163708 33640568 
744.388 33090774 32519032 31946760 31402058 30906638 30466158 30064472 
747.763 29668158 29237188 28742426 28174716 27550654 26906198 26289764 
751.138 25747856 25314366 25008834 24833064 24773916 24806436 24899764 
754.513 25019540 25130642 25204304 25219720 25168596 25056150 24898886 
757.888 24718180 24532956 24355694 24188594 24026394 23859070 23678342 
761.262 23479884 23265892 23043620 22824394 22622034 22449178 22317936 
764.637 22235276 22201728 22209050 22240960 22274476 22282918 22243228 
768.012 22138650 21961944 21715918 21411552 21064440 20691854 20313062 
771.387 19946912 19610780 19319592 19081152 18896170 18756932 18651148 
774.762 18563648 18481114 18395516 18302642 18201218 18090458 17967674 
778.136 17828458 17669854 17493406 17306686 17123182 16959876 16830488 
781.511 16743630 16699348 16690360 16704202 16726514 16744835 16748313 
784.886 16729476 16683232 16607972 16505808 16384263 16255561 16132779 
788.261 16026910 15942173 15874602 15813500 15747219 15669269 15582232 
791.636 15498062 15433614 15403986 15414560 15458369 15517532 15571276 
795.010 15601362 15600194 15570657 15523197 15468429 15412225 15353180 
798.385 15285563 15204847 15112859 15019931 14942488 14896742 14891153 
801.760 14922804 14978464 15040923 15097010 15144801 15195685 15270530 
805.135 15389053 15561866 15782369 16029110 16269596 16471736 16615476 
808.510 16696317 16725861 16725998 16721832 16732575 16767599 16829006 
811.885 16913812 17020896 17152032 17310962 17498132 17705090 17912908 
815.259 18091668 18210996 18249386 18202222 18086590 17936076 17791762 
818.634 17685626 17633516 17630618 17658778 17695840 17727456 17754204 
822.009 17789414 17850966 17950304 18085138 18240368 18392922 18522880 
825.384 18623826 18704452 18785060 18884472 19011844 19158332 19300850 
828.759 19409044 19460396 19449966 19394180 19324268 19277330 19284640 
832.133 19360436 19501532 19688816 19896372 20096180 20265426 20388620 
835.508 20457106 20469854 20433836 20365388 20288410 20232864 20229392 
838.883 20301116 20459920 20702212 21011402 21361360 21724592 22078890 
842.258 22408532 22706060 22968228 23194934 23386022 23543018 23669278 
845.633 23770796 23855432 23931714 24006012 24082078 24159346 24235680 
849.008 24307546 24372482 24428876 24475356 24510378 24531062 24532884 
852.382 24512096 24466066 24395334 24304672 24203800 24105438 24023172 
855.757 23970472 23955906 23982658 24048772 24148346 24274362 24420990 
859.132 24584918 24763602 24952610 25143562 25319950 25459728 25540300 
862.507 25543146 25463312 25312294 25119338 24922290 24761954 24671954 
865.882 24670304 24759150 24925800 25146616 25389992 25622502 25811498 
869.256 25925616 25941268 25845712 25643238 25356760 25029088 24714884 
872.631 24466208 24325558 24313152 24422846 24624296 24872676 25119970 
876.006 25325114 25465348 25536784 25553020 25537382 25517106 25515244 
879.381 25545640 25612064 25709536 25827776 25953826 26076636 26187552 
882.756 26280508 26352534 26402040 26429152 26435068 26422708 26395242 
886.131 26355070 26301628 26230772 26135750 26010424 25854080 25675648 
889.505 25495496 25339514 25233204 25191698 25212520 25273660 25339478 
892.880 25373236 25344994 25244336 25082090 24888080 24699134 24550940 
896.255 24469748 24464944 24530710 24647300 24787352 24919520 25015328 
899.630 25055974 25033264 24953032 24832188 24694646 24561494 24446962 
903.005 24353032 24273206 24197704 24122076 24050662 23997468 23977510 
906.379 23998134 24051888 24116190 24161200 24160082 24103336 24003458 
909.754 23892468 23807092 23777306 23812518 23898908 24004438 24092304 
913.129 24134404 24117418 24044954 23929892 23787280 23625544 23447848 
916.504 23255056 23051340 22850168 22672928 22543364 22483026 22502044 
919.879 22596972 22750890 22938814 23133180 23308368 23447674 23542040 
923.254 23591014 23600704 23581812 23547216 23507900 23472086 23443756 
926.628 23424208 23414592 23418368 23442464 23495588 23583492 23705320 
930.003 23851020 24003982 24144598 24257930 24340100 24399118 24451240 
933.378 24514514 24602308 24718566 24858850 25013432 25173652 25333930 
936.753 25492756 25649706 25803480 25950448 26088002 26217854 26349190 
940.128 26497858 26681492 26910782 27183366 27482064 27781074 28053748 
943.502 28284470 28475300 28645402 28822332 29031678 29288618 29592812 
946.877 29931368 30283832 30631494 30959262 31257436 31519688 31740780 
950.252 31917624 32051836 32154440 32245650 32352440 32504212 32723092 
953.627 33020514 33395856 33839712 34336736 34870120 35424084 35980368 
957.002 36519924 37023996 37477864 37879164 38240092 38588684 38957088 
960.377 39372636 39846180 40368164 40911528 41443652 41940484 42393056 
963.751 42809096 43203676 43589352 43964964 44314620 44611280 44828744 
967.126 44949184 44967996 44891788 44733568 44507264 44225792 43903700 
970.501 43560012 43217952 42904728 42641832 42440476 42296588 42193496 
973.876 42106560 42012456 41896732 41754808 41590692 41411068 41221572 
977.251 41024916 40822344 40617572 40418892 40239284 40093724 39994532 
980.625 39948212 39954172 40005868 40093036 40203660 40327264 40452280 
984.000 40568564 40667308 40742016 40791368 40818228 40827840 40824164 
987.375 40806252 40767672 40699912 40596832 40461120 40304864 40148748 
990.750 40012916 39908908 39835472 39778020 39714044 39621504 39487620 
994.125 39310968 39100564 38870076 38633480 38402552 38186220 37995272 
997.500 37842540 37743104 37710724 37751812 37861848 38023768 38213136 
1000.874 38401212 38562900 38681976 38750584 38769348 38744644 38688532 
1004.249 38616712 38548164 38502072 38492404 38522964 38584808 38658976 
1007.624 38721640 38755620 38758592 38746672 38749028 38797280 38913996 
1010.999 39102232 39343656 39603032 39843060 40031520 40151796 40204132 
1014.374 40201916 40166156 40118544 40081548 40073920 40110040 40199520 
1017.748 40343732 40535460 40760324 41002052 41246496 41486888 41724572 
1021.123 41964788 42210400 42458088 42695716 42908092 43083248 43218832 
1024.498 43322388 43407552 43485552 43558184 43616136 43644272 43632912 
1027.873 43584956 43519868 43466836 43456288 43504928 43609612 43748516 
1031.249 43891128 44008520 44083620 44114392 44108888 44076984 44022344 
1034.624 43940508 43821484 43655776 43440472 43180548 42887648 42575716 
1037.999 42256376 41940156 41637840 41363760 41138224 40985076 40924784 
1041.374 40968000 41109668 41327500 41583868 41838680 42055348 42210036 
1044.750 42295640 42320840 42306996 42280516 42270328 42299288 42380200 
1048.125 42513484 42687272 42881756 43074064 43248660 43402096 43546572 
1051.500 43705204 43906048 44172456 44514572 44926988 45391108 45882056 
1054.875 46373520 46845684 47286296 47689744 48056256 48390000 48699540 
1058.251 48995760 49291584 49597052 49915328 50240016 50556424 50846836 
1061.626 51095512 51296372 51453424 51578212 51683336 51777212 51862628 
1065.001 51939472 52010244 52085400 52182012 52321364 52519132 52778228 
1068.376 53086380 53420080 53752052 54061124 54339504 54594396 54845228 
1071.752 55115236 55429756 55811040 56275932 56836144 57494880 58244708 
1075.127 59065264 59928828 60804820 61670784 62522256 63374512 64256840 
1078.502 65196708 66207804 67279472 68380360 69467680 70508264 71491032 
1081.877 72431008 73358496 74305088 75287072 76298808 77317672 78315904 
1085.253 79276664 80198512 81094360 81980928 82872248 83772544 84682328 
1088.628 85604344 86549400 87535264 88576304 89672832 90801016 91916048 
1092.003 92966136 93904496 94705656 95367344 95900640 96316040 96613728 
1095.378 96782016 96807272 96685712 96432696 96078232 95660336 95208728 
1098.754 94735368 94236472 93700152 93118144 92492352 91835440 91164064 
1102.129 90490960 89821176 89155464 88498664 87865528 87285408 86793688 
1105.504 86420456 86182912 86079240 86094312 86207888 86408528 86696552 
1108.879 87083432 87579528 88184472 88878456 89627096 90386208 91118408 
1112.255 91801864 92430528 93009072 93544000 94035600 94477632 94860544 
1115.630 95177328 95426528 95609712 95725224 95762896 95702552 95519160 
1119.005 95192560 94714608 94092712 93347312 92506040 91593936 90632960 
1122.380 89641432 88636360 87638024 86669776 85754896 84917920 84179912 
1125.755 83560072 83078936 82757296 82617128 82679808 82960312 83466504 
1129.131 84197088 85144528 86298216 87649136 89192048 90924040 92841632 
1132.506 94936448 97191496 99584480 102090064 104684296 107350336 110074368 
1135.881 112843232 115639288 118437744 121210240 123933160 126589568 
1138.774 129171656 131673112 134078504 136358528 138470800 140371632 
1141.667 142036192 143468432 144703152 145788224 146769808 147670736 
1144.560 148489248 149208896 149818352 150326752 150770080 151194848 
1147.453 151645392 152143808 152685792 153247040 153801328 154335312 
1150.347 154854336 155375232 155914240 156475408 157047856 157613616 
1153.240 158159584 158687072 159210704 159747712 160303600 160864176 
1156.133 161398192 161872000 162261504 162563136 162788848 162951952 
1159.026 163050944 163063504 162952848 162690192 162270608 161724704 
1161.919 161105056 160470752 159858976 159272912 158686304 158060864 
1164.812 157367680 156597376 155758848 154864048 153911728 152881936 
1167.705 151742976 150470768 149067616 147569024 146032528 144513728 
1170.598 143047968 141634720 140244432 138834384 137372464 135848944 
1173.491 134277520 132682216 131086168 129500168 127924768 126358392 
1176.384 124806400 123283424 121808536 120392808 119031536 117703272 
1179.277 116380320 115041696 113686904 112336712 111026336 109787528 
1182.170 108633936 107555888 106525392 105509376 104481144 103430120 
1185.063 102360872 101286216 100218096 99163992 98127368 97111064 96120360 
1188.439 95162648 94242568 93357368 92495424 91639848 90776224 89900352 
1191.814 89021472 88157928 87325184 86527520 85753072 84978512 84179152 
1195.189 83342600 82474992 81600208 80747496 79939296 79183424 78470968 
1198.564 77784064 77107296 76436528 75779688 75152368 74567016 74028416 
1201.940 73531392 73067416 72631880 72229480 71873000 71576864 71345856 
1205.315 71169312 71019872 70864640 70673664 70433672 70151208 69849624 
1208.690 69558200 69300912 69089416 68920808 68781264 68652208 68517056 
1212.065 68364344 68188344 67989904 67776256 67561392 67364200 67208144 
1215.441 67113232 67091116 67139760 67243848 67378712 67517344 67642152 
1218.816 67746816 67838184 67929920 68036832 68168456 68328120 68514880 
1222.191 68726608 68963176 69225440 69512976 69820784 70138320 70453704 
1225.566 70757304 71046952 71328752 71613784 71910848 72221104 72534320 
1228.942 72833192 73100048 73323704 73505208 73657272 73798232 73945128 
1232.317 74107880 74287824 74478544 74669432 74848824 75005688 75128216 
1235.692 75205584 75229072 75194560 75106632 74978000 74827096 74669976 
1239.067 74514696 74357616 74185032 73978016 73721736 73411072 73051384 
1242.443 72655808 72237848 71807784 71368624 70917144 70447032 69952104 
1245.818 69425840 68863064 68259528 67613072 66927456 66214748 65497160 
1249.193 64800904 64151244 63564376 63042544 62575252 62144788 61736132 
1252.568 61341828 60964776 60613988 60297940 60017916 59765376 59524912 
1255.943 59281316 59025028 58756100 58480904 58207656 57938976 57670572 
1259.319 57393184 57099004 56788332 56471504 56165168 55885196 55640016 
1262.694 55427728 55238188 55059528 54884364 54711676 54545180 54388060 
1266.069 54238320 54087952 53925108 53739152 53525764 53288468 53036512 
1269.444 52779952 52526796 52280852 52043820 51818980 51613588 51436712 
1272.820 51298240 51201784 51142848 51108032 51080752 51045904 50993588 
1276.195 50922572 50834916 50733240 50614796 50471856 50294328 50075448 
1279.570 49816172 49525816 49219400 48911384 48609144 48310260 48003556 
1282.945 47674176 47308720 46900572 46451576 45972620 45480360 44994900 
1286.321 44539204 44134564 43796596 43534120 43344464 43214512 43122324 
1289.696 43045816 42965772 42871664 42762840 42645852 42529196 42419068 
1293.071 42317844 42223804 42135440 42053956 41983876 41931764 41902020 
1296.446 41893448 41898192 41903992 41899980 41879760 41844444 41800664 
1299.822 41757180 41718988 41684888 41647504 41597216 41525424 41427692 
1303.197 41305196 41161644 41001900 40829368 40647224 40459408 40272148 
1306.572 40095212 39938620 39810632 39714624 39647824 39602848 39570256 
1309.947 39542308 39513420 39480400 39441536 39395024 39339552 39275968 
1313.323 39209236 39147772 39101400 39077504 39077000 39092260 39108864 
1316.698 39111332 39086896 39031176 38948608 38849568 38744392 38638768 
1320.073 38531216 38415656 38284600 38133764 37963556 37778776 37585660 
1323.448 37389232 37193004 36998160 36805248 36614364 36424860 36234716 
1326.824 36039224 35832628 35610020 35372068 35126628 34889760 34681628 
1330.199 34520088 34416604 34372096 34378480 34422380 34491536 34578644 
1333.574 34682240 34805072 34948940 35112544 35291048 35478120 35670732 
1336.949 35872284 36093664 36348044 36644464 36980556 37340084 37697604 
1340.325 38027240 38314892 38559856 38771524 38962308 39140556 39308432 
1343.700 39462544 39597332 39710012 39802244 39879744 39948904 40013896 
1347.075 40075372 40131988 40183052 40231724 40284216 40349040 40432024 
1350.450 40533604 40647440 40763308 40870464 40960868 41031616 41084100 
1353.826 41121612 41147768 41165432 41177784 41188972 41205984 41236732 
1357.201 41287156 41360480 41455504 41567244 41689412 41817484 41949060 
1360.576 42083744 42220260 42354516 42478036 42582076 42661940 42721744 
1363.951 42772164 42826172 42891816 42969616 43052144 43128912 43190100 
1367.327 43231568 43257336 43278384 43307120 43350616 43409124 43478008 
1370.702 43553896 43640976 43754672 43922288 44177996 44551836 45057344 
1374.077 45680552 46379788 47094776 47764964 48340148 48774044 49024096 
1377.452 49047428 48806304 48285488 47501964 46508848 45374520 44169744 
1380.828 42947044 41735876 40553072 39409644 38316736 37285960 36322212 
1384.203 35420452 34565116 33736748 32920066 32113518 31332680 30603086 
1387.578 29944928 29361996 28836744 28344274 27863810 27387228 26919524 
1390.953 26474016 26066960 25708868 25404888 25155078 24956998 24808402 
1394.328 24706254 24645196 24613214 24594314 24573626 24541580 24497722 
1397.704 24450924 24416362 24409702 24441072 24510132 24607042 24718180 
1401.079 24831556 24938504 25030456 25097222 25125620 25100730 25013538 
1404.454 24868078 24685876 24498634 24339434 24230180 24176124 24171290 
1407.829 24205272 24272784 24379492 24541510 24781846 25122392 25573966 
1411.205 26131176 26772792 27469606 28187478 28894180 29562912 30168100 
1414.580 30689062 31110370 31421612 31619280 31703818 31677586 31540316 
1417.955 31293578 30947378 30529178 30085030 29662588 29292374 28982192 
1421.330 28721292 28491680 28275098 28060356 27848866 27657074 27510304 
1424.706 27434592 27444014 27537804 27707010 27942708 28242176 28609550 
1428.081 29053924 29583130 30196690 30883620 31623450 32392278 33168518 
1431.456 33934680 34677756 35389536 36064356 36701968 37308924 37898688 
1434.831 38492656 39117060 39794288 40523640 41274992 41998696 42651852 
1438.207 43217368 43701792 44124076 44506680 44870920 45234472 45609920 
1441.582 46003048 46412972 46832916 47253600 47665852 48062768 48441676 
1444.957 48803632 49154612 49504648 49869096 50267544 50719984 51246780 
1448.332 51861244 52573092 53392540 54331920 55406196 56625832 57987212 
1451.708 59461684 60996728 62533236 64013800 65407164 66707952 67923688 
1455.083 69062184 70110480 71024944 71738408 72213008 72486520 72644448 
1458.458 72767528 72886336 72996552 73085616 73150352 73198856 73245960 
1461.833 73304360 73376936 73451368 73500224 73480016 73338296 73023360 
1465.209 72479120 71646880 70468784 68885704 66867084 64423336 61615104 
1468.584 58527648 55257152 51874688 48383076 44735476 40859364 36734816 
1471.959 32489464 28427468 24904430 22124598 20064220 18545080 17356686 
1475.334 16351197 15451124 14638784 13923236 13310869 12789171 12329726 
1478.710 11900496 11477438 11050611 10623864 10208799 9817920 9459630 
1482.085 9135777 8845067 8587603 8365824 8183593 8041705 7935024 7850568 
1485.942 7771020 7679953 7566685 7429143 7272507 7105319 6934962 6767869 
1489.800 6612111 6477865 6375333 6308225 6272187 6255043 6242539 6221934 
1493.657 6184693 6129409 6061264 5990643 5927389 5874322 5822099 5754573 
1497.515 5657750 5530779 5386702 5245893 5125747 5034595 4970107 4922585 
1501.372 4880898 4837004 4788559 4737338 4686559 4637761 4589941 4538643 
1505.229 4478480 4408919 4339972 4292050 4279234 4293891 4315509 4329698 
1509.087 4335086 4338433 4348406 4369223 4398811 4426894 4439849 4424986 
1512.944 4378728 4306272 4221583 4140154 4076902 4040514 4030313 4036166 
1516.802 4042822 4038909 4021284 3993862 3962530 3930966 3899872 3868948 
1520.659 3840332 3820911 3819674 3840533 3879178 3924814 3967546 4000751 
1524.516 4020949 4027370 4019913 3997073 3955408 3891280 3804231 3698953 
1528.374 3587554 3485502 3406515 3360366 3348412 3364173 3394126 3421944 
1532.231 3430761 3408152 3352386 3274592 3192607 3119781 3060615 3013668 
1536.089 2976101 2947444 2929330 2924960 2936302 2962523 2996452 3028015 
1539.946 3050704 3068423 3089179 3114608 3136267 3141941 3122785 3078601 
1543.804 3019040 2960788 2920924 2907748 2918055 2940272 2962790 2978336 
1547.661 2986443 2992015 3002491 3022476 3049770 3073695 3081270 3063518 
1551.518 3019440 2954483 2878795 2803021 2735528 2680215 2635476 2596142 
1555.376 2557178 2517250 2478193 2446770 2433975 2455934 2529748 2655111 
1559.233 2797485 2913051 2985409 3020608 3029717 3020608 2999488 2972464 
1563.091 2946477 2928663 2923426 2929330 2938070 2938404 2921491 2885766 
1566.948 2837137 2788414 2755201 2750900 2780911 2836904 2899475 2949079 
1570.806 2977869 2989546 2993016 2995418 2999321 3002691 3001223 2989913 
1574.663 2967293 2937303 2910717 2899409 2908782 2934567 2967627 3001123 
1578.520 3032753 3063418 3094285 3124219 3149717 3165638 3168208 3157928 
1582.378 3140239 3123252 3114541 3117879 3131295 3148215 3160398 3162100 
1586.235 3152187 3133631 3111638 3091582 3076532 3068089 3067222 3075698 
1590.093 3096654 3132663 3183528 3243913 3303104 3348579 3368514 3357327 
1593.950 3318195 3262140 3204289 3159063 3136835 3141641 3171879 3222748 
1597.807 3288781 3364573 3443652 3519038 3581808 3623537 3638940 3627413 
1601.665 3593000 3543490 3487372 3431362 3379199 3332218 3291719 3259803 
1605.522 3239806 3235300 3247651 3274392 3308345 3339130 3357895 3360500 
1609.380 3349547 3332953 3320665 3321333 3338462 3371018 3414864 3465094 
1613.237 3518069 3572821 3629517 3689329 3752692 3817902 3881184 3937653 
1617.095 3983094 4015733 4035664 4043590 4040915 4029611 4013325 3997073 
1620.952 3987943 3993561 4020515 4071283 4142663 4226300 4313333 4398275 
1624.809 4480488 4560675 4638867 4712282 4775929 4825077 4857744 4877715 
1628.667 4891454 4906600 4927478 4954020 4983849 5013813 5042841 5071469 
1632.524 5101440 5133257 5163534 5183116 5177986 5134464 5051658 4948959 
1636.382 4857242 4796867 4770769 4769128 4781591 4802428 4833218 4880061 
1640.239 4950099 5047065 5167323 5300460 5433470 5555311 5660839 5753331 
1644.097 5842618 5943042 6067312 6222001 6398870 6574467 6717323 6808155 
1647.954 6846762 6846089 6818589 6771336 6706185 6624155 6531444 6447463 
1651.811 6412825 6494715 6746365 7125325 7486919 7722044 7825603 7845608 
1655.669 7829009 7807115 7796894 7803641 7826884 7861905 7903001 7944911 
1659.526 7982607 8010788 8022128 8006974 7957127 7870947 7758640 7643463 
1663.384 7552658 7503437 7498617 7528485 7579227 7637292 7694758 7748859 
1667.241 7801110 7854718 7911774 7969681 8022330 8063780 8094059 8119074 
1671.099 8148142 8187340 8238227 8298035 8363459 8432169 8504912 8584189 
1674.956 8672033 8766148 8858796 8941825 9011879 9072673 9133409 9205489 
1678.813 9299078 9418521 9559200 9708430 9851372 9979070 10093648 10209274 
1682.671 10347528 10529956 10756885 10992462 11183253 11306956 11384025 
1686.046 11453964 11547834 11683894 11868792 12098840 12363850 12650615 
1689.421 12949312 13253578 13560279 13865145 14160845 14438660 14693826 
1692.797 14929422 15161064 15417993 15740348 16165173 16700964 17300892 
1696.172 17877308 18352618 18705732 18965010 19182988 19412232 19697588 
1699.547 20064288 20498162 20946722 21355026 21703728 22006628 22286440 
1702.922 22560464 22841018 23139784 23471806 23855850 24306388 24824714 
1706.297 25395400 25993398 26597398 27198886 27802658 28422622 29073410 
1709.673 29763034 30487980 31235718 31993232 32752782 33521182 34316332 
1713.048 35161008 36071880 37049868 38078416 39137364 40222676 41367624 
1716.423 42637920 44108564 45792908 47602220 49381604 50999288 52415752 
1719.798 53679160 54876284 56096844 57409860 58855960 60443728 62156140 
1723.174 63964888 65842076 67774200 69760128 71801536 73896464 76039864 
1726.549 78237936 80524920 82968816 85661208 88682848 92058928 95723160 
1729.924 99530976 103305352 106944552 110492960 114188280 118442448 
1732.817 123791080 130664856 138964688 147832496 156073408 162975584 
1735.710 168587552 173359120 177752624 182097392 186573264 191236016 
1738.603 196027424 200816016 205413248 209618784 213252064 216156272 
1741.496 218204912 219326496 219525264 218902416 217621744 215849488 
1744.390 213663360 211030896 207839136 203978064 199411728 194220976 
1747.283 188561776 182617200 176492304 170168912 163520160 156421920 
1750.176 148870240 141040128 133267712 125910744 119207856 113209192 
1753.069 107812928 102836152 98077856 93358688 88535192 83520424 78321856 
1756.444 73059424 67942824 63195504 58957236 55251244 51999524 49068948 
1759.819 46309004 43587268 40825364 38023984 35273980 32714054 30464096 
1763.194 28570728 27004034 25684858 24523700 23442778 22389694 21340374 
1766.570 20299208 19291256 18348090 17494406 16735503 16056787 15431486 
1769.945 14833276 14243045 13653136 13071300 12518718 12023211 11605717 
1773.320 11269821 11003948 10790681 10610588 10446386 10283603 10111758 
1776.695 9927268 9734351 9542977 9363298 9203256 9063605 8938679 8817914 
1780.553 8691841 8556511 8413352 8265783 8115260 7957970 7787313 7598109 
1784.410 7392372 7181814 6986476 6825927 6710795 6640405 6602960 6581867 
1788.268 6560103 6526163 6474064 6402670 6311822 6200019 6063683 5901728 
1792.125 5720763 5538330 5376437 5253975 5179260 5149284 5152436 5172822 
1795.983 5193511 5199111 5179998 5131145 5051624 4943262 4810268 4660200 
1799.840 4505129 4361726 4247513 4174042 4143332 4146778 4168756 4191806 
1803.697 4203583 4198966 4180097 4153100 4124867 4098944 4073022 4041484 
1807.555 3998343 3940361 3869783 3793435 3720274 3657818 3608669 3570115 
1811.412 3535840 3499764 3457713 3408920 3354189 3293722 3226187 3149017 
1815.270 3060348 2961255 2857749 2760837 2682082 2631676 2612675 2620775 
1819.127 2644744 2671114 2688483 2690484 2677381 2654145 2627609 2603175 
1822.984 2581476 2558411 2526515 2479027 2413817 2336558 2259379 2195534 
1826.842 2154841 2141988 2155807 2190106 2234966 2278631 2310408 2323100 
1830.699 2314938 2286891 2239029 2170592 2079992 1968008 1840281 1709232 
1834.557 1590825 1502142 1455596 1455197 1496689 1568711 1658040 1750049 
1838.414 1831497 1892159 1922211 1914024 1862409 1767216 1636055 1486881 
1842.272 1350188 1260789 1251219 1334002 1492101 1679893 1845172 1951732 
1846.129 1985849 1954695 1875054 1767116 1647663 1531302 1431793 1360691 
1849.986 1328684 1342477 1402473 1499448 1615701 1727295 1808804 1843908 
1853.844 1830166 1779958 1713257 1651388 1607420 1583509 1571537 1558070 
1857.701 1532033 1488310 1430064 1364846 1302362 1249258 1208886 1182239 
1861.559 1169216 1170511 1186758 1217326 1258031 1300169 1333137 1347163 
1865.416 1337159 1305120 1259028 1208554 1160744 1116925 1070886 1013526 
1869.274 939769 854007 768627 700255 661594 660664 697866 765972 851882 
1873.613 941031 1016847 1064076 1070454 1028438 937345 805140 650610 500612 
1877.953 383762 327918 349572 451453 619086 827216 1044347 1242380 1403503 
1882.292 1521027 1597676 1641410 1662065 1667719 1662530 1647164 1618162 
1886.150 1569775 1494195 1384689 1237661 1057367 857360 662158 501275 399283 
1890.489 369833 410691 506848 636540 779448 918850 1042221 1141375 1208886 
1894.829 1238658 1227294 1175761 1092377 990245 886544 795315 724914 674038 
1899.169 632923 587333 526155 447838 364461 298739 275630 314456 419745 
1903.508 578939 765440 949532 1107358 1224702 1299969 1338621 1347196 
1907.366 1326856 1271788 1170910 1016349 809390 566198 315185 91260 -77096 
1911.705 -175674 -206740 -187564 -144407 -106479 -95879 -124864 -192035 
1915.563 -283965 -376802 -442511 -455817 -400339 -277243 -105850 85129 
1919.420 269960 434306 576351 703209 823598 941529 1050491 1133070 1166525 
1923.760 1131143 1017212 830337 587996 318601 52553 -180244 -356342 -461709 
1928.099 -491298 -448270 -342603 -193029 -24783 132688 248941 302983 288063 
1932.439 218441 125861 55370 49770 132158 296883 507910 709979 841060 855634 
1937.261 739319 515241 234221 -37804 -241877 -343331 -333763 -232273 -76035 
1941.600 86687 212640 274668 263130 184231 50466 -123969 -327009 -545342 
1945.940 -762539 -958569 -1108838 -1188976 -1181574 -1079489 -890756 -637560 
1949.797 -356806 -88525 125198 248045 258058 149824 -58974 -332472 -619164 
1954.137 -865525 -1028355 -1080679 -1019331 -862748 -645335 -404974 -170772 
1957.994 39862 223281 383065 518923 623632 677921 658507 547719 340453 49438 
1962.816 -297375 -658668 -996257 -1279307 -1493134 -1639587 -1731376 
1966.191 -1783285 -1805294 -1797639 -1754675 -1668205 -1536355 -1364533 
1969.567 -1167233 -962140 -767864 -597757 -459425 -350151 -263964 -192598 
1973.424 -134801 -96144 -90082 -129369 -220384 -352469 -501326 -631274 
1977.281 -713749 -734887 -707233 -661878 -643582 -688906 -812415 -999331 
1981.139 -1209661 -1387819 -1476029 -1435080 -1256148 -967429 -625120 
1984.514 -300951 -62883 44932 7919 -151760 -381238 -605930 -757809 -792108 
1988.854 -702601 -523864 -324857 -192863 -200712 -388422 -738625 -1182103 
1992.711 -1610472 -1915786 -2022984 -1902492 -1579077 -1116638 -600404 
1996.086 -105386 313528 630401 847002 982341 1062117 1105465 1126061 1127323 
2000.426 1109816 1072613 1016382 940433 840230 705897 522705 274436 -46219 
2004.766 -432283 -854646 -1265597 -1602648 -1808462 -1843569 -1700419 
2008.141 -1402913 -1004984 -582503 -210548 47152 153172 107566 -58610 
2011.998 -291415 -532038 -725493 -838210 -863310 -819823 -744248 -680205 
2015.856 -667667 -731943 -879083 -1092577 -1339199 -1572936 -1749725 
2019.231 -1839445 -1830371 -1733224 -1581586 -1423356 -1304514 -1254628 
2022.606 -1276797 -1345805 -1417312 -1444921 -1400403 -1280100 -1107318 
2025.981 -915488 -735118 -573039 -415269 -232041 -1656 275165 562881 804609 
2030.321 934290 905801 708386 373680 -32967 -435428 -765847 -990604 -1113234 
2034.661 -1164226 -1181541 -1194494 -1212833 -1227140 -1217459 -1166969 
2038.036 -1071689 -944286 -813076 -714444 -685532 -752848 -924746 -1186861 
2041.893 -1506705 -1834166 -2111494 -2286745 -2316672 -2182381 -1890879 
2045.268 -1475071 -982868 -467468 20576 443526 776693 1006883 1132173 
2049.126 1155362 1084903 929741 705366 432946 139350 -143115 -383059 -556560 
2053.465 -650794 -668792 -627833 -555401 -478622 -420962 -393288 -394778 
2057.323 -415335 -442048 -465350 -480542 -490471 -501128 -519131 -546632 
2061.180 -580650 -615393 -644806 -665848 -679345 -688807 -695191 -694497 
2065.038 -675243 -622010 -522573 -375445 -195711 -13452 131296 199446 167259 
2069.377 31644 -185444 -444398 -694530 -891516 -1008521 -1037875 -992158 
2073.235 -895517 -776695 -658238 -555368 -473095 -410204 -362136 -325254 
2077.092 -297938 -280720 -272740 -270985 -267044 -248997 -203428 -119001 
2080.949 7919 171237 353418 531563 679514 777788 818684 806767 757773 692191 
2085.771 630368 584314 557506 545065 538795 530767 516070 493712 462764 
2090.111 420011 358293 267772 141505 -19250 -199884 -375080 -510990 -575521 
2094.450 -550504 -435692 -251447 -30018 189999 377229 512786 591978 620579 
2098.790 610227 573431 519023 454107 385221 319695 266976 235414 230408 
2103.130 250399 287765 329709 360979 369701 349340 300629 230707 150023 
2107.469 69056 -4705 -67919 -122678 -172792 -224425 -282210 -346874 -414540 
2111.809 -477265 -524129 -543985 -528993 -476669 -390640 -279627 -155437 
2115.666 -29190 91194 201833 303050 397492 488736 577711 662290 736597 
2120.006 792427 820543 812742 763914 672744 542842 381871 203424 23260 
2124.345 -140730 -271249 -355879 -388223 -369221 -306481 -214059 -110355 
2128.203 -14015 55867 84765 62594 -13087 -138113 -300223 -481568 -661414 
2132.542 -819658 -940650 -1017744 -1053675 -1059625 -1051560 -1048419 
2135.918 -1065607 -1113366 -1195750 -1310328 -1450899 -1609515 -1780084 
2139.293 -1958306 -2143642 -2337401 -2537531 -2736910 -2918393 -3053739 
2142.668 -3110689 -3059464 -2883208 -2586775 -2199425 -1769426 -1349570 
2146.043 -986934 -709416 -518139 -391633 -295157 -198957 -84682 43838 166397 
2150.383 253549 280039 229082 98286 -107407 -379285 -708953 -1086000 
2154.240 -1492605 -1895630 -2249235 -2496748 -2591913 -2512660 -2278900 
2157.616 -1947157 -1607270 -1348381 -1222216 -1229122 -1321163 -1431150 
2160.991 -1501323 -1508752 -1469127 -1425800 -1424710 -1493827 -1629915 
2164.366 -1798596 -1945837 -2018334 -1983571 -1835980 -1599479 -1314457 
2167.741 -1026306 -769882 -564402 -415269 -318235 -263964 -244725 -257971 
2171.599 -304064 -385906 -505265 -659760 -839434 -1028058 -1200442 -1330478 
2175.456 -1395349 -1382898 -1296651 -1158509 -1005282 -876338 -807189 
2178.832 -815623 -896906 -1026967 -1171066 -1297477 -1384615 -1432075 
2182.207 -1452319 -1462787 -1471208 -1467014 -1421771 -1299459 -1068086 
2185.582 -720134 -275223 215855 690133 1087328 1363084 1501610 1515541 
2189.439 1436779 1300667 1138651 967796 793622 618688 449497 301458 196429 
2193.779 150719 165569 218441 266877 256732 141008 -100682 -452242 -860003 
2198.119 -1252514 -1551972 -1701409 -1678932 -1497756 -1200178 -842609 
2201.494 -481468 -157457 104550 293169 404954 438385 394308 278614 107400 
2205.833 -91506 -282574 -426292 -493714 -473028 -376670 -235552 -95316 -2485 
2210.173 10470 -69675 -231975 -443934 -656650 -819658 -892409 -851802 
2214.031 -699492 -461212 -182861 84765 291743 403826 408469 316479 156387 
2218.370 -37539 -228829 -390739 -509071 -580650 -610793 -609966 -589319 
2222.228 -556957 -518238 -473260 -419671 -352634 -268402 -167360 -57583 
2226.085 46356 125032 159702 141140 73663 -21735 -115324 -174846 -178125 
2230.425 -120723 -17593 103390 212838 288361 324238 329643 322049 317075 
2234.764 319794 322414 307957 258124 163182 29291 -122744 -262408 -360448 
2239.104 -395473 -362831 -273170 -149806 -19614 91525 165436 194374 180717 
2243.443 134743 70945 5400 -48704 -84119 -98198 -93759 -75804 -48240 -10934 
2248.265 40922 116050 220761 356237 513881 675830 817357 916028 956837 
2252.605 938308 872798 782966 696605 634682 607539 610725 628078 636673 
2256.944 616233 556378 459978 342243 225966 133915 80887 68659 85925 114029 
2261.766 131429 123143 85494 26441 -38367 -93030 -127017 -140134 -141558 
2266.106 -146758 -169149 -216410 -286415 -369287 -449263 -510494 -540576 
2269.963 -531376 -479714 -385906 -252639 -85676 106108 309250 508175 686383 
2274.303 829971 931069 987256 1002300 981777 932929 861875 774303 676394 
2278.642 575853 481704 404257 351429 328681 336739 372851 430757 502536 
2282.982 579403 650709 704537 729428 715190 658507 564540 448667 331864 
2287.322 237834 184330 178695 215590 279907 353120 418452 467441 500413 
2291.661 523933 546525 574592 610758 653795 701516 752296 806037 862407 
2296.001 918252 966999 998581 1003363 976696 922403 852447 784991 739186 
2300.340 726740 750305 802551 870308 938806 997418 1040992 1069026 1082445 
2304.680 1080784 1061685 1022426 962748 888536 812112 750404 720367 732880 
2309.020 790369 885182 1002931 1125296 1235634 1320441 1370363 1380634 
2312.877 1349889 1280295 1177787 1053813 922868 800360 700654 631264 592774 
2317.217 578706 578673 582555 583949 581659 579270 582190 593371 613711 
2321.556 640588 671914 708751 755715 820543 910317 1027176 1165926 1313595 
2325.896 1452437 1560863 1619526 1614837 1541876 1406462 1224370 1021397 
2329.753 826751 668098 565900 526852 541084 584745 629704 647889 624495 
2334.093 560193 473412 393081 350235 367711 451354 586404 740912 878243 
2338.432 965438 985031 940168 852314 753890 677755 649382 678518 760827 
2342.772 878509 1009806 1132671 1229055 1287939 1305120 1282721 1228490 
2346.629 1153767 1071118 992570 930372 894180 891889 927317 998780 1094901 
2350.969 1193602 1265807 1280196 1215897 1071218 869545 652236 464655 345327 
2355.309 311273 354546 444787 545364 622404 657047 648121 606079 546492 
2359.648 479681 408370 328383 234552 123905 662 -123208 -230154 -302706 
2363.988 -324029 -283005 -177495 -14379 189269 408933 614972 779448 884917 
2368.327 923831 903444 840196 755317 667169 590253 533255 500181 494276 
2372.667 518194 573862 660001 769855 890395 1004027 1094004 1147654 1161176 
2377.007 1139648 1094968 1041856 991308 950362 919614 895143 871769 845674 
2381.346 815265 781771 747484 714493 684126 656450 630998 607639 586470 
2385.686 567559 550705 534449 516435 494774 468337 438850 410625 389333 
2390.025 380744 388438 412051 448070 490362 531994 567360 593869 611421 
2394.365 622570 631264 641750 657479 680277 709747 743102 775266 799796 
2398.705 810883 805008 782502 748081 710709 680045 664149 666936 686815 
2403.044 717048 747948 770187 776826 765241 736796 696538 651406 608502 
2407.384 574592 554819 552563 568355 600306 643641 691660 737759 775763 
2411.723 802584 817689 822900 821141 815099 806170 794485 779216 759200 
2416.063 734108 703873 669558 632923 596888 565004 542278 533653 542743 
2420.403 570445 613114 663717 712701 750604 771116 772743 757707 730590 
2424.742 696074 656218 611455 561554 507777 454969 410990 384093 379484 
2429.082 396530 427805 460774 482633 484922 466545 433874 397856 370629 
2433.421 360084 367777 389234 416794 441171 455666 457026 445284 423759 
2437.761 397425 372951 357298 357199 377196 418187 475899 540221 599178 
2442.101 639891 653165 636805 595694 540553 484822 441437 419149 421271 
2446.440 445218 483860 526620 561255 577877 568687 532326 472914 401637 
2450.780 332627 279442 252156 252488 274967 308222 340055 361344 369236 
2455.119 367147 362903 364859 378058 403295 437457 475501 512720 546392 
2459.459 575090 597884 613645 620214 616498 603060 584148 566464 556511 
2463.799 557904 568454 580067 580697 559961 512455 441669 358393 278614 
2468.138 216982 182109 174452 186021 206242 223844 233160 234652 233790 
2472.478 237470 251062 274536 303613 329908 344697 342641 323110 290318 
2476.817 252488 219137 198319 194540 208628 237337 275497 317208 357564 
2481.157 394009 426346 456429 486912 519985 556013 592144 623533 642778 
2485.497 642878 619153 571308 505588 433012 368573 327255 319662 349240 
2489.836 410957 492617 576716 646694 689901 700123 678850 633255 574095 
2494.176 511459 454439 408138 375372 356403 350235 355209 369535 391356 
2498.515 419613 453477 492485 535842 581095 624362 660034 682368 687445 
2502.855 675465 651273 623665 603458 599012 614607 648419 694348 744729 
2507.195 792891 835847 873761 907494 936747 957501 963844 948934 909586 
2511.534 849060 777290 709216 659204 637967 647723 683065 730988 777257 
2515.874 809124 818319 802750 766137 716119 662423 615768 585674 578541 
2520.213 596723 637303 692390 750006 797340 824461 826121 803481 763947 
2524.553 718442 677323 648950 637370 641716 658574 682268 707590 730158 
2528.893 747218 757806 762818 763648 762520 761159 759665 756777 749940 
2533.232 736265 713962 683496 646893 608336 572369 542610 521776 511426 
2537.572 512421 525558 550340 584115 621542 654426 672843 669160 640854 
2541.911 592774 535842 484590 452349 445350 461736 491423 520947 537601 
2546.251 534184 511559 477193 441636 415500 406645 418353 450856 501342 
2550.591 565469 637502 709714 773971 822369 849592 855335 845209 828743 
2554.930 817855 822303 846637 889200 942791 997319 1042620 1071484 1080286 
2559.270 1069358 1042321 1004592 963678 927749 904008 898297 912541 944584 
2563.609 988186 1035944 1080452 1117291 1146026 1168451 1187223 1202939 
2567.467 1213139 1213737 1200181 1170079 1124665 1068826 1008843 950428 
2571.324 898098 855003 824162 810319 819249 856331 923598 1016481 1123337 
2575.664 1226696 1309408 1357866 1366840 1340183 1289002 1226928 1165661 
2579.521 1113371 1073144 1045210 1028836 1023423 1028072 1041623 1060190 
2583.379 1078758 1092244 1097824 1097625 1097957 1106993 1132638 1178219 
2587.236 1240851 1312033 1381299 1437876 1474812 1490039 1485784 1466933 
2591.094 1438973 1406761 1374452 1344238 1318414 1297842 1283220 1274380 
2594.951 1270957 1272752 1279996 1293622 1314692 1343407 1378606 1417133 
2598.808 1455263 1489142 1516572 1536289 1548825 1553747 1550189 1536423 
2602.666 1511019 1474812 1432823 1393299 1365909 1359627 1377576 1416966 
2606.523 1467863 1516805 1551120 1560996 1543871 1502906 1446952 1386085 
2610.381 1331343 1291129 1270957 1273450 1297709 1339419 1391470 1445423 
2614.238 1492466 1526248 1544403 1549091 1546398 1543505 1547229 1561495 
2618.095 1586868 1620557 1658173 1695127 1726796 1750049 1762658 1763456 
2621.953 1752977 1733881 1710861 1689606 1675835 1673174 1681689 1698653 
2625.810 1719278 1739204 1756037 1770343 1785281 1804013 1828169 1856719 
2629.668 1885936 1911595 1930265 1940949 1945342 1946740 1948105 1951533 
2633.525 1957490 1966044 1977528 1993072 2014210 2041407 2073000 2104030 
2637.383 2128136 2139491 2135262 2118081 2094807 2075298 2069238 2082156 
2641.240 2114518 2161668 2216215 2269438 2315072 2349150 2370405 2378867 
2645.097 2375502 2361809 2339856 2312940 2285992 2263676 2250653 2248654 
2648.955 2257380 2273901 2294252 2315405 2336158 2357412 2381099 2408919 
2652.812 2440539 2473162 2502054 2522150 2530048 2524616 2508452 2486191 
2656.670 2463831 2446470 2437674 2439073 2450002 2468996 2494222 2523916 
2660.527 2557044 2592642 2629476 2665846 2699952 2729560 2753201 2770474 
2664.385 2782612 2792282 2802987 2818361 2840639 2870190 2905213 2942173 
2668.242 2976268 3003358 3020574 3027214 3025146 3018139 3011633 3010932 
2672.099 3020308 3041895 3074997 3115409 3156392 3190203 3209163 3208462 
2675.957 3187500 3149918 3102861 3055109 3014469 2986243 2971564 2968294 
2679.814 2972731 2981005 2990614 3000556 3011366 3023110 3035489 3046667 
2683.672 3054308 3056410 3052673 3043964 3033187 3023511 3016704 3013501 
2687.529 3012600 3011666 3007762 2998654 2982973 2960021 2930297 2894705 
2691.386 2855448 2815260 2777843 2746932 2725492 2714356 2712322 2716056 
2695.244 2721124 2723925 2722658 2717857 2711788 2707321 2706154 2707721 
2699.101 2709821 2708621 2701786 2688550 2671014 2652845 2638743 2632343 
2702.959 2635209 2646711 2664346 2684916 2705254 2723025 2736495 2744498 
2706.816 2746165 2741263 2730227 2714989 2698585 2685049 2678315 2681349 
2710.674 2695218 2719024 2749866 2784146 2817727 2847110 2869890 2884699 
2714.531 2891437 2891370 2887101 2882564 2882464 2891337 2911884 2944041 
2718.388 2984041 3025613 3060481 3081737 3085341 3072060 3047234 3018806 
2722.246 2995618 2983974 2986343 3000622 3022243 3044898 3063551 3076064 
2726.103 3082204 3084407 3084941 3085675 3087177 3088879 3090113 3090714 
2729.961 3091415 3093818 3099424 3109335 3123252 3140005 3157961 3175284 
2733.818 3190738 3203722 3213702 3220145 3222548 3220212 3213135 3202420 
2737.676 3189603 3176819 3165871 3156927 3148783 3138770 3124253 3103228 
2741.533 3076131 3045332 3015336 2990980 2976168 2973098 2981672 2999688 
2745.390 3023978 3051505 3079535 3106532 3131528 3154190 3174082 3190604 
2749.248 3202654 3209096 3208562 3200184 3183862 3160798 3133197 3104563 
2753.105 3078801 3059881 3050404 3051205 3061349 3077800 3096320 3112973 
2756.963 3124453 3129392 3127757 3121950 3115242 3111404 3114241 3126355 
2760.820 3148349 3179322 3216239 3255129 3292320 3324872 3352419 3376595 
2764.677 3400538 3427388 3459316 3496291 3536107 3575159 3609938 3638104 
2768.535 3659188 3674125 3684985 3693707 3701326 3708310 3714894 3721544 
2772.392 3729765 3741329 3758039 3780800 3808911 3840499 3873327 3905389 
2776.250 3935981 3966409 3998276 4033424 4072688 4115334 4158854 4200706 
2780.107 4238078 4269363 4294594 4315174 4333580 4353259 4377992 4410827 
2783.965 4454443 4509514 4574605 4645933 4718111 4784806 4840254 4880999 
2787.822 4906634 4920005 4925802 4929991 4938469 4955461 4983882 5025177 
2791.679 5079113 5144556 5219097 5299119 5380160 5458131 5529504 5592465 
2795.537 5648251 5699982 5752760 5810817 5877915 5955068 6040903 6131896 
2799.394 6223816 6312561 6395037 6470062 6538507 6603061 6667590 6737076 
2803.252 6816099 6908197 7014660 7134184 7263141 7396315 7528182 7654491 
2807.109 7773111 7884139 7989761 8093350 8197774 8306039 8419940 8540764 
2810.967 8669565 8806789 8952615 9106304 9265872 9428206 9589889 9747838 
2814.824 9900386 10048037 10192923 10339146 10491869 10655715 10835249 
2818.199 11033515 11251968 11490604 11747584 12020009 12303922 12596173 
2821.574 12894151 13197183 13506646 13825294 14156874 14505118 14872946 
2824.950 15262190 15673734 16108124 16564839 17043674 17543774 18063722 
2828.325 18601758 19156010 19726054 20313096 20920298 21553106 22217804 
2831.700 22920160 23664100 24451450 25282616 26157004 27075792 28042226 
2835.075 29063312 30149276 31312418 32567494 33929772 35414556 37038500 
2838.451 38817720 40768840 42908380 45251020 47809684 50593984 53610364 
2841.826 56861560 60347240 64064452 68006256 72162688 76519344 81053904 
2845.201 85738704 90536872 95400400 100276904 105102488 109807120 114320048 
2848.576 118565848 122473376 125979024 129024504 131563512 133558336 
2851.469 134979584 135807360 136030960 135651920 134685632 133164424 
2854.363 131135240 128654776 125789792 122607384 119172496 115550736 
2857.256 111800984 107979272 104139016 100324360 96574120 92919104 89380592 
2860.631 85976120 82718968 79620416 76692312 73945920 71391000 69035808 
2864.006 66884280 64937556 63193128 61645732 60287472 59108236 58095640 
2867.381 57234008 56504752 55886404 55352856 54876132 54426856 53973844 
2870.757 53490268 52953408 52348088 51669824 50923840 50125016 49293368 
2874.132 48452676 47625292 46829520 46080412 45389160 44764752 44215780 
2877.507 43749760 43373940 43093784 42911492 42825620 42830484 42918624 
2880.882 43080612 43308000 43594484 43936548 44333736 44787708 45301880 
2884.258 45879256 46521420 47227484 47993636 48813196 49677840 50579392 
2887.633 51510720 52466932 53445564 54446236 55468984 56514336 57582792 
2891.008 58674896 59792184 60936828 62111716 63318424 64556756 65823144 
2894.383 67111104 68413216 69723432 71038952 72361680 73696880 75051760 
2897.759 76432064 77840304 79275832 80736112 82218664 83723320 85253096 
2901.134 86813200 88409504 90046232 91725904 93449200 95217144 97032544 
2904.509 98901000 100830096 102828176 104901840 107055280 109289888 
2907.402 111604848 113999376 116473640 119028440 121665576 124386280 
2910.295 127190696 130077584 133045272 136091120 139211456 142401824 
2913.188 145653744 148954736 152287984 155630432 158955984 162234640 
2916.081 165431328 168510080 171429824 174147152 176621408 178814016 
2918.974 180692688 182233312 183416880 184229456 184659472 184698992 
2921.867 184345840 183606752 182500320 181053888 179302976 177284592 
2924.760 175030864 172570048 169925216 167116688 164166320 161097360 
2927.654 157933440 154698048 151410080 148084752 144734272 141369344 
2930.547 138001248 134641856 131302792 127994072 124723024 121494344 
2933.440 118311728 115178688 112099968 109081168 106127024 103241384 
2936.333 100426432 97683432 95015360 92427904 89928800 87528168 85233944 
2939.708 83049848 80974560 79001952 77124472 75335264 73631168 72013224 
2943.083 70485312 69050568 67711616 66469020 65321816 64271092 63320496 
2946.458 62476184 61745296 61132300 60635740 60246436 59948948 59723248 
2949.834 59547904 59405112 59278960 59156568 59027152 58878192 58697384 
2953.209 58472372 58192840 57852352 57449112 56984556 56461504 55882748 
2956.584 55248948 54558928 53810668 53002408 52134636 51210360 50234588 
2959.959 49213984 48156308 47068520 45957776 44829588 43688236 42536868 
2963.335 41377536 40212316 39044264 37878336 36721116 35581284 34466928 
2966.710 33384334 32337126 31325202 30345368 29393762 28466844 27563188 
2970.085 26684204 25833368 25014696 24232284 23487614 22780150 22107374 
2973.460 21465472 20850104 20258276 19688054 19139564 18614486 18115364 
2976.836 17644800 17204564 16794220 16411308 16051251 15707675 15374875 
2980.211 15047920 14724023 14402969 14086362 13777168 13478551 13193562 
2983.586 12924666 12673983 12443016 12233063 12044059 11874751 11722665 
2986.961 11584448 11456685 11337530 11226772 11126513 11039803 10969898 
2990.337 10918690 10886752 10872721 10875133 10892732 10925587 10974417 
2993.712 11041129 11126887 11232043 11355522 11495640 11651049 11820202 
2997.087 12002875 12198268 12405033 12620835 12841214 13060476 13272503 
3000.462 13470417 13648383 13801794 13927341 14023835 14091496 14132570 
3003.838 14149891 14145475 14119837 14071098 13995158 13887416 13744268 
3007.213 13565851 13356004 13121704 12871624 12612784 12348645 12078364 
3010.588 11798037 11503057 11190223 10860151 10517192 10168704 9821885 
3013.963 9482827 9154964 8839522 8535661 8241874 7956858 7679480 7408583 
3017.821 7143750 6884733 6632868 6391036 6163217 5953422 5764747 5598003 
3021.678 5450917 5319042 5197501 5082197 4970811 4862704 4757470 4653837 
3025.536 4549491 4440853 4325046 4201609 4073423 3945945 3825691 3717333 
3029.393 3622467 3538746 3460986 3384776 3307077 3229058 3154590 3089179 
3033.250 3036790 2998387 2971797 2952415 2935668 2917588 2896240 2871457 
3037.108 2843774 2813559 2781078 2746565 2711188 2677148 2647544 2625109 
3040.965 2611675 2606675 2607809 2611142 2612842 2609742 2599675 2581542 
3044.823 2554245 2516684 2467597 2406387 2333926 2253117 2168827 2087316 
3048.680 2014409 1954928 1912027 1886835 1879048 1887567 1910064 1943145 
3052.538 1982254 2021433 2054090 2075031 2080291 2069571 2045435 2012978 
3056.395 1978160 1946274 1920880 1903208 1892958 1888399 1887500 1887933 
3060.252 1887900 1885670 1880379 1872159 1861311 1849565 1838517 1828868 
3064.110 1820550 1811898 1800719 1785381 1765552 1743795 1724633 1713356 
3067.967 1714654 1730422 1758932 1794298 1828768 1854024 1863175 1853158 
3071.825 1824542 1781389 1729257 1674072 1620091 1569542 1522457 1478270 
3075.682 1436281 1396789 1361754 1333038 1312432 1300169 1294220 1290897 
3079.540 1286178 1276341 1260523 1240452 1219452 1201742 1190280 1185961 
3083.397 1187422 1191575 1195762 1197822 1198187 1198021 1199184 1202905 
3087.254 1208753 1215399 1220416 1221978 1219120 1211777 1200181 1184598 
3091.112 1164398 1138983 1108122 1073144 1037206 1005057 981777 971216 
3094.969 974603 990345 1013924 1039464 1061884 1077496 1085368 1086431 
3098.827 1083043 1077462 1071417 1065372 1058197 1048333 1033519 1012330 
3102.684 984566 952122 918551 888967 868914 862075 869677 889797 917190 
3107.024 944850 966235 976829 975600 964010 946012 924760 902182 877911 
3111.363 850322 818054 781174 742538 707391 682102 671815 679514 704636 
3115.703 743302 789838 837839 882094 918717 945414 961586 966866 961785 
3120.042 947440 925690 898795 869810 841923 817423 797838 783829 774436 
3124.382 769058 767067 767963 772179 780079 791365 805572 821606 837607 
3128.722 852081 863834 872001 876417 876982 873695 867021 857294 845176 
3133.061 832063 819282 808294 800427 796078 794784 795879 798004 799730 
3137.401 800360 798833 794817 787215 775697 759134 738157 713962 689635 
3141.740 668430 653762 647291 648785 655156 662456 667069 667135 663983 
3146.080 662158 666870 682699 711539 751035 795414 837142 869379 887772 
3150.420 891690 883257 867154 847633 828179 810717 796145 785356 779249 
3154.759 779282 785755 797738 812211 823930 827913 820510 800759 771747 
3159.099 739750 711971 695178 693120 705964 730855 762652 795281 824461 
3163.438 847135 861643 868349 867984 861942 852048 840429 829772 822436 
3167.778 820543 824494 833225 843583 851716 853044 844711 825257 796277 
3172.118 761026 723985 689569 661826 642447 631662 628178 629472 633189 
3176.457 636905 639360 640489 641119 643210 648884 660664 680177 708088 
3180.797 743534 783663 824859 862008 890329 905635 905801 891358 865727 
3185.136 835017 806734 787846 783298 794452 818419 848430 876185 893682 
3189.476 895641 881597 855401 824328 796045 776826 768959 771216 779879 
3193.816 791066 802750 815564 832063 855866 888038 926886 966966 1000972 
3198.155 1022592 1027641 1015884 990843 958000 923001 889665 860913 837507 
3202.495 820145 809622 806203 809755 818718 829507 838271 841889 839732 
3206.834 834586 831731 837043 854339 883389 919116 952985 975799 980083 
3211.174 963080 926288 875853 819016 763947 717181 682932 663817 660631 
3215.514 671682 693917 721562 748313 767498 774436 767963 751533 731220 
3219.853 715223 710311 719670 742306 774369 810485 846205 879339 910018 
3224.193 939404 968560 997119 1022592 1041823 1051853 1051056 1039697 
3228.050 1019902 994595 966169 936747 907428 879538 854638 835217 823730 
3232.390 821905 830337 846869 868250 890661 910084 924329 932730 936548 
3236.729 937843 939238 943256 951358 964973 984068 1007481 1032755 1056304 
3241.069 1074108 1082079 1077794 1061054 1034217 1001603 968095 938441 
3244.927 914932 898563 887872 881231 877214 875056 874890 877214 881829 
3249.266 887141 891225 892387 890096 886079 884286 889233 905469 934722 
3253.606 975699 1023821 1072812 1115596 1146658 1163136 1164631 1153003 
3257.463 1131077 1102608 1071218 1040394 1014090 995891 989514 997983 
3261.321 1022626 1062648 1115364 1175462 1235933 1288770 1325958 1340316 
3265.178 1328584 1291229 1234172 1168186 1107059 1064442 1049960 1067431 
3269.035 1112706 1175727 1242080 1299205 1338256 1356470 1356968 1346465 
3272.893 1331841 1317351 1304323 1291395 1276806 1260556 1244407 1232278 
3276.750 1228091 1233242 1245935 1261321 1273118 1276108 1267468 1248294 
3280.608 1222709 1195695 1171940 1154066 1142571 1136392 1134000 1134465 
3284.465 1137987 1145196 1156990 1173668 1194865 1219319 1245104 1270525 
3288.323 1293821 1313429 1328551 1338821 1344970 1348825 1353445 1362452 
3292.180 1379471 1407492 1447185 1497454 1554345 1612542 1665856 1708367 
3296.037 1735644 1746656 1743130 1729923 1714121 1703177 1701681 1711460 
3299.895 1729523 1749317 1762292 1761560 1743229 1709098 1665258 1621555 
3303.752 1588630 1574165 1582412 1612775 1660535 1718113 1776631 1827936 
3307.610 1864872 1883540 1882375 1863973 1833726 1799455 1769511 1750482 
3311.467 1745358 1753409 1769179 1785015 1793599 1790405 1774568 1750016 
3315.324 1723003 1700982 1689506 1691202 1705206 1727694 1753010 1775433 
3319.182 1790838 1797259 1795296 1788109 1780391 1776731 1781156 1795030 
3323.039 1817122 1844074 1871294 1895421 1915156 1932029 1950201 1974199 
3326.897 2006687 2047233 2091345 2132132 2161734 2174821 2169493 2148614 
3330.754 2118813 2087483 2061714 2045568 2039875 2042139 2048797 2056088 
3334.612 2062347 2067807 2075164 2087782 2108625 2138492 2175487 2214750 
3338.469 2249287 2272369 2279230 2268871 2245190 2215483 2189706 2176653 
3342.326 2181981 2206224 2244990 2289956 2331594 2362776 2379234 2381332 
3346.184 2372903 2360110 2348717 2343154 2345452 2355413 2371105 2389961 
3350.041 2409186 2427045 2442505 2455034 2465197 2472962 2478593 2481392 
3353.899 2480259 2473595 2460766 2442205 2420181 2399390 2385230 2383298 
3357.756 2397924 2430243 2478193 2537147 2600675 2661779 2715456 2757869 
3361.614 2787047 2802821 2805522 2795851 2775175 2745498 2710355 2675281 
3365.471 2646744 2630676 2631776 2650711 2685383 2729593 2775842 2817861 
3369.328 2851279 2875660 2893538 2909215 2926294 2946543 2968528 2988412 
3373.186 3002191 3006695 3001857 2990847 2978803 2970830 2970796 2979003 
3377.043 2993483 3009831 3024045 3033487 3037558 3037358 3034555 3030785 
3380.901 3026380 3020875 3014068 3006261 2998921 2994517 2994917 3001290 
3384.758 3012166 3024578 3034355 3038092 3033687 3021842 3005494 2988712 
3388.615 2976101 2970596 2973332 2983174 2996919 3009998 3018206 3018840 
3392.473 3011466 2998888 2986810 2982073 2990814 3016204 3057545 3110270 
3396.330 3165905 3216139 3254528 3278899 3291719 3299398 3309814 3328979 
3400.188 3359131 3398234 3440379 3477519 3502136 3509484 3498228 3471006 
3404.045 3432865 3390620 3350916 3318796 3297461 3288180 3290150 3302002 
3407.903 3322001 3348579 3380268 3415299 3451067 3484066 3510119 3525017 
3411.760 3526386 3514862 3494587 3471774 3453805 3446424 3452002 3468367 
3415.617 3490111 3510553 3523514 3526119 3518904 3505509 3491614 3482896 
3419.475 3484333 3498194 3524883 3561930 3605161 3648429 3685052 3709614 
3423.332 3718871 3713524 3698753 3683247 3676097 3684484 3710917 3751723 
3427.190 3798348 3839931 3867644 3876604 3867678 3845881 3819206 3793869 
3431.047 3774383 3762050 3756903 3758273 3766930 3783608 3809145 3842672 
3434.905 3880716 3917090 3945477 3959989 3957213 3936650 3900474 3851999 
3438.762 3795273 3734177 3673089 3616988 3571518 3542521 3534270 3548233 
3442.619 3582041 3630119 3684183 3736616 3781369 3813791 3832577 3837290 
3446.477 3829100 3810114 3783641 3753761 3724452 3699221 3679070 3663165 
3450.334 3648062 3629818 3605228 3573790 3537878 3503405 3477051 3464293 
3454.192 3467633 3485368 3512925 3543791 3572453 3595238 3611141 3621532 
3458.049 3628816 3635164 3641479 3647928 3653542 3657919 3660792 3663198 
3461.906 3666506 3672287 3681042 3691802 3701460 3705704 3698619 3675127 
3465.764 3632926 3572353 3498495 3419373 3345006 3284274 3242344 3219878 
3469.621 3213769 3217441 3223616 3226387 3221714 3207861 3185030 3154223 
3473.479 3116811 3074663 3030417 2986910 2948211 2917421 2896407 2884866 
3477.336 2880063 2878161 2875093 2867255 2852779 2830734 2801286 2764471 
3481.194 2720824 2670780 2616275 2560911 2508786 2464364 2431210 2410019 
3485.051 2399790 2397558 2399290 2401822 2402755 2400823 2394959 2384198 
3488.908 2366440 2339756 2302647 2255615 2201962 2146849 2096372 2056754 
3492.766 2031187 2020534 2022332 2031886 2043304 2051327 2052060 2043637 
3496.623 2026992 2004523 1980057 1957457 1939817 1927802 1920547 1914723 
3500.481 1905937 1890662 1867168 1836255 1802449 1771940 1749384 1737907 
3504.338 1736044 1739703 1743329 1742331 1734414 1720542 1703543 1687776 
3508.196 1677032 1673008 1674571 1678064 1679061 1673507 1660734 1642508 
3512.053 1623916 1611544 1611012 1625778 1655479 1695327 1737408 1772605 
3515.910 1792767 1792667 1771241 1731519 1679627 1622087 1565618 1514477 
3519.768 1471188 1436214 1409387 1389775 1375947 1366075 1357600 1347828 
3523.625 1334832 1318248 1299238 1281326 1267867 1261586 1263879 1273450 
3527.483 1287906 1303459 1317018 1326324 1331077 1331177 1327221 1319710 
3531.340 1308876 1295217 1279498 1262284 1243742 1223439 1199982 1171807 
3535.198 1138153 1100083 1060522 1024419 995924 978157 971382 974338 984134 
3539.537 998979 1017511 1039797 1065106 1091148 1113105 1124167 1115995 
3543.395 1083109 1024253 945514 858356 777390 716152 682334 676228 690930 
3547.734 717048 744596 765540 776095 774369 760694 737128 707424 676427 
3552.074 650643 635578 634250 646063 666372 688739 706362 713331 708121 
3556.413 691859 668927 644736 625158 614275 613246 620978 634317 648785 
3560.753 659403 662788 657213 643442 624030 603823 587300 577612 574360 
3565.093 573298 565701 540984 492253 420641 337568 259218 200076 167359 
3569.432 160332 172795 196661 224010 248211 265650 274801 276094 271717 
3573.772 263992 255969 250134 248742 252587 261042 271353 279409 281100 
3578.111 273276 255439 230243 202927 178794 162121 154432 154166 157481 
3582.451 160895 161856 160066 156686 153603 151846 150454 145979 133849 
3586.791 109820 73895 30650 -11894 -45821 -66660 -74445 -71961 -64043 -56324 
3591.612 -54303 -61757 -80541 -108931 -141790 -170904 -187465 -185312 
3595.470 -163320 -125791 -80442 -37340 -3710 15573 19615 11166 -5433 -24949 
3600.292 -42773 -56026 -63016 -63480 -57516 -46186 -31277 -15440 -2650 3214 
3605.113 -1093 -16765 -41879 -71331 -98396 -115589 -118603 -107473 -86239 
3609.453 -60167 -34226 -10702 9608 26971 41949 54276 63853 71376 78369 86455 
3614.757 96629 107400 114228 111178 91161 49041 -15075 -93891 -173289 
3619.096 -237572 -275488 -285488 -273799 -250752 -224160 -197367 -169016 
3622.954 -135894 -95249 -47776 1689 44236 68460 64483 24884 -52713 -163916 
3627.776 -292574 -412422 -493780 -519595 -496263 -444696 -385178 -329492 
3631.633 -281382 -241281 -207965 -180708 -159676 -145400 -137484 -134569 
3635.490 -134105 -133079 -129567 -122644 -113204 -103730 -97833 -98562 
3639.348 -107937 -126288 -152091 -182927 -215980 -249195 -282077 -315785 
3643.205 -352999 -396896 -450587 -516021 -593224 -679246 -768294 -850347 
3647.063 -912612 -941840 -928515 -869295 -769220 -642126 -505827 -379616 
3650.920 -278899 -210449 -174548 -167095 -182563 -215019 -259362 -309957 
3654.778 -359885 -401266 -426325 -429701 -411694 -376670 -331843 -284130 
3658.635 -239691 -204256 -182397 -178588 -194718 -230054 -280554 -339855 
3662.492 -401001 -457571 -506191 -545639 -577175 -602356 -622837 -638652 
3666.350 -648842 -651588 -645534 -630116 -606757 -578168 -549015 -523136 
3670.207 -504007 -492324 -487823 -489941 -498182 -511354 -526809 -537796 
3674.065 -533296 -499407 -427583 -325784 -219027 -133907 -82992 -66528 
3677.922 -77659 -107871 -149441 -196341 -244029 -290223 -334260 -375842 
3681.780 -414276 -448105 -475875 -496991 -512612 -526147 -541801 -563211 
3685.637 -591139 -623135 -652879 -671008 -669189 -644045 -600205 -550669 
3689.494 -509964 -487426 -483785 -493019 -507283 -521084 -532005 -540146 
3693.352 -546632 -550934 -550305 -540742 -518172 -481071 -432382 -379583 
3697.209 -332306 -299825 -287342 -295355 -318996 -350184 -379053 -395837 
3701.067 -394480 -373988 -339557 -298302 -258302 -225352 -202236 -190081 
3704.924 -189220 -198858 -217503 -243069 -271978 -300421 -325155 -343563 
3708.781 -355316 -361673 -365778 -370545 -378027 -387561 -397625 -405901 
3712.639 -412157 -417553 -424570 -435130 -450389 -469785 -491662 -513108 
3716.496 -531211 -541933 -542661 -531111 -506390 -469686 -423180 -371108 
3720.354 -319261 -275554 -248235 -244924 -268932 -318069 -383920 -453633 
3724.211 -513373 -550239 -555104 -525982 -468130 -392990 -314493 -244924 
3728.069 -189584 -148878 -118736 -94322 -70834 -46020 -20807 960 13717 12491 
3732.890 -4307 -35087 -74280 -115125 -151561 -179714 -198659 -211376 -221279 
3737.230 -230982 -241281 -250619 -257077 -258368 -252507 -238598 -216708 
3741.087 -187465 -152389 -113403 -73982 -39659 -20145 -24551 -56622 -108931 
3745.427 -167692 -222338 -268104 -305289 -336743 -366076 -396400 -430826 
3749.284 -469950 -511255 -548750 -574296 -580484 -564468 -528530 -479350 
3753.142 -425365 -372896 -326082 -286150 -252209 -222040 -193492 -164744 
3756.999 -135828 -108301 -85576 -71994 -71166 -84119 -109262 -142287 -177992 
3761.339 -212105 -242440 -268137 -289362 -306282 -317771 -322274 -318334 
3765.196 -306017 -287607 -267176 -249460 -237141 -230982 -228862 -227538 
3769.054 -222040 -209157 -188524 -163320 -138312 -118371 -106280 -102438 
3772.911 -106413 -116781 -132052 -151263 -173720 -198129 -223232 -246414 
3776.769 -264825 -275389 -275852 -265554 -246712 -223332 -200249 -181006 
3780.626 -166301 -154675 -143844 -131323 -117344 -103597 -93692 -92102 
3784.483 -102338 -125228 -158020 -196473 -235022 -268700 -294991 -312176 
3788.341 -320718 -321811 -316877 -307507 -294958 -279826 -263037 -245188 
3792.198 -227372 -210515 -195744 -184053 -176502 -174382 -179151 -191472 
3796.056 -211343 -236380 -262772 -286316 -302872 -310222 -307474 -294627 
3799.913 -273998 -249527 -226246 -208793 -198394 -192068 -185875 -177164 
3803.771 -166201 -155635 -149011 -150534 -162525 -183656 -207767 -226279 
3807.628 -232273 -224425 -206740 -185411 -166897 -155967 -154940 -164545 
3811.485 -184053 -212734 -250089 -297276 -355316 -424438 -500962 -575223 
3815.343 -631506 -654632 -637660 -587367 -519231 -449727 -390143 -347503 
3819.200 -324757 -321215 -332472 -348960 -360117 -357865 -340947 -313632 
3823.058 -281349 -248268 -217139 -189121 -164810 -143744 -125228 -107109 
3826.915 -87696 -65501 -40156 -13154 12856 34029 45992 44799 28197 -3412 
3831.737 -45987 -92666 -136391 -170871 -192201 -198361 -189650 -167758 
3835.594 -136192 -99589 -64242 -36644 -22431 -23922 -39924 -64142 -89253 
3839.934 -108699 -118802 -120160 -116881 -115390 -122280 -142618 -176502 
3843.791 -219987 -264064 -298302 -315288 -310951 -287044 -248897 -205183 
3847.649 -164446 -133973 -118371 -117709 -129104 -146891 -165174 -178986 
3851.506 -185212 -183291 -175773 -167228 -160736 -157722 -156629 -155900 
3855.364 -155867 -157623 -162723 -171865 -183855 -196341 -204985 -205581 
3859.221 -194254 -169215 -131588 -86703 -43171 -11431 -1126 -17129 -57152 
3863.561 -111647 -166367 -206044 -220947 -210913 -184020 -151495 -123771 
3867.418 -108301 -108566 -124433 -151197 -181172 -204289 -213761 -208131 
3871.275 -190213 -163419 -130462 -94024 -57682 -27036 -9111 -8548 -25843 
3875.615 -56522 -93792 -131157 -163220 -187829 -205448 -218165 -229558 
3879.472 -242572 -257474 -271448 -280356 -280554 -272011 -257375 -240221 
3883.330 -224226 -212006 -203991 -199156 -195446 -190677 -184384 -177529 
3887.187 -171335 -167095 -164810 -163982 -163816 -163154 -160869 -155702 
3891.045 -146792 -133774 -116881 -98496 -81535 -69973 -67290 -75638 -94488 
3895.384 -120922 -148680 -170341 -178257 -166632 -134006 -85146 -29819 18886 
3899.724 48809 53680 34593 -828 -41978 -77758 -99788 -103697 -90181 -64142 
3904.546 -33199 -5500 13220 20609 16335 2551 -18521 -44331 -72690 -101974 
3909.367 -130760 -157821 -181437 -200580 -213397 -219656 -220086 -216675 
3913.225 -212469 -209985 -211012 -215119 -220285 -222703 -218695 -205945 
3917.082 -185246 -159213 -132217 -107738 -87398 -70768 -56788 -43834 -31741 
3921.422 -21370 -14181 -12160 -15274 -22431 -29289 -30714 -21072 2418 39862 
3926.244 87482 139152 188010 226132 246288 243305 214430 161326 90167 11464 
3931.065 -61956 -117808 -147255 -147785 -123307 -83125 -37207 5566 39663 
3935.405 64119 80390 92089 102727 114658 127982 140875 150355 153106 146908 
3940.227 131396 108096 80788 53581 30484 13552 2716 -4671 -11861 -21238 
3945.049 -33662 -47511 -60100 -67521 -66461 -54866 -33530 -5135 26342 55933 
3949.870 79827 95204 100175 93580 74988 44965 5135 -41216 -88988 -133178 
3954.692 -168321 -190412 -197831 -191240 -173388 -147322 -116682 -83920 
3958.550 -50692 -17958 13651 42811 68062 87648 100109 104881 102131 93514 
3963.371 81185 68095 57292 51460 52852 63257 82180 108461 138389 167988 
3968.193 193081 210551 219104 219900 215590 209192 203324 198849 194639 
3972.533 188441 177601 159967 135141 104219 70150 36283 5533 -19349 -37009 
3977.354 -47047 -49631 -45391 -35253 -20277 -1656 19383 41286 62859 82710 
3982.176 99711 113532 123706 130435 133981 134710 133451 130501 126855 
3986.516 123143 120293 118404 117310 116150 112537 104451 89769 67598 39199 
3991.338 8382 -20178 -40885 -49532 -44927 -28792 -5732 18058 36979 47748 
3996.159 50068 46489 40889 37111 37708 43705 54542 69653 88211 109919 
##END=
