##TITLE=ad17_0 Oct 05 11:29:07 2026 (GMT+02:00)
##JCAMP-DX=5.01  $$ Nicolet v. 970
##DATATYPE=INFRARED SPECTRUM
##ORIGIN=Vojna akademija
##OWNER=Nicolet
##LONGDATE=2026/10/05
##TIME=11:29:39
##SPECTROMETER/DATA SYSTEM=Nicolet iS20
##DATA PROCESSING=
Ratio against background
%Transmittance->Absorbance
Truncated
ElementMultiply or ElementDivide
##COMMENTS=
Number of sample scans: 8
Collection length: 11,90 sec
Sample gain: 8,0
Background collected on: Mon Oct 05 11:27:43 2026 (GMT+02:00);
Number of background scans: 8
Background gain: 8,0
Sample spacing:  1,000
Number of scan points: 12415
Resolution points: 8286
Number of FFT points: 65536
Apodization: N-B strong;
Phase correction: Mertz;
Laser frequency: 15798,00 cm-1
Number of rejected sample scans: 0
Number of rejected background scans: 0
Bench serial number: BER2010005;
##RESOLUTION= 4,000
##XUNITS=1/CM
##YUNITS=ABSORBANCE
##FIRSTX=400.156891
##LASTX=4000.123047
##FIRSTY=0.032344
##MAXX=4000.123047
##MINX=400.156891
##MAXY=0.264434
##MINY=-0.002353
##XFACTOR=1.000000
##YFACTOR=1.000000E-009
##NPOINTS=7468
##DELTAX=0.482117
##ZPD=6100
##XYDATA=(X++(Y..Y))
400.157 32343552 30069336 27120548 23975584 21224844 19374432 18653362 
403.532 18969854 19912986 20895752 21286224 20670864 18984048 16526287 
406.907 13811988 11402427 9735605 9012453 9215406 10138891 11500709 13005983 
410.763 14437255 15670884 16642468 17331374 17747094 17934420 17974720 
414.138 17979762 18066486 18324070 18823466 19619238 20771372 22344482 
417.513 24373148 26770994 29215216 31191568 32225986 32153084 31160988 
420.888 29615690 27877658 26186286 24668902 23334764 22114904 20921654 
424.263 19728204 18612446 17759072 17371308 17596080 18452418 19814204 
427.638 21432472 23012280 24326750 25260806 25847540 26216904 26529802 
431.012 26895624 27335742 27793332 28179842 28420926 28484676 28380032 
434.387 28135580 27778496 27329990 26820792 26303178 25847118 25524030 
437.762 25362802 25330416 25321812 25194122 24797280 24027338 22872274 
441.137 21434072 19918328 18570426 17632172 17251106 17449874 18140238 
444.512 19175474 20397406 21664090 22872310 23947328 24849976 25579096 
447.886 26168442 26668490 27116348 27511752 27805060 27909952 27725976 
451.261 27192608 26324264 25230466 24076754 23032370 22202252 21592560 
454.636 21128648 20697242 20203498 19609048 18965390 18410792 18135642 
458.011 18287504 18904960 19894012 21086352 22289962 23334450 24094546 
461.386 24470448 24412822 23937036 23134472 22151690 21152026 20278168 
464.761 19609428 19167232 18926382 18843638 18881218 19025828 19286856 
468.135 19679074 20198430 20805992 21422690 21953686 22308240 22427792 
471.510 22308064 22000666 21597154 21186050 20831506 20555270 20350144 
474.885 20201484 20104786 20066372 20096390 20192042 20323616 20429564 
478.260 20434844 20263830 19866646 19233378 18397866 17436114 16449125 
481.635 15555821 14857790 14419238 14255336 14331766 14571929 14874832 
485.009 15144801 15303719 15307220 15147786 14844796 14434721 13959880 
488.384 13468708 13007383 12615309 12321715 12136319 12051077 12043854 
491.759 12089880 12170393 12281188 12431253 12634479 12896574 13203502 
495.134 13518234 13786199 13946912 13948349 13767182 13412318 12925860 
498.509 12364054 11794190 11282437 10889403 10672185 10671267 10895756 
501.884 11311139 11843185 12396203 12881760 13253476 13510612 13691843 
505.258 13846365 14010318 14181967 14319917 14355362 14230753 13930352 
508.633 13494855 13004959 12551220 12200177 11967486 11819930 11694617 
512.008 11538034 11331783 11109754 10940878 10906356 11058088 11394774 
515.383 11852005 12319807 12670435 12797737 12656755 12274336 11741013 
518.758 11177507 10714906 10455923 10451511 10696397 11127329 11637334 
522.132 12087393 12347146 12311898 11933802 11240748 10343354 9415203 
525.507 8639820 8174814 8090076 8352717 8844627 9418285 9943371 10337348 
529.364 10583834 10718642 10813678 10943052 11166696 11507514 11949945 
532.739 12447380 12942621 13387270 13753057 14040535 14273826 14485557 
536.114 14696979 14904424 15074094 15155986 15098828 14876718 14503165 
539.489 14035163 13555255 13150254 12893877 12824696 12945932 13227788 
542.863 13621235 14062678 14484460 14823779 15022811 15042466 14874557 
546.238 14550617 14138081 13720671 13377463 13149195 13031760 12980275 
549.613 12936443 12854115 12726353 12589113 12507567 12543444 12723862 
552.988 13027322 13388227 13720294 13945065 14026128 13975004 13843936 
556.363 13696117 13587663 13548247 13580962 13672249 13806412 13975073 
559.738 14175497 14403585 14644713 14868179 15036532 15115364 15088330 
563.112 14966289 14785107 14595435 14445169 14372144 14392385 14500630 
566.487 14672610 14873323 15062259 15199768 15259411 15233501 15141918 
569.862 15027580 14951713 14973011 15127474 15418714 15814565 16259449 
573.237 16692184 17073208 17394104 17679380 17968468 18296696 18673388 
576.612 19076582 19460084 19776578 19997704 20121896 20171770 20182150 
579.986 20186350 20203670 20237376 20281258 20329622 20385112 20458842 
583.361 20565692 20714792 20903158 21115362 21328610 21524346 21694010 
586.736 21840256 21970902 22089420 22187604 22245842 22236916 22138684 
590.111 21945320 21673146 21358784 21048198 20784684 20591610 20468324 
593.486 20393654 20339380 20281432 20208112 20120128 20025704 19932482 
596.861 19842088 19751992 19661150 19577468 19523156 19528078 19619134 
600.235 19803038 20056794 20326672 20543666 20651406 20620760 20466206 
603.610 20237654 20006378 19831164 19736700 19702650 19675884 19592478 
606.985 19406134 19110548 18741570 18363472 18038266 17808470 17679656 
610.360 17627340 17610226 17593906 17562854 17523282 17492302 17484196 
613.735 17496960 17509930 17490164 17407520 17250244 17031096 16784816 
617.109 16554546 16379066 16275752 16238673 16242009 16253773 16247271 
620.484 16211603 16154924 16103860 16095091 16163042 16331416 16600432 
623.859 16943856 17307204 17622234 17819238 17844752 17680070 17346512 
627.234 16902550 16423592 15990367 15666727 15486284 15454454 15549091 
630.609 15731141 15952967 16173461 16362036 16502814 16595475 16653933 
633.984 16701240 16761951 16856218 16992022 17162338 17344444 17509448 
637.358 17629792 17685936 17673306 17600528 17485232 17346478 17203084 
640.733 17070140 16961976 16894764 16887012 16957050 17117840 17370996 
644.108 17703296 18087556 18489792 18875578 19216892 19497062 19707436 
647.483 19845070 19909310 19901260 19825614 19691660 19515184 19313944 
650.858 19104938 18901014 18710748 18540482 18398970 18300118 18263278 
654.232 18309968 18456048 18708152 19058302 19486386 19961310 20449674 
657.607 20917864 21333134 21669246 21906044 22037304 22076066 22059264 
660.982 22041624 22080216 22223104 22487422 22853834 23269984 23674388 
664.357 24014874 24265498 24432136 24547224 24661608 24830924 25099186 
667.732 25463980 25858618 26186812 26402848 26531704 26634704 26767118 
671.107 26969408 27267150 27670954 28177366 28767312 29409362 30060068 
674.481 30674590 31214924 31654384 31987488 32231230 32425802 32618426 
677.856 32855090 33167124 33566428 34051456 34614308 35248320 35949992 
681.231 36714444 37527240 38354448 39146868 39846728 40404204 40800536 
684.606 41054524 41222304 41372724 41573880 41869836 42271676 42761632 
687.981 43302656 43850804 44363644 44810780 45174320 45450300 45649708 
691.355 45799316 45938296 46106864 46338792 46648420 47026796 47446152 
694.730 47871240 48273788 48639868 48971760 49280044 49574132 49854152 
698.105 50112412 50340164 50537740 50719276 50908300 51127488 51388668 
701.480 51689044 52015844 52360200 52728920 53151012 53669560 54320316 
704.855 55114972 56026612 56996568 57946204 58809856 59557668 60203120 
708.229 60796204 61401248 62075056 62845668 63710808 64644456 65613872 
711.604 66588624 67552800 68503944 69451888 70413992 71413536 72479392 
714.979 73637640 74906256 76284680 77751360 79262912 80766208 82217344 
718.354 83589392 84878472 86093344 87235304 88279032 89168448 89822760 
721.729 90169984 90166880 89814200 89149360 88228408 87102952 85803776 
725.104 84345696 82736048 80988864 79134000 77211424 75264144 73332104 
728.478 71447320 69641360 67951000 66414000 65062820 63906112 62917592 
731.853 62028768 61144656 60170120 59029768 57696720 56193412 54582636 
735.228 52938212 51329820 49807740 48397892 47111692 45950964 44912144 
738.603 43986340 43157164 42401164 41688536 40991924 40290976 39574284 
741.978 38839204 38085616 37312248 36517724 35704436 34884664 34081668 
745.352 33325836 32641462 32035820 31493004 30979580 30457450 29899670 
748.727 29305348 28699734 28125114 27620634 27210000 26892414 26648304 
752.102 26448730 26269806 26098980 25932580 25769198 25599550 25403938 
755.477 25159468 24848536 24471990 24052484 23632296 23257922 22965570 
758.852 22771874 22670590 22637078 22637112 22640010 22622208 22571562 
762.227 22486516 22374412 22250236 22132964 22043786 21997426 21996414 
765.601 22024998 22053024 22042008 21957100 21781376 21520620 21201080 
768.976 20857128 20520288 20207766 19920790 19650160 19384374 19118268 
772.351 18852912 18591488 18334542 18075294 17802636 17508172 17193776 
775.726 16874852 16578332 16332172 16153343 16043585 15988579 15966717 
779.101 15956542 15945747 15930073 15907802 15873915 15814805 15712623 
782.475 15554345 15341234 15094711 14849802 14646598 14511114 14446744 
785.850 14433077 14436708 14425233 14381425 14309781 14234211 14184398 
789.225 14181967 14234074 14330705 14451403 14571073 14669525 14731906 
792.600 14746782 14704143 14594133 14411326 14159305 13855361 13529993 
795.975 13217540 12951702 12754093 12632467 12582529 12592899 12651433 
799.350 12746347 12866606 12998097 13121191 13213646 13255593 13238138 
802.724 13170063 13079837 13007485 12994205 13071505 13248625 13510168 
806.099 13815442 14112170 14343067 14460652 14440509 14285160 14026744 
809.474 13719200 13432105 13227856 13146907 13199676 13363966 13594911 
812.849 13839865 14058400 14231301 14364198 14478705 14601535 14749764 
816.224 14923318 15105552 15272109 15400141 15477459 15506440 15502389 
819.598 15488653 15487657 15519146 15595146 15718533 15882952 16073361 
822.973 16269939 16450021 16596096 16699897 16764844 16803346 16833656 
826.348 16871408 16925216 16996570 17083512 17185466 17306790 17455292 
829.723 17636346 17845960 18068350 18277862 18447022 18560226 18619052 
833.098 18644300 18664742 18706216 18778036 18870214 18958674 19019458 
836.473 19041996 19035868 19026936 19047604 19124258 19266768 19469926 
839.847 19718878 19998224 20296326 20605092 20915152 21208524 21460842 
843.222 21648626 21759636 21803638 21813428 21834368 21902106 22028170 
846.597 22189034 22337122 22414254 22380482 22230812 21998262 21740094 
849.972 21517068 21375562 21332856 21380502 21493394 21645110 21813358 
853.347 21982892 22140986 22270536 22350272 22359656 22285812 22132512 
856.721 21919740 21680218 21446848 21247460 21101204 21018602 21007300 
860.096 21073760 21220738 21442774 21719994 22019212 22296344 22513666 
863.471 22649296 22705920 22706828 22686682 22675338 22685880 22713670 
866.846 22743068 22759094 22756512 22742962 22732488 22736644 22755812 
870.221 22777776 22784794 22766078 22725298 22682668 22665702 22696772 
873.596 22779276 22892776 22995160 23038936 22986882 22823032 22558370 
876.970 22226070 21873080 21543112 21273418 21086492 20988138 20970506 
880.345 21015054 21096962 21188624 21267188 21318554 21341940 21348518 
883.720 21357810 21390214 21456630 21555614 21670918 21779006 21854298 
887.095 21880050 21852554 21782176 21688682 21595796 21525564 21491514 
890.470 21497048 21533574 21583782 21622506 21623378 21566304 21440618 
893.844 21252888 21025590 20796746 20608426 20500072 20499654 20615410 
897.219 20834566 21122842 21434004 21712750 21908832 21987632 21934550 
900.594 21761378 21504606 21220702 20967482 20794346 20727580 20763934 
903.969 20874510 21014150 21140930 21224878 21260822 21266318 21275366 
907.344 21323078 21434004 21613870 21846214 22097404 22324320 22490074 
910.719 22570340 22562872 22486446 22379192 22285148 22240750 22264640 
914.093 22347830 22456646 22540954 22555752 22473082 22295264 22052466 
917.468 21793812 21567626 21402152 21300318 21240850 21192000 21125206 
920.843 21029834 20914874 20802272 20711906 20650398 20604708 20546862 
924.218 20443388 20270912 20027404 19735312 19435170 19174814 18999762 
927.593 18938186 18998896 19168582 19418988 19711284 20005406 20270148 
930.967 20486246 20651336 20778706 20893838 21023296 21186050 21386872 
934.342 21613766 21841476 22040264 22187884 22276430 22315982 22330284 
937.717 22351144 22407800 22519178 22690384 22912476 23165436 23422250 
941.092 23657102 23849130 23988364 24077944 24134090 24182080 24247312 
944.467 24349560 24494916 24675742 24873798 25069840 25251184 25416058 
947.841 25573332 25736676 25916084 26112984 26318526 26519482 26704464 
951.216 26869538 27019688 27164600 27312418 27464664 27615796 27757622 
954.591 27886668 28008720 28139362 28296212 28491892 28724690 28978154 
957.966 29224396 29436344 29597636 29707398 29778896 29832660 29886998 
961.341 29950396 30021260 30091388 30152970 30201734 30239212 30268874 
964.716 30292536 30308452 30311614 30297828 30267950 30229620 30195306 
968.090 30176234 30178612 30198930 30226458 30244966 30240454 30204400 
971.465 30135852 30039936 29926116 29805936 29690792 29592102 29519324 
974.840 29478152 29468366 29481662 29504252 29518260 29509322 29470386 
978.215 29405534 29327396 29253670 29201538 29181160 29195300 29239458 
981.590 29304782 29380360 29455456 29520814 29568056 29592458 29593344 
984.964 29577170 29555394 29543476 29555180 29596644 29665000 29748590 
988.339 29832766 29904996 29960016 30000986 30036634 30075550 30123244 
991.714 30180566 30246530 30322236 30413026 30526868 30670040 30841216 
995.089 31028512 31210510 31363666 31471842 31532228 31557668 31571742 
998.464 31600322 31661406 31760316 31889736 32035750 32181774 32314926 
1001.839 32427446 32515068 32576424 32612640 32630104 32641358 32665360 
1005.213 32724164 32833040 32995920 33199348 33418220 33620484 33780688 
1008.588 33889396 33954816 33998852 34047120 34120444 34227340 34364064 
1011.963 34519052 34679872 34837020 34987400 35132484 35277144 35428504 
1015.338 35595024 35787004 36013596 36279492 36580152 36901148 37219676 
1018.713 37511712 37763236 37975056 38165056 38358432 38578868 38836380 
1022.087 39122140 39412584 39681948 39911272 40096848 40248120 40380748 
1025.463 40506108 40625828 40732916 40819360 40884372 40938256 40998516 
1028.838 41080564 41188460 41310008 41421420 41495892 41517256 41486232 
1032.213 41418724 41336208 41256260 41183688 41111708 41028484 40926096 
1035.588 40805708 40676952 40550156 40429296 40307592 40171568 40006992 
1038.964 39808452 39582124 39343036 39107416 38883088 38667996 38454352 
1042.339 38236292 38019900 37823128 37672488 37591800 37590936 37661248 
1045.714 37778524 37915104 38047456 38165524 38272192 38376636 38485888 
1049.089 38601356 38719792 38840252 38970608 39130804 39346412 39642016 
1052.464 40030756 40509820 41062280 41665520 42299000 42947704 43601188 
1055.840 44246596 44862140 45418072 45881760 46229356 46457732 46586668 
1059.215 46654876 46703504 46769516 46874068 47024064 47218248 47453652 
1062.590 47728164 48038268 48374000 48714032 49027436 49284352 49463284 
1065.965 49562400 49598164 49600392 49598576 49612356 49651688 49718968 
1069.341 49818884 49964548 50175372 50471260 50862776 51344924 51898920 
1072.716 52503648 53147680 53836772 54592668 55440148 56392156 57437880 
1076.091 58542132 59656224 60743196 61789112 62812932 63855024 64960876 
1079.466 66157520 67442832 68783056 70127096 71423264 72629560 73724328 
1082.842 74703704 75577984 76368968 77113232 77860008 78662664 79571856 
1086.217 80615232 81786408 83041304 84313672 85535392 86657960 87671024 
1089.592 88596944 89476304 90341248 91202360 92043560 92835312 93549176 
1092.967 94174200 94717816 95196272 95618920 95979984 96257176 96425904 
1096.343 96471456 96399304 96231672 95997424 95716224 95390912 95007160 
1099.718 94545800 93993304 93349488 92627584 91848128 91032064 90197384 
1103.093 89362440 88550792 87790208 87112744 86544184 86096296 85766152 
1106.468 85540792 85408840 85370648 85441512 85646480 86007992 86530552 
1109.844 87195808 87966304 88802512 89674752 90576712 91520008 92523016 
1113.219 93589992 94700016 95802720 96837128 97743096 98480176 99034080 
1116.594 99408248 99613496 99657336 99544400 99282712 98890552 98400288 
1119.969 97845768 97248312 96602512 95876592 95022048 93999032 92800800 
1123.345 91465080 90070528 88709184 87473816 86429752 85610520 85027480 
1126.720 84678824 84563920 84686872 85055448 85674168 86539856 87642320 
1130.095 88969664 90516624 92288472 94298264 96556368 99060176 101785704 
1133.470 104692312 107730968 110855448 114035952 117253464 120491576 
1136.363 123725168 126910312 129992160 132920832 135663920 138218112 
1139.256 140601040 142834352 144923888 146851216 148579328 150074752 
1142.150 151325376 152352560 153201072 153925376 154565824 155141152 
1145.043 155655760 156114976 156539872 156973312 157464048 158051104 
1147.936 158745328 159526352 160352208 161182320 161997952 162804992 
1150.829 163625616 164476480 165351616 166219424 167033888 167756928 
1153.722 168380576 168931056 169457936 170006512 170600608 171230480 
1156.615 171862048 172451152 172965472 173390736 173725152 173967520 
1159.508 174108272 174127760 174010176 173754960 173384704 172934976 
1162.401 172440624 171912848 171332368 170655584 169838528 168859328 
1165.294 167730160 166490912 165190192 163862080 162510816 161116000 
1168.187 159648896 158094592 156462448 154782928 153090368 151406928 
1171.080 149731296 148043648 146321456 144557904 142770416 140996448 
1173.973 139274432 137628544 136056112 134531456 133016184 131479320 
1176.866 129907608 128306072 126690240 125075224 123469232 121873416 
1179.759 120286720 118713584 117165456 115657280 114200864 112798936 
1182.652 111446064 110134056 108860112 107630088 106455952 105347776 
1185.546 104304344 103307872 102325896 101322616 100272560 99168704 98023992 
1188.921 96862752 95712248 94590664 93505496 92457216 91444712 90469528 
1192.296 89534248 88638152 87771064 86912392 86038488 85129208 84181160 
1195.671 83209336 82245576 81323976 80469800 79691272 78978336 78309992 
1199.047 77664424 77028440 76400688 75788328 75200312 74642672 74116560 
1202.422 73619624 73150424 72710688 72305080 71938808 71613432 71326064 
1205.797 71069120 70834528 70614632 70403976 70197360 69987872 69767048 
1209.172 69528344 69271800 69008576 68760888 68556128 68415616 68345424 
1212.547 68331264 68344216 68349448 68321488 68254680 68164576 68080160 
1215.923 68031560 68040632 68114032 68244984 68420896 68630592 68866520 
1219.298 69124064 69397112 69673872 69938088 70176448 70383600 70568720 
1222.673 70752232 70959672 71209088 71504120 71832296 72173216 72505464 
1226.048 72817720 73110240 73391256 73669320 73946696 74218320 74477088 
1229.424 74720352 74954536 75192984 75448624 75725056 76011128 76282816 
1232.799 76512864 76684240 76796816 76867600 76921904 76981200 77052616 
1236.174 77127088 77185016 77208296 77186488 77119720 77012968 76867560 
1239.549 76674800 76418672 76082424 75660680 75165872 74627600 74079936 
1242.925 73549048 73042456 72545720 72029144 71460088 70818536 70100080 
1246.300 69317432 68492312 67648888 66806868 65981372 65184420 64426488 
1249.675 63716756 63061664 62462296 61913700 61408160 60938924 60503828 
1253.050 60107104 59755908 59456664 59209308 59006200 58832168 58671404 
1256.426 58510284 58338952 58151396 57941396 57699896 57418936 57094736 
1259.801 56735280 56362128 56008364 55705444 55472300 55307356 55189876 
1263.176 55087100 54966860 54810528 54613972 54385772 54137568 53877508 
1266.551 53606204 53320160 53018840 52708608 52403864 52123204 51879988 
1269.927 51677888 51508372 51355740 51203756 51043188 50874624 50706128 
1273.302 50547788 50405836 50281124 50171320 50074336 49992576 49931164 
1276.677 49895368 49882992 49881880 49867868 49811380 49686684 49476096 
1280.052 49175576 48792436 48340296 47832988 47283008 46701660 46101336 
1283.428 45497464 44907552 44346620 43825404 43347208 42910172 42511180 
1286.803 42150772 41834956 41573588 41374584 41238880 41156620 41109520 
1290.178 41074628 41031328 40967456 40879712 40772220 40651696 40525132 
1293.553 40396568 40269168 40146092 40031520 39929832 39843788 39772680 
1296.929 39712192 39657372 39605460 39558388 39521912 39501884 39498908 
1300.304 39504856 39503584 39473940 39399524 39273576 39102776 38904720 
1303.679 38702480 38516588 38359044 38233436 38136260 38060948 38001096 
1307.054 37952128 37910656 37872476 37833468 37789696 37739668 37685892 
1310.430 37633788 37589200 37556108 37533276 37515612 37497044 37473420 
1313.805 37445248 37417584 37396384 37384320 37379880 37377132 37370092 
1317.180 37355792 37336008 37315064 37294628 37268308 37220004 37126372 
1320.555 36966988 36731176 36424352 36065724 35684004 35308016 34957308 
1323.931 34640540 34354952 34091344 33840288 33596464 33360646 33137262 
1327.306 32931828 32748244 32588064 32450046 32331522 32229342 32140202 
1330.681 32060754 31988454 31923578 31870410 31837572 31837392 31882678 
1334.056 31981282 32134962 32336984 32576780 32842688 33128072 33434394 
1337.432 33768404 34137616 34542156 34968836 35392232 35781824 36113824 
1340.807 36380396 36590244 36762116 36915544 37065888 37221520 37385116 
1344.182 37556540 37735408 37920996 38111876 38303636 38489508 38661584 
1347.557 38814928 38949876 39073048 39193316 39317644 39445748 39569204 
1350.932 39673524 39745160 39777368 39772828 39742544 39702136 39665284 
1354.308 39640164 39628912 39630872 39644992 39672912 39717456 39780124 
1357.683 39858784 39947052 40036240 40118616 40191120 40256004 40318428 
1361.058 40382928 40448208 40507492 40551868 40576896 40587228 40596068 
1364.433 40618080 40662432 40729932 40813424 40902244 40986572 41061480 
1367.809 41128280 41192432 41258700 41327172 41394992 41459804 41526992 
1371.184 41614176 41750612 41974312 42323396 42821452 43466836 44224696 
1374.559 45037020 45836580 46565020 47180016 47641004 47905536 47924924 
1377.934 47652136 47064864 46179084 45053412 43766140 42399484 41014720 
1381.310 39646556 38316016 37038824 35832736 34717376 33703264 32785404 
1384.685 31941268 31136996 30336556 29516238 28676796 27843638 27054670 
1388.060 26341938 25718746 25180674 24715654 24311856 23962664 23665290 
1391.435 23416724 23210592 23036876 22884150 22744464 22617182 22510244 
1394.811 22435224 22401450 22409578 22454028 22527658 22626640 22751692 
1398.186 22904302 23081110 23269632 23450228 23603574 23716834 23785496 
1401.561 23811256 23795120 23734014 23618442 23436132 23179136 22853344 
1404.936 22483758 22108420 21769984 21501018 21317508 21222302 21211274 
1408.312 21281072 21434492 21680878 22031934 22495518 23069442 23738460 
1411.687 24476618 25256030 26048912 26831648 27585960 28293806 28939406 
1415.062 29509428 29993388 30385592 30683302 30881806 30971074 30936098 
1418.437 30766236 30471454 30092312 29685648 29298612 28954920 28653400 
1421.813 28380458 28121934 27872360 27643302 27465370 27375442 27403214 
1425.188 27556092 27819650 28168174 28577984 29036460 29541170 30098738 
1428.563 30717724 31401776 32145414 32934398 33750676 34577244 35401076 
1431.938 36212388 37005124 37774512 38519812 39247172 39968592 40705008 
1435.314 41481784 42317992 43206424 44107752 44964176 45729548 46387712 
1438.689 46948596 47434360 47869464 48276156 48672444 49071284 49479920 
1442.064 49900348 50329824 50763256 51194776 51619108 52033624 52438592 
1445.439 52839936 53249960 53689356 54183360 54755800 55423284 56187604 
1448.815 57042436 57983996 59018232 60163272 61441172 62864928 64423488 
1452.190 66077576 67773808 69452864 71077784 72638496 74140376 75592064 
1455.565 76976496 78228576 79235512 79901064 80230880 80330168 80334072 
1458.940 80323752 80323792 80333120 80347112 80368208 80405040 80467496 
1462.316 80559936 80675824 80795296 80877400 80859592 80663456 80192728 
1465.691 79352080 78063440 76265640 73942536 71126720 67906944 64392320 
1469.066 60700096 56915876 53046992 49046352 44836532 40392024 35835976 
1472.441 31469632 27647716 24570786 22210584 20386154 18889180 17581588 
1475.817 16403221 15355824 14460549 13725082 13125767 12619573 12159830 
1479.192 11715823 11278390 10857739 10472284 10136516 9851169 9603642 
1482.567 9374335 9147215 8916796 8685688 8461427 8251060 8060100 7891832 
1486.424 7748859 7633988 7548310 7486717 7432413 7359782 7240769 7062715 
1490.282 6839727 6608006 6405427 6252589 6149741 6081189 6025716 5963164 
1494.139 5881845 5780830 5671379 5571589 5499671 5462459 5451421 5447730 
1497.997 5435416 5409515 5374592 5339067 5308711 5284159 5261755 5237642 
1501.854 5211351 5186503 5170073 5170140 5192405 5238045 5301097 5366842 
1505.712 5408811 5397001 5316962 5190762 5061446 4959851 4890515 4844476 
1509.569 4810067 4777537 4738912 4686860 4616998 4529369 4430242 4331137 
1513.426 4247647 4195252 4184781 4219943 4292519 4381607 4454845 4482430 
1517.284 4451699 4371164 4261031 4140823 4024060 3915252 3815897 3727159 
1521.141 3653374 3600016 3569112 3557053 3556485 3561061 3568411 3579035 
1524.999 3595973 3622334 3658854 3703465 3751489 3799384 3846149 3893654 
1528.856 3944273 3998811 4054861 4106336 4144971 4160627 4144135 4088575 
1532.714 3995066 3875199 3751455 3646358 3571885 3528925 3513426 3522345 
1536.571 3556017 3617423 3710315 3834148 3980219 4126673 4241223 4298609 
1540.428 4298408 4264444 4220713 4179093 4137009 4087204 4022120 3938689 
1544.286 3838560 3727693 3613246 3502369 3400137 3309814 3234632 3178221 
1548.143 3144110 3133764 3144778 3168675 3194242 3213469 3225085 3235533 
1552.001 3253159 3284641 3330449 3383373 3429959 3456778 3458682 3441548 
1555.858 3419774 3410022 3428724 3486003 3579803 3680340 3735380 3710750 
1559.715 3632992 3552910 3501067 3482629 3491815 3521643 3566006 3619494 
1563.573 3675361 3725822 3762284 3777625 3769136 3739524 3693941 3637971 
1567.430 3576228 3511522 3447192 3389251 3347244 3331517 3348279 3395963 
1571.288 3468200 3556017 3652439 3752191 3852367 3952265 4051650 4147447 
1575.145 4230549 4284421 4291314 4245271 4158553 4054092 3953937 3872425 
1579.003 3815028 3782371 3771910 3780533 3805000 3842940 3892417 3950626 
1582.860 4013091 4073290 4123462 4157750 4174309 4176885 4173205 4172603 
1586.717 4182238 4204888 4238981 4280138 4323708 4365307 4402225 4431279 
1590.575 4447882 4446242 4421237 4371901 4303897 4230382 4168154 4131992 
1594.432 4130386 4161129 4213218 4270099 4317081 4346063 4356472 4353292 
1598.290 4343821 4334484 4328627 4327790 4332141 4341980 4357208 4376653 
1602.147 4397539 4416249 4429673 4438442 4447347 4463850 4495587 4545239 
1606.005 4608861 4675272 4729700 4759380 4759581 4735663 4700961 4671387 
1609.862 4656650 4659430 4674535 4694430 4713388 4730772 4750704 4779178 
1613.719 4820420 4874934 4937565 4999066 5049211 5080890 5094970 5098658 
1617.577 5098826 5096780 5088935 5070665 5041233 5004060 4967459 4943161 
1621.434 4943195 4976174 5041333 5125680 5207595 5265881 5287983 5273225 
1625.292 5227817 5161522 5085583 5013512 4960321 4938738 4955461 5005903 
1629.149 5075660 5145026 5197468 5223256 5221847 5199815 5169066 5142243 
1633.006 5129670 5138287 5169972 5221009 5281812 5339000 5380530 5401799 
1636.864 5406026 5400692 5393982 5393244 5406697 5442026 5504571 5595250 
1640.721 5708778 5834827 5960980 6078165 6183483 6280725 6379334 6492024 
1644.579 6631355 6806944 7019610 7256706 7489851 7683696 7814975 7882553 
1648.436 7902259 7892878 7870171 7845608 7828369 7828470 7857822 7928781 
1652.294 8042819 8173497 8266053 8283513 8242584 8183019 8132544 8099056 
1656.151 8079712 8065130 8044000 8004375 7937015 7837208 7705517 7546792 
1660.008 7368275 7179591 6989776 6807751 6640943 6493571 6365044 6250471 
1663.866 6144599 6042885 5944688 5851853 5767768 5696356 5641436 5607602 
1667.723 5599916 5624083 5684606 5780427 5901493 6028203 6139323 6218505 
1671.581 6259245 6264556 6244622 6211850 6180021 6161772 6163688 6184727 
1675.438 6215446 6245160 6268354 6287348 6308594 6338886 6381553 6436297 
1679.296 6499053 6564610 6630850 6700431 6781802 6887628 7030453 7217590 
1683.153 7439626 7658807 7818754 7883869 7870947 7824118 7781578 7761170 
1687.010 7769198 7808296 7880090 7986117 8125455 8291551 8471597 8648844 
1690.868 8808581 8942028 9049159 9138112 9222751 9319728 9447643 9625899 
1694.725 9868862 10177828 10531450 10892019 11226432 11524118 11794190 
1698.100 12055608 12328193 12628578 12963240 13317429 13657649 13952421 
1701.476 14192340 14386871 14551337 14698966 14841504 14989919 15153584 
1704.851 15337116 15535835 15736226 15922030 16084397 16226083 16358698 
1708.226 16495792 16648389 16820326 17008700 17206702 17409864 17620058 
1711.601 17847238 18106072 18410482 18767484 19172770 19610952 20062728 
1714.977 20518412 20990258 21518846 22160684 22968366 23947224 25037264 
1718.352 26141452 27182448 28141024 29050098 29964098 30939940 32026224 
1721.727 33259116 34660816 36239652 37992700 39909020 41975556 44179572 
1725.102 46508512 48952476 51509600 54196764 57062084 60186792 63671024 
1728.478 67598904 71990112 76763952 81755808 86766872 91688944 96589232 
1731.853 101772752 107769952 115276192 124857144 136382752 148712816 
1734.746 160241072 169991760 178022960 184956816 191457584 198027760 
1737.639 204973632 212418368 220286304 228338672 236198256 243464400 
1740.532 249822176 255071856 259117120 261950784 263657664 264413440 
1743.425 264434256 263902480 262865968 261221104 258765184 255316400 
1746.318 250801856 245313104 239051424 232258336 225074736 217480640 
1749.211 209318048 200438080 190858752 180843648 170864480 161410672 
1752.104 152797200 145077408 138099840 131611912 125349792 119090152 
1754.997 112669088 106000296 99120408 92198248 85500296 79298024 73754528 
1758.373 68890560 64608120 60744716 57117788 53563208 49980272 46362240 
1761.748 42815932 39512912 36606000 34158260 32132998 30426708 28920318 
1765.123 27510056 26128958 24752660 23398330 22110338 20935944 19902684 
1768.498 19004228 18208648 17473918 16770422 16086083 15425375 14801872 
1771.874 14226713 13700563 13218496 12772894 12364361 11999435 11684575 
1775.249 11419537 11194812 10993686 10798528 10596395 10383634 10164023 
1778.624 9943981 9727981 9515373 9302430 9086985 8872492 8666387 8475077 
1782.482 8298508 8127851 7948421 7746126 7516956 7271766 7034696 6831952 
1786.339 6678459 6573054 6498818 6433406 6355932 6256825 6139457 6018124 
1790.196 5909890 5827976 5773947 5736744 5697934 5643551 5571824 5489269 
1794.054 5402604 5312736 5214470 5100870 4969370 4826350 4686258 4568778 
1797.911 4491134 4460972 4474596 4517282 4570385 4616061 4644225 4652832 
1801.769 4644392 4620515 4580063 4519659 4436936 4332543 4210910 4078407 
1805.626 3941799 3805802 3673824 3550004 3439745 3350850 3290851 3263075 
1809.484 3264043 3282304 3302569 3311016 3301968 3279333 3253426 3232930 
1813.341 3219143 3203822 3172480 3110437 3010031 2875793 2725359 2584976 
1817.198 2478793 2422913 2419181 2458466 2523183 2596109 2663579 2716190 
1821.056 2749099 2760336 2749733 2719257 2673214 2618309 2561644 2507919 
1824.913 2457133 2404988 2345352 2275700 2199231 2125240 2066009 2033584 
1828.771 2035348 2069172 2122076 2173889 2207890 2214983 2194469 2149613 
1832.628 2083787 1999497 1900379 1794431 1694362 1616799 1577723 1586070 
1836.485 1641111 1731420 1839882 1947006 2038211 2106327 2150479 2172956 
1840.343 2175953 2160003 2125106 2072168 2005721 1932395 1859381 1789074 
1844.200 1716982 1633162 1529872 1408058 1278302 1156325 1057201 990942 
1848.058 958265 950893 954845 957800 952354 939537 926554 921938 931335 
1852.397 955044 989116 1028405 1069391 1112208 1158717 1209916 1263248 
1856.255 1312365 1349756 1370563 1375249 1370430 1364546 1362585 1363583 
1860.112 1359395 1339220 1295283 1227992 1147721 1070985 1013459 984931 
1863.970 985263 1004592 1026246 1034117 1018042 976829 919016 860647 822071 
1868.309 818618 855401 923831 1005422 1077529 1121609 1126061 1086198 
1872.167 1004027 888602 753657 614175 484557 374178 286637 219535 167292 
1876.506 123905 85162 50234 20841 1358 -4572 5765 32108 71741 120193 172994 
1881.810 227292 283686 346256 421404 514545 626121 749973 870640 969124 
1886.150 1026810 1031228 981245 889366 780045 681737 619020 601567 621177 
1890.489 654227 674503 662755 611355 524331 413941 296684 188474 104683 
1894.829 58021 55436 97855 178198 282360 390395 482102 542146 565236 559497 
1899.651 545065 547354 586304 670454 792294 933394 1069158 1180312 1258695 
1903.990 1307048 1334367 1348958 1353212 1343042 1311900 1255970 1178850 
1907.848 1091879 1009441 941828 890262 845873 793755 718841 615038 486481 
1912.187 347483 215524 108162 38205 10934 25414 76910 159072 266612 394308 
1917.009 536207 682965 821373 935917 1011035 1033785 994064 885581 708552 
1921.349 476131 217977 -21934 -191240 -250984 -188359 -20642 214695 472184 
1925.688 711141 906863 1050027 1143202 1193104 1203636 1172538 1095599 
1929.546 972478 814800 646395 499816 403494 373813 408436 488106 583617 
1933.885 665277 716119 731718 720998 696870 673772 660930 664414 688739 
1938.225 738190 818253 932829 1082843 1263713 1464938 1671777 1866536 
1942.082 2031653 2149846 2204093 2179716 2065676 1862975 1591258 1290631 
1945.940 1021297 843251 807033 931202 1196426 1544802 1901378 2196100 
1949.797 2381332 2447237 2417382 2337557 2254516 2205159 2204626 2249653 
1953.655 2322034 2399657 2465064 2505153 2514851 2493823 2447737 2390128 
1957.512 2342887 2337824 2410618 2593375 2903445 3329680 3827128 4319692 
1961.370 4719451 4937196 4908108 4602498 4033290 3251223 2341488 1406794 
1965.227 539392 -179648 -694728 -979364 -1036586 -900874 -632962 -314858 
1969.084 -26340 167591 225668 141770 -55926 -307275 -543985 -707034 -772263 
1973.424 -757015 -713088 -704255 -780135 -960553 -1222844 -1515983 -1775960 
1977.281 -1956129 -2031493 -1999799 -1870062 -1650777 -1346664 -963032 
1980.657 -515954 -41879 401969 741244 912309 881265 663153 317971 -62486 
1984.996 -385310 -585878 -633656 -539583 -339491 -82661 190396 455301 699824 
1989.336 916725 1092377 1204268 1228125 1147721 968892 720235 449662 207435 
1993.675 29954 -62221 -69509 -5168 110814 261274 432680 616896 808626 
1998.015 1003396 1200812 1402573 1616732 1853724 2123275 2426911 2751433 
2001.872 3067155 3327009 3478721 3469770 3261238 2834536 2203194 1416135 
2005.730 556610 -259925 -918100 -1325886 -1434618 -1252778 -840988 -301713 
2009.587 256135 732282 1059891 1218422 1222642 1112042 930837 721330 514909 
2013.927 333025 193313 110416 97358 161657 298275 486414 690565 873163 
2018.266 1005621 1081847 1119118 1154531 1228091 1368668 1583975 1853125 
2022.124 2131632 2361743 2495389 2500121 2371937 2134396 1835423 1531834 
2025.981 1273051 1091413 994629 968726 982574 1002201 995094 938042 821739 
2030.321 647590 429894 190032 -39361 -220484 -315950 -296382 -153482 96497 
2034.661 409166 726142 981411 1120546 1118819 985961 765673 518758 313892 
2039.000 203391 215988 352026 583982 866059 1146159 1384623 1558535 1667220 
2043.340 1725398 1758732 1790738 1833293 1882209 1917785 1911461 1836987 
2047.197 1684849 1467631 1221446 990776 814900 709482 662324 637635 592210 
2051.537 492850 328018 114128 -110057 -293766 -395771 -393553 -291283 
2055.394 -113734 102628 326791 543340 752728 964774 1187688 1416667 1630900 
2059.734 1795861 1874988 1844673 1702246 1471188 1192639 920311 703408 
2063.591 572668 536207 577114 662490 751799 811780 823531 784626 706893 
2067.931 610758 518194 445052 401339 390627 412018 462300 536937 630003 
2072.270 732150 831133 911446 957136 957169 907328 812643 683861 535577 
2076.610 379981 224806 73530 -72226 -209422 -330651 -425001 -480244 -486731 
2080.949 -441088 -347503 -216973 -63016 100407 261241 410194 536207 626253 
2085.289 665543 640522 545496 388703 194772 -397 -152389 -222206 -186438 
2089.629 -40951 195534 490030 799763 1085866 1316320 1467531 1524751 1480032 
2093.968 1332306 1089254 770054 406247 37940 -288700 -532965 -669553 -692611 
2098.308 -618900 -481568 -322009 -174581 -61459 13353 60606 100043 150123 
2102.647 219137 303249 386282 448070 470990 448601 388803 311737 241017 
2106.987 195468 181148 188374 193114 166596 86123 -57881 -256249 -483553 
2111.327 -703627 -881662 -989579 -1011992 -947725 -807818 -610827 -378821 
2115.184 -137318 86521 266413 376897 401272 335379 191225 -5135 -217735 
2119.524 -408814 -552324 -636237 -666112 -659132 -636171 -610959 -585448 
2123.381 -549279 -487988 -390176 -256613 -101577 47980 161591 216452 202794 
2127.721 129440 19582 -92202 -171236 -189750 -130097 12292 229447 500114 
2132.060 795547 1077695 1305154 1442464 1460483 1345368 1101777 752794 
2135.918 334583 -110256 -539286 -917935 -1219276 -1423620 -1517172 -1493266 
2139.775 -1354789 -1114655 -800575 -448635 -97900 214430 462333 634449 
2143.633 735037 779415 790070 788809 791331 807265 838204 880534 924362 
2147.972 956206 960058 919215 822635 669890 473942 262003 72437 -53673 
2152.312 -86404 -8449 179026 461172 810020 1193270 1577024 1925373 2202927 
2156.651 2370505 2387762 2225107 1869996 1347030 709482 37940 -586738 
2160.509 -1101898 -1466948 -1667842 -1712894 -1625855 -1441982 -1202457 
2163.884 -949808 -716958 -523930 -372962 -249063 -123837 30451 229977 469663 
2168.224 722027 944020 1086697 1115297 1017478 809522 528146 222817 -58245 
2172.563 -278899 -415236 -457207 -407523 -281713 -108036 71177 202363 235116 
2176.903 133650 -105949 -446715 -810728 -1098494 -1222415 -1127379 -815821 
2180.760 -349423 160961 597718 868349 932364 811614 575190 313760 100308 
2185.100 -21536 -53276 -30283 -6328 -28063 -115887 -260024 -425299 -561788 
2189.439 -623003 -584058 -446615 -238201 -894 219535 388968 494077 542046 
2193.779 556345 564506 589125 637469 702014 761524 793721 779813 713730 
2198.119 604188 474174 355673 281896 284648 383397 581195 860415 1186559 
2202.458 1510354 1780324 1957191 2023131 1987580 1881943 1749384 1623051 
2206.316 1514178 1406429 1265076 1053580 751599 369568 -51752 -453070 
2210.173 -780234 -993910 -1083389 -1059195 -944286 -757743 -509335 -202004 
2214.031 158243 551269 935320 1258862 1473283 1554412 1514311 1401775 
2217.888 1282323 1213870 1228191 1319046 1447717 1558502 1603895 1557538 
2221.745 1418961 1206560 945713 658607 358791 57855 -230220 -484944 -677823 
2226.085 -785196 -797896 -728999 -612547 -494972 -419969 -411131 -468792 
2229.942 -570259 -682389 -772363 -819393 -817342 -772363 -694133 -591437 
2233.800 -468891 -328532 -173521 -10503 149791 296087 419447 517563 593504 
2238.139 654558 708652 762055 817390 874027 928347 974603 1005256 1012895 
2242.479 991872 941961 870275 790136 719903 674735 660631 670952 687744 
2246.819 687412 650444 569483 453145 322580 201269 107036 43705 -629 -48207 
2251.640 -121916 -238035 -401266 -605400 -835895 -1074036 -1301342 -1496997 
2255.498 -1638135 -1702168 -1668007 -1524039 -1275376 -946435 -576778 
2258.873 -211840 107069 357298 534582 652335 729959 785323 826087 849459 
2263.213 846073 807630 732946 629704 511758 394474 289621 201137 127054 
2267.552 60573 -6427 -80872 -167957 -269660 -384251 -505165 -620554 -712823 
2271.892 -764061 -760323 -698036 -586540 -447973 -310255 -197500 -124234 
2275.749 -89817 -81568 -80143 -68813 -38765 8449 63423 114294 150752 168850 
2280.571 168883 154995 131628 103556 74723 49935 35057 36150 56994 97623 
2285.393 152940 214496 272480 320093 354844 378489 394540 405252 409331 
2289.732 402533 379152 335711 274105 201203 127054 61699 10801 -25578 -52282 
2294.554 -76102 -101444 -128011 -150270 -160272 -149375 -114032 -56158 15639 
2298.894 89504 153006 195998 214397 210220 191457 168850 155095 159536 
2303.233 187744 239890 311041 392351 474141 547553 605814 645466 665343 
2307.573 666405 652037 627050 599012 578109 573962 595429 645267 718343 
2311.913 801157 876816 928081 945149 929675 894512 859784 845508 865727 
2316.252 923100 1009075 1106827 1198221 1269030 1312266 1329315 1326789 
2320.110 1312266 1290298 1261686 1224536 1177588 1123702 1070886 1031028 
2323.967 1017743 1040162 1101312 1195031 1307380 1417066 1499249 1532266 
2327.824 1501244 1403836 1252448 1074539 904340 776527 717580 737692 829772 
2332.164 973142 1143070 1315689 1474812 1613373 1729923 1825308 1899015 
2336.021 1947772 1966643 1951433 1901278 1819451 1712658 1588298 1452238 
2339.879 1307945 1158385 1007813 865527 745094 661859 629008 650676 718675 
2344.219 812377 904240 966667 981743 947905 878144 793522 715323 661229 
2348.558 640124 652833 692987 748679 804643 845906 863137 856364 835847 
2352.898 817224 815564 836711 873097 905436 911180 873097 787979 667700 
2357.237 536771 424455 353518 337369 376499 462266 580299 714692 850853 
2361.577 972910 1068261 1126293 1144199 1128253 1096263 1072380 1079090 
2365.434 1130911 1228590 1358198 1495425 1613972 1691934 1715485 1680226 
2369.292 1589661 1451972 1278069 1083010 884585 701516 552696 450458 397591 
2373.631 386448 400609 420143 427274 412549 375935 325531 272845 229116 
2377.971 201269 190728 195137 209954 230707 253483 275497 293534 304343 
2382.311 305139 294562 273508 245426 214927 186551 161989 140245 118337 
2386.650 93149 64251 34891 11696 2783 13320 43374 86488 132158 167690 183037 
2391.954 174054 142665 95999 42877 -8117 -51752 -86769 -114595 -138213 
2396.294 -160869 -185444 -213761 -246579 -283932 -324790 -367102 -407423 
2400.151 -442180 -467667 -481667 -483653 -474485 -456645 -433210 -407523 
2404.009 -382463 -361375 -347106 -341444 -345119 -356044 -369949 -380477 
2407.866 -381635 -369221 -342504 -304660 -262607 -224723 -197864 -186868 
2411.723 -193029 -214324 -246579 -284461 -322837 -357071 -383357 -399644 
2415.581 -405636 -403153 -395672 -387429 -381635 -379020 -377265 -371935 
2419.438 -357998 -333597 -301117 -268302 -244725 -239592 -256514 -292210 
2423.296 -335816 -373260 -392461 -387329 -360613 -322009 -285322 -261282 
2427.153 -253798 -258633 -265620 -263070 -243930 -209422 -169116 -137749 
2431.010 -128077 -146858 -190578 -246513 -296382 -324062 -321380 -290852 
2434.868 -245188 -203329 -183855 -197632 -246016 -319162 -400836 -471374 
2438.725 -515028 -522739 -492854 -430264 -344159 -244659 -140498 -39295 
2442.583 53216 131794 191225 226298 232696 207965 152509 70912 -27798 
2446.922 -132913 -231048 -309527 -359355 -375908 -360448 -320188 -267475 
2450.780 -216145 -179085 -165737 -180079 -220848 -282375 -357501 -438969 
2454.637 -521150 -600338 -673457 -737235 -787412 -818467 -825379 -805503 
2458.495 -759562 -692876 -614764 -536638 -468428 -417354 -385740 -371306 
2462.352 -368459 -371207 -375147 -378854 -384085 -394678 -413978 -442941 
2466.209 -478456 -513572 -539484 -547923 -534719 -501326 -455288 -408118 
2470.067 -371935 -355945 -363427 -391169 -429635 -467766 -494873 -504106 
2473.924 -493780 -467137 -430231 -389812 -352005 -319990 -294693 -274197 
2477.782 -255587 -235022 -209257 -176767 -138577 -99324 -66097 -47876 -53011 
2482.121 -86901 -150071 -237605 -340947 -448535 -549147 -633756 -695191 
2485.979 -729330 -733663 -707299 -652085 -573039 -479251 -381801 -293700 
2489.836 -224988 -179979 -156795 -147984 -143943 -136822 -124135 -109692 
2493.694 -101875 -108566 -134933 -179814 -236181 -292938 -339193 -367234 
2497.551 -373690 -359819 -329724 -288567 -242175 -196374 -157755 -132714 
2501.408 -127282 -144572 -182728 -234459 -288832 -334127 -360812 -365712 
2505.266 -351542 -325717 -296349 -268932 -244394 -219159 -187564 -145301 
2509.123 -92367 -32967 25016 73663 107533 125264 130832 130203 129175 131661 
2513.945 136964 141803 140676 129208 105611 72238 35156 2385 -18024 -21470 
2518.767 -7819 18190 48411 73596 87151 87316 77441 64549 56033 56331 64317 
2524.071 73795 75121 60772 27535 -20509 -73816 -119531 -146593 -149806 
2528.410 -130197 -94421 -50592 -5964 36614 77573 118934 160696 198518 223380 
2533.232 224342 191324 120193 14214 -114496 -249195 -371406 -465019 -520786 
2537.572 -536042 -514763 -465217 -398419 -324790 -253699 -193029 -148249 
2541.429 -122744 -116947 -128541 -152323 -180940 -206640 -222703 -225451 
2545.287 -215582 -197864 -180178 -170441 -175773 -199321 -240718 -295819 
2549.144 -358428 -421690 -478721 -524460 -553449 -561656 -546070 -505364 
2553.001 -441717 -360812 -272607 -188259 -118537 -71132 -48107 -46020 -57616 
2557.341 -74545 -89552 -98264 -99291 -93494 -81932 -65335 -43701 -17129 
2561.681 13286 45495 77142 106340 133053 159138 186816 216684 246189 268833 
2566.502 276260 261638 222320 162420 92453 26441 -23822 -51619 -58378 -51752 
2571.324 -43072 -42243 -53077 -72988 -93858 -105386 -98661 -69840 -20343 
2575.664 43971 115222 185656 249106 301823 341315 366119 375968 371525 
2580.003 355441 332229 308222 289290 280338 283454 298010 321088 349472 
2584.343 380678 414306 451387 493049 538928 586636 630567 664116 681472 
2588.683 679613 659470 625059 582422 537501 493745 452150 411819 372155 
2593.022 334252 301690 279741 273176 284018 309515 342807 375869 400874 
2597.362 415500 421901 427208 439944 465550 505090 553890 603325 644106 
2601.701 670520 681007 678850 669757 658872 648552 637535 621641 597121 
2606.041 561919 517895 470227 426412 394076 378688 381971 402499 435334 
2610.381 473743 510531 540354 560492 571540 577877 586338 603458 633354 
2614.720 676461 728233 780875 826353 858887 877114 884053 885647 888004 
2619.060 894877 906531 920577 933825 944949 954646 965770 981245 1001902 
2623.399 1024984 1045410 1057633 1058197 1047768 1030829 1013725 1001968 
2627.257 997750 999610 1003463 1005987 1006518 1008942 1019670 1045377 
2631.114 1089819 1150810 1220383 1287540 1341014 1372923 1381166 1369200 
2634.972 1344404 1314991 1288039 1267867 1255572 1250288 1250321 1254110 
2638.829 1260390 1268964 1279332 1291262 1304190 1317583 1331575 1346498 
2642.687 1363350 1383393 1407326 1435084 1465503 1495425 1521094 1537786 
2646.544 1541510 1529373 1501809 1461314 1413144 1363682 1319910 1287573 
2650.401 1270127 1269229 1284483 1313994 1354774 1403670 1456792 1510487 
2654.259 1561063 1605624 1641776 1668784 1686512 1696258 1699219 1697190 
2658.116 1691768 1684716 1678130 1673972 1674305 1680425 1693198 1712192 
2661.974 1736543 1765419 1798190 1834358 1873457 1913924 1952864 1985649 
2665.831 2007386 2014642 2006687 1986881 1961984 1940882 1931896 1940516 
2669.688 1967675 2010082 2061015 2112454 2157938 2192704 2214883 2224841 
2673.546 2224175 2214916 2198931 2177751 2152743 2125706 2098370 2072967 
2677.403 2051993 2038011 2033184 2039110 2056021 2082622 2115417 2149646 
2681.261 2180316 2202761 2214384 2214983 2206724 2192770 2176386 2160202 
2685.118 2145085 2131000 2117082 2102765 2087649 2071535 2053891 2033883 
2688.976 2010481 1982787 1951400 1918118 1886236 1859880 1842144 1834524 
2692.833 1836321 1844440 1854789 1862642 1864006 1855954 1837319 1808139 
2696.690 1770509 1727394 1683186 1642840 1610546 1589029 1578787 1578122 
2700.548 1583509 1591391 1599505 1607121 1615269 1625246 1638018 1652685 
2704.405 1666888 1677764 1683219 1683219 1680226 1677864 1680924 1692134 
2708.263 1712824 1741666 1776165 1813063 1849365 1882642 1910663 1930997 
2712.120 1941748 1940949 1928368 1904972 1874522 1841845 1811898 1789074 
2715.978 1775600 1771740 1776199 1787211 1802715 1821781 1844008 1869297 
2719.835 1897584 1928102 1959387 1989877 2017572 2040708 2057986 2068572 
2723.692 2072501 2070903 2065443 2058352 2052459 2049929 2052492 2061082 
2727.550 2075863 2096439 2122176 2151877 2183745 2215449 2243925 2266573 
2731.407 2281529 2288557 2289056 2286025 2282128 2278764 2275366 2269238 
2735.265 2256814 2235265 2204293 2166563 2127837 2094175 2071103 2060915 
2739.122 2062447 2070836 2079825 2083521 2078127 2062979 2040475 2015541 
2742.979 1993771 1979858 1977028 1985915 2004556 2029289 2056021 2080358 
2746.837 2100035 2113952 2122776 2128170 2131932 2135595 2139857 2145318 
2750.694 2152577 2162333 2175554 2192837 2213484 2235398 2255182 2269238 
2754.552 2274833 2271103 2259179 2241893 2222177 2202528 2184012 2167095 
2758.409 2151744 2139025 2130201 2127271 2131299 2141888 2156939 2174022 
2762.267 2191072 2208189 2227372 2251785 2283727 2322600 2364408 2402156 
2766.124 2429177 2441072 2438607 2427511 2417015 2416283 2431376 2463265 
2769.981 2507953 2557644 2604242 2642277 2669480 2687550 2700119 2711955 
2773.839 2726692 2746532 2772074 2802620 2837438 2875260 2914953 2955717 
2777.696 2996786 3038125 3080169 3124086 3171112 3222415 3278598 3339330 
2781.554 3403310 3468568 3532166 3590360 3639875 3677433 3701493 3713022 
2785.411 3716164 3718302 3727961 3753828 3801189 3870786 3958250 4055698 
2789.269 4153669 4244301 4323206 4389840 4447213 4499805 4552237 4608057 
2793.126 4669545 4738879 4817203 4906064 5005769 5115320 5231137 5347554 
2796.983 5458567 5558063 5642410 5710893 5765989 5812328 5855917 5903709 
2800.841 5961820 6035863 6129947 6245261 6379805 6528416 6683068 6834072 
2804.698 6972974 7094642 7198354 7287434 7368578 7449772 7537386 7636011 
2808.556 7747577 7871925 8007716 8153477 8307357 8467948 8633770 8804220 
2812.413 8979268 9160209 9349689 9550631 9765154 9993989 10235428 10485725 
2816.271 10740344 10994976 11247548 11498395 11750443 12007848 12276279 
2819.646 12560633 12865037 13192572 13544589 13920704 14318787 14735334 
2823.021 15165867 15606960 16056340 16514137 16982890 17466638 17969988 
2826.396 18496706 19049820 19631544 20243522 20887754 21566164 22280092 
2829.771 23029258 23811328 24622962 25460290 26322046 27209822 28129392 
2833.147 29089246 30099450 31169034 32305182 33513844 34800332 36172056 
2836.522 37639964 39218956 40926784 42784704 44813132 47033036 49465032 
2839.897 52128696 55044180 58230844 61706148 65484284 69574808 73980800 
2843.272 78697376 83712840 89007120 94549880 100304528 106223744 112249984 
2846.648 118322256 124369384 130314264 136079408 141578992 146726464 
2849.541 151437680 155626880 159216976 162139568 164336128 165764384 
2852.434 166397680 166229152 165273024 163566608 161168880 158152368 
2855.327 154605664 150620304 146285312 141689952 136913408 132027936 
2858.220 127100912 122188104 117339672 112599168 108000352 103573264 
2861.113 99342008 95325328 91540016 87999128 84712576 81687944 78929024 
2864.488 76435976 74206016 72232768 70506744 69015728 67745072 66676772 
2867.864 65788984 65056280 64447128 63926460 63456492 62996492 62510468 
2871.239 61966588 61341028 60621304 59805452 58902136 57928184 56907716 
2874.614 55868576 54838872 53848400 52923540 52087416 51359244 50751636 
2877.989 50270856 49917040 49685048 49565592 49547916 49621936 49779236 
2881.365 50014436 50324872 50710080 51170432 51707032 52319868 53008432 
2884.740 53770764 54603340 55501440 56459280 57470144 58528484 59630036 
2888.115 60772652 61956420 63182512 64451204 65760724 67106268 68480904 
2891.490 69876944 71288656 72714088 74155584 75618288 77107776 78627520 
2894.865 80177272 81752328 83345848 84951888 86567192 88193328 89836128 
2898.241 91504096 93206920 94952032 96744992 98589128 100485608 102434952 
2901.616 104437400 106493640 108604536 110771280 112996256 115282072 
2904.509 117631760 120049360 122539928 125108464 127761632 130507496 
2907.402 133355680 136316624 139400512 142615872 145967824 149458256 
2910.295 153085184 156844400 160731040 164739024 168861440 173089840 
2913.188 177410304 181805216 186252624 190725632 195196176 199632960 
2916.081 203999680 208256560 212355088 216240016 219855104 223142304 
2918.974 226050192 228537104 230569232 232122160 233178544 233727328 
2921.867 233765952 233301088 232350432 230939008 229098512 226862368 
2924.760 224261744 221328240 218094528 214595440 210871904 206966224 
2927.654 202918720 198766224 194535616 190246352 185912992 181546832 
2930.547 177159872 172764384 168371744 163991936 159632864 155301072 
2933.440 151005872 146759216 142577456 138479648 134481920 130596232 
2936.333 126827464 123174384 119633160 116200416 112876960 109667280 
2939.226 106578584 103617344 100787592 98089112 95519456 93076064 90758712 
2942.601 88571304 86521256 84616816 82865752 81272072 79835472 78552432 
2945.976 77417288 76423728 75566040 74838744 74236016 73750480 73373176 
2949.352 73092280 72893392 72761144 72677160 72622080 72576072 72517688 
2952.727 72427360 72287904 72085736 71811856 71461112 71031312 70521632 
2956.102 69931552 69259984 68505112 67664680 66736624 65718824 64611116 
2959.477 63415228 62136716 60784924 59372592 57914856 56426604 54919556 
2962.853 53401496 51875472 50342172 48801556 47256036 45711032 44175172 
2966.228 42658284 41169116 39715204 38300740 36929108 35603112 34326228 
2969.603 33102858 31936702 30829762 29781202 28787316 27842400 26940288 
2972.978 26076812 25249394 24458250 23704444 22988244 22308868 21663430 
2976.354 21047884 20457210 19888114 19338022 18806512 18294554 17804326 
2979.729 17338650 16899828 16489873 16108742 15755190 15425031 15113477 
2983.104 14814625 14524270 14240202 13963849 13698785 13450423 13223620 
2986.479 13021893 12846948 12698377 12575435 12477694 12405749 12360884 
2989.854 12344453 12356794 12397396 12464532 12557052 12674632 12818758 
2993.230 12991576 13196499 13435728 13710548 14020618 14364438 14740407 
2996.605 15146242 15578728 16034130 16506393 16988024 17470364 17944642 
2999.980 18404088 18843120 19257866 19645238 20001694 20322714 20603908 
3003.355 20841030 21031850 21176412 21276306 21333690 21348796 21319458 
3006.731 21240606 21105900 20909240 20647932 20323130 19940878 19510090 
3010.106 19041718 18546048 18030736 17501272 16960014 16408073 15845630 
3013.481 15273756 14694305 14110595 13525789 12943714 12367737 11800556 
3016.856 11244352 10701424 10174097 9664926 9176521 8710839 8269126 7851276 
3020.714 7455907 7081372 6726274 6390666 6075779 5784054 5518228 5279732 
3024.571 5067782 4879491 4710541 4555552 4409990 4271471 4138616 4011519 
3028.429 3889876 3772812 3658420 3544225 3427922 3308479 3186365 3063551 
3032.286 2942874 2827299 2719290 2620875 2533081 2457033 2393193 2341222 
3036.144 2299815 2266773 2238263 2210387 2179849 2144352 2103764 2060083 
3040.001 2016240 1975198 1939617 1910097 1885970 1864572 1842677 1817355 
3043.858 1786379 1748985 1705340 1656676 1604227 1548692 1490239 1429067 
3047.716 1365809 1302860 1244141 1194665 1159814 1142571 1143003 1157986 
3051.573 1181209 1205431 1224902 1236299 1239223 1235734 1228457 1219220 
3055.431 1208521 1195729 1180711 1164299 1150212 1142704 1146358 1163435 
3059.288 1192971 1230750 1270160 1305021 1329814 1341679 1340017 1325427 
3063.146 1299338 1263314 1219552 1170478 1120081 1072646 1031859 1000308 
3067.003 978489 965305 958199 954978 953550 952454 950030 943754 931169 
3071.343 909487 877812 838138 794717 752960 717380 689270 665642 640787 
3075.682 608701 565601 512853 456727 406579 370629 353319 353054 363599 
3080.022 375571 380910 375372 359354 336606 312699 291909 276326 265020 
3084.361 255571 245559 233160 217645 199678 180253 160796 142267 125695 
3088.701 111212 98154 84533 67664 45130 15573 -19316 -55131 -85742 -105353 
3093.523 -110786 -103995 -90810 -80276 -80243 -94587 -121187 -153217 -181072 
3097.862 -196374 -194983 -177760 -150104 -119266 -92003 -72060 -60366 -55595 
3102.202 -55595 -59339 -66064 -76035 -88790 -103697 -119001 -133410 -146692 
3106.542 -160007 -175111 -193625 -215582 -238896 -260189 -275654 -282640 
3110.399 -281183 -273733 -264991 -259295 -260487 -269561 -285422 -305554 
3114.256 -325982 -343166 -354687 -359554 -357799 -351542 -344060 -338862 
3118.114 -339954 -349258 -367069 -390805 -415997 -437083 -449628 -451415 
3121.971 -443570 -430330 -417818 -411429 -414507 -426490 -443504 -459855 
3125.829 -469255 -467667 -454592 -433640 -410965 -394480 -391070 -404212 
3129.686 -433276 -472731 -514928 -550570 -571914 -574859 -559803 -531840 
3133.543 -497851 -466111 -442015 -427748 -421624 -419572 -416460 -408284 
3137.401 -393718 -374783 -355316 -340749 -335286 -340947 -357336 -380973 
3141.258 -407721 -432846 -452805 -465945 -472631 -473856 -471506 -466740 
3145.116 -460683 -453964 -447807 -444166 -445358 -453798 -470778 -494773 
3148.973 -522011 -546533 -561358 -560961 -543157 -510229 -468064 -425265 
3152.831 -390540 -370744 -368757 -384350 -414176 -453533 -497984 -543323 
3156.688 -586639 -625120 -656683 -679014 -690858 -692611 -686458 -676169 
3160.545 -666211 -660720 -661514 -668263 -678055 -687517 -692214 -689402 
3164.403 -677691 -656849 -628164 -593091 -554475 -515292 -479615 -452044 
3168.260 -436255 -434137 -444960 -465118 -488750 -509766 -524096 -530714 
3172.118 -531840 -532369 -537366 -550206 -571351 -598385 -627999 -656286 
3175.975 -681099 -701973 -719439 -733928 -744711 -749540 -745902 -732571 
3179.833 -710541 -683877 -658040 -639016 -630017 -631043 -638619 -646725 
3183.690 -649703 -643780 -628329 -606227 -582370 -562185 -550140 -549379 
3187.547 -560895 -584720 -619098 -661778 -708093 -753145 -790521 -814432 
3191.405 -820782 -808744 -780268 -740543 -695655 -651324 -612018 -580451 
3195.262 -557122 -542661 -537267 -541503 -555997 -580650 -614003 -652978 
3199.120 -694331 -734391 -770345 -801038 -825643 -844824 -859143 -869427 
3202.977 -876438 -881199 -883679 -883878 -880307 -870552 -851603 -821609 
3206.834 -780433 -730752 -678981 -633160 -601066 -588194 -595904 -621481 
3210.692 -658668 -701245 -743222 -781326 -814796 -843700 -868535 -889400 
3214.549 -905338 -915654 -920779 -922068 -922432 -924449 -929441 -937310 
3218.407 -945609 -950932 -950833 -944319 -932648 -918696 -905437 -895186 
3222.264 -887846 -881861 -874784 -864699 -851240 -835928 -821972 -813043 
3226.122 -811489 -818169 -831232 -847701 -863277 -874751 -880373 -879943 
3229.979 -874950 -866947 -857060 -845816 -832125 -815094 -794092 -769948 
3233.836 -745240 -723309 -707299 -699029 -698268 -702238 -707365 -710309 
3237.694 -709482 -705546 -701874 -702635 -711996 -731711 -761514 -799384 
3241.551 -841451 -883944 -923457 -957412 -983430 -1000125 -1006472 -1002439 
3245.409 -989777 -971958 -953114 -936980 -926499 -921175 -918563 -914827 
3249.266 -906627 -892210 -872304 -850347 -830604 -815987 -807553 -803419 
3253.124 -800376 -794555 -783674 -769022 -754601 -746629 -751492 -773884 
3256.981 -814333 -869725 -931987 -991695 -1039627 -1068979 -1077903 -1070301 
3260.838 -1054435 -1040652 -1039263 -1056220 -1092247 -1142911 -1199748 
3264.214 -1253505 -1295924 -1322517 -1332691 -1328463 -1313036 -1289482 
3267.589 -1259915 -1225487 -1187159 -1146645 -1106161 -1068384 -1035462 
3270.964 -1008389 -987265 -971859 -962239 -959825 -965908 -982240 -1008488 
3274.822 -1042304 -1079126 -1113630 -1141424 -1159864 -1168951 -1170835 
3278.197 -1167695 -1160359 -1147471 -1125924 -1092313 -1044221 -982901 
3281.572 -912050 -839665 -774711 -726022 -700749 -702271 -729793 -777754 
3285.429 -837417 -897203 -945840 -974339 -978471 -959660 -924812 -884076 
3289.287 -847867 -823328 -812679 -813440 -819360 -823593 -821840 -812679 
3293.144 -797631 -780069 -762539 -746232 -730554 -714940 -699591 -686987 
3297.002 -681826 -688641 -710805 -748912 -799153 -854480 -907123 -949709 
3300.859 -977347 -989050 -987364 -977612 -966074 -959362 -961875 -975826 
3304.717 -999761 -1029545 -1058997 -1081373 -1091850 -1088578 -1073705 
3308.092 -1052088 -1030438 -1014538 -1007001 -1007563 -1012455 -1017314 
3311.467 -1018405 -1013843 -1005447 -996257 -990339 -990967 -999232 -1014472 
3315.324 -1033644 -1052320 -1066268 -1071590 -1065806 -1048882 -1023463 
3318.700 -994835 -969347 -953048 -950006 -959991 -978636 -999133 -1013612 
3322.557 -1016290 -1006042 -986571 -965049 -949246 -945576 -955957 -978405 
3326.415 -1007298 -1037247 -1064120 -1086067 -1104343 -1120967 -1137557 
3329.790 -1153849 -1167993 -1177047 -1178435 -1171066 -1155931 -1135112 
3333.165 -1111218 -1085736 -1059294 -1030900 -999596 -964884 -928780 -894062 
3337.022 -866054 -849884 -849355 -866584 -900312 -946799 -999959 -1053047 
3340.880 -1099221 -1133096 -1151834 -1154775 -1143572 -1121595 -1093305 
3344.255 -1063327 -1036156 -1015728 -1004620 -1003893 -1012620 -1027859 
3347.630 -1044684 -1057641 -1062368 -1056451 -1041114 -1021347 -1004554 
3351.006 -998505 -1009248 -1038404 -1082861 -1134385 -1181905 -1215212 
3354.381 -1226875 -1214584 -1182037 -1138317 -1095089 -1063227 -1050998 
3357.756 -1061575 -1092577 -1136962 -1185606 -1228659 -1257106 -1265927 
3361.131 -1252712 -1218384 -1166109 -1101402 -1030140 -959065 -895253 
3364.507 -844824 -813043 -802956 -814531 -845122 -889367 -940650 -992224 
3368.364 -1038536 -1075920 -1102856 -1118951 -1125858 -1125462 -1120604 
3371.739 -1114424 -1110425 -1111416 -1118951 -1132699 -1150446 -1168125 
3375.115 -1181806 -1188877 -1189075 -1184845 -1180087 -1179063 -1184185 
3378.490 -1194593 -1207612 -1218450 -1222943 -1219177 -1208075 -1193206 
3381.865 -1179360 -1170636 -1168819 -1173280 -1181475 -1189835 -1195419 
3385.240 -1197270 -1195882 -1193503 -1192214 -1193767 -1198327 -1204473 
3388.615 -1209760 -1211676 -1207612 -1195849 -1176056 -1149124 -1117200 
3391.991 -1083588 -1051824 -1025215 -1006670 -997777 -998868 -1009711 
3395.366 -1029082 -1055592 -1086992 -1121132 -1155303 -1186795 -1212965 
3398.741 -1231203 -1240091 -1239001 -1228825 -1212007 -1192082 -1173478 
3402.116 -1160525 -1156427 -1162573 -1178600 -1201731 -1227800 -1252877 
3405.492 -1273063 -1286840 -1294240 -1297378 -1299096 -1301871 -1307553 
3408.867 -1316373 -1327109 -1337316 -1344285 -1345904 -1339562 -1324598 
3412.242 -1300318 -1267744 -1228924 -1187489 -1147703 -1113796 -1089272 
3415.617 -1075325 -1071491 -1074432 -1080481 -1086628 -1091322 -1095883 
3418.993 -1103914 -1119777 -1147306 -1187489 -1238637 -1295991 -1352543 
3422.368 -1400799 -1434981 -1450766 -1446903 -1424974 -1388777 -1343724 
3425.743 -1295891 -1251060 -1213196 -1183920 -1162739 -1147504 -1135409 
3429.118 -1124834 -1115812 -1109698 -1109235 -1116076 -1129527 -1146480 
3432.494 -1161153 -1166572 -1157154 -1130056 -1085901 -1029611 -968752 
3435.869 -911884 -866584 -838475 -829414 -837681 -858151 -884043 -907553 
3439.726 -922729 -926201 -918233 -903254 -887019 -876603 -876901 -889201 
3443.584 -911587 -939591 -967694 -991496 -1008323 -1017017 -1017678 -1010670 
3447.441 -995827 -973115 -942270 -904875 -863310 -821476 -783310 -751889 
3451.299 -728800 -714014 -706571 -705744 -711070 -722648 -739915 -760654 
3455.156 -780334 -793299 -793663 -778680 -749110 -709515 -667138 -629487 
3459.013 -600768 -581775 -569895 -561325 -553813 -547559 -545540 -551794 
3462.871 -568704 -594415 -623135 -647023 -658602 -654202 -635046 -607286 
3466.728 -579194 -558016 -546996 -545739 -549577 -553979 -555765 -554938 
3470.586 -554243 -556560 -563641 -574330 -584786 -590477 -588293 -578367 
3474.443 -564204 -551629 -545970 -550405 -564303 -584323 -605830 -625848 
3478.301 -643416 -660455 -679742 -703362 -730984 -759000 -782550 -797168 
3482.158 -801369 -797863 -792273 -791910 -801765 -823163 -852265 -881861 
3486.015 -904147 -912546 -905205 -885498 -861623 -843171 -838574 -851901 
3489.873 -882390 -924349 -969909 -1011695 -1044288 -1065872 -1078167 
3493.248 -1084447 -1088380 -1091222 -1092809 -1090694 -1082067 -1065971 
3496.623 -1043494 -1018967 -998406 -986901 -987562 -1000158 -1021248 
3499.999 -1045577 -1068285 -1085736 -1097733 -1106558 -1116010 -1129229 
3503.374 -1147108 -1167530 -1186630 -1199748 -1204143 -1199285 -1187489 
3506.749 -1172718 -1159897 -1152825 -1154279 -1164821 -1182367 -1203118 
3510.124 -1222976 -1237844 -1244783 -1242966 -1233021 -1217459 -1199285 
3513.500 -1182301 -1168885 -1160789 -1157947 -1159236 -1163301 -1168588 
3516.875 -1174767 -1181905 -1190992 -1202127 -1215079 -1228428 -1240389 
3520.250 -1249540 -1255223 -1257800 -1258164 -1257073 -1253406 -1245179 
3523.625 -1228626 -1200640 -1159500 -1106756 -1047527 -989315 -940253 
3527.000 -907586 -894955 -900841 -919522 -943030 -963197 -975264 -978372 
3530.858 -976256 -975430 -982769 -1003893 -1040817 -1091950 -1151999 
3534.233 -1215245 -1274616 -1325259 -1364897 -1393962 -1413811 -1426857 
3537.608 -1434089 -1434915 -1428013 -1412424 -1388645 -1359017 -1327934 
3540.984 -1299756 -1277193 -1260773 -1247922 -1233781 -1213758 -1185308 
3544.359 -1149818 -1112969 -1082497 -1066368 -1068813 -1088942 -1121132 
3547.734 -1157881 -1191917 -1218879 -1237349 -1248714 -1254992 -1257370 
3551.109 -1256181 -1249772 -1236919 -1217624 -1193965 -1170372 -1151834 
3554.485 -1142514 -1143473 -1153188 -1167596 -1181640 -1191124 -1194428 
3557.860 -1191752 -1186068 -1179922 -1175296 -1171661 -1167233 -1159698 
3561.235 -1148529 -1134947 -1123281 -1117728 -1121959 -1136731 -1159071 
3564.610 -1182995 -1200838 -1205762 -1194560 -1169810 -1139441 -1113366 
3567.986 -1097667 -1093635 -1098031 -1106095 -1113994 -1119943 -1124107 
3571.361 -1128502 -1136202 -1150280 -1173908 -1208736 -1255421 -1311385 
3574.736 -1371998 -1429763 -1476029 -1503997 -1509379 -1492506 -1458098 
3578.111 -1414274 -1369389 -1330478 -1300615 -1279572 -1264275 -1251754 
3581.487 -1240289 -1230444 -1223571 -1221390 -1223571 -1227536 -1229089 
3584.862 -1223142 -1206522 -1178997 -1144629 -1111052 -1086827 -1077804 
3588.237 -1085141 -1105434 -1133757 -1166308 -1200012 -1232888 -1263119 
3591.612 -1287897 -1304646 -1311847 -1309964 -1301970 -1293149 -1288723 
3594.988 -1292059 -1303589 -1321394 -1342403 -1364699 -1387918 -1412523 
3598.363 -1438217 -1463877 -1485572 -1499473 -1502775 -1496436 -1485473 
3601.738 -1477118 -1478010 -1491218 -1514959 -1542859 -1567060 -1580398 
3605.113 -1578351 -1561018 -1533152 -1503139 -1479826 -1470778 -1479661 
3608.489 -1504624 -1539558 -1576502 -1607336 -1624865 -1623445 -1599182 
3611.864 -1551939 -1486001 -1412788 -1347457 -1304051 -1291200 -1308279 
3615.239 -1348646 -1402054 -1458692 -1511526 -1556000 -1590070 -1613476 
3618.614 -1625954 -1626515 -1615523 -1594890 -1569767 -1547151 -1534440 
3621.990 -1537081 -1557749 -1595716 -1647212 -1705633 -1764014 -1814896 
3625.365 -1851454 -1867852 -1857624 -1813808 -1729726 -1605058 -1453144 
3628.740 -1304712 -1197732 -1153122 -1168621 -1226347 -1307949 -1399247 
3632.115 -1491417 -1578648 -1656454 -1720947 -1769459 -1801236 -1818493 
3635.490 -1825455 -1828754 -1834397 -1846868 -1867489 -1892892 -1915324 
3638.866 -1925155 -1914038 -1876759 -1814698 -1734214 -1647113 -1566333 
3642.241 -1503271 -1465098 -1452979 -1463778 -1491417 -1529190 -1571088 
3645.616 -1611528 -1646057 -1671407 -1686821 -1694610 -1700749 -1712861 
3648.991 -1736128 -1770350 -1809584 -1845252 -1871184 -1886722 -1894904 
3652.367 -1900578 -1907440 -1916512 -1926177 -1931488 -1925682 -1901865 
3655.742 -1857789 -1798596 -1735864 -1683520 -1652658 -1647509 -1667578 
3659.117 -1708175 -1761902 -1819450 -1871514 -1909485 -1928090 -1926342 
3662.492 -1908001 -1881345 -1855941 -1841292 -1843206 -1862936 -1895795 
3665.868 -1933203 -1964639 -1979317 -1969059 -1930531 -1867225 -1791139 
3669.243 -1722564 -1685104 -1692960 -1745699 -1829810 -1929146 -2030603 
3672.618 -2127123 -2214227 -2286547 -2336215 -2353484 -2333513 -2284536 
3675.993 -2228962 -2189205 -2175227 -2184919 -2208622 -2235456 -2253619 
3679.369 -2254904 -2235917 -2199392 -2152577 -2105064 -2065560 -2039210 
3682.744 -2027107 -2026447 -2031592 -2034725 -2028954 -2008803 -1971203 
3686.119 -1915225 -1843239 -1761473 -1680616 -1615127 -1579671 -1582411 
3689.494 -1621630 -1685203 -1758338 -1825719 -1877023 -1908759 -1921592 
3692.870 -1919844 -1908759 -1893320 -1876660 -1860824 -1847495 -1837960 
3696.245 -1834528 -1840072 -1857030 -1886656 -1928090 -1977898 -2030669 
3699.620 -2080036 -2120067 -2146576 -2159006 -2159995 -2153962 -2144103 
3702.995 -2130981 -2112285 -2085642 -2049467 -2005241 -1957217 -1911563 
3706.371 -1874252 -1849343 -1837069 -1834066 -1833572 -1827072 -1807835 
3709.746 -1772297 -1722696 -1666126 -1614829 -1580827 -1572771 -1593405 
3713.121 -1640082 -1705897 -1782724 -1862111 -1936238 -1998183 -2043234 
3716.496 -2068593 -2074958 -2066780 -2050588 -2033373 -2019983 -2010881 
3719.872 -2002372 -1988354 -1961538 -1917468 -1855578 -1779985 -1698207 
3723.247 -1619187 -1551146 -1500431 -1472859 -1472693 -1502247 -1560721 
3726.622 -1642888 -1739362 -1838917 -1932577 -2013255 -2076871 -2121254 
3729.997 -2143807 -2141532 -2111956 -2054018 -1971038 -1871613 -1769360 
3733.373 -1680021 -1618989 -1599908 -1629816 -1705732 -1812026 -1925221 
3736.748 -2023479 -2095007 -2137773 -2156434 -2158017 -2149939 -2139257 
3740.123 -2131377 -2129728 -2135300 -2145917 -2156533 -2158808 -2142521 
3743.498 -2098107 -2024567 -1935578 -1854787 -1799520 -1773386 -1769822 
3746.874 -1779853 -1795461 -1812356 -1829348 -1848518 -1874483 -1910739 
3750.249 -1956360 -2004416 -2043695 -2064504 -2064471 -2048708 -2027272 
3753.624 -2009891 -2003229 -2009495 -2026283 -2048279 -2068429 -2079772 
3756.999 -2077860 -2062031 -2036209 -2008044 -1984990 -1972687 -1972357 
3760.375 -1981131 -1993038 -2001745 -2002470 -1992015 -1968762 -1933203 
3763.750 -1888141 -1838884 -1793977 -1762859 -1752761 -1765697 -1798860 
3767.125 -1846670 -1902492 -1960351 -2015762 -2064669 -2103877 -2131278 
3770.500 -2145719 -2147104 -2137212 -2118979 -2096029 -2073639 -2056359 
3773.875 -2047455 -2047455 -2053391 -2059756 -2059723 -2048444 -2024633 
3777.251 -1992939 -1961505 -1941516 -1942011 -1965727 -2006032 -2049763 
3780.626 -2083696 -2098403 -2091973 -2067307 -2031427 -1992378 -1957184 
3784.001 -1931488 -1917534 -1914796 -1920470 -1931818 -1946299 -1962627 
3787.376 -1979449 -1995313 -2009166 -2020082 -2027734 -2033076 -2038584 
3790.752 -2047059 -2060646 -2080432 -2105064 -2132662 -2159402 -2181425 
3794.127 -2195634 -2198930 -2189403 -2166622 -2132069 -2089137 -2042145 
3797.502 -1995247 -1950257 -1907374 -1865674 -1823805 -1782163 -1743190 
3800.877 -1712498 -1697184 -1700848 -1721475 -1752662 -1787509 -1821331 
3804.253 -1851256 -1876660 -1898302 -1917732 -1937690 -1960681 -1988288 
3807.628 -2019719 -2052006 -2081520 -2104701 -2118352 -2120891 -2111857 
3811.003 -2093259 -2068725 -2043498 -2022820 -2009990 -2006428 -2010452 
3814.378 -2017971 -2023149 -2020907 -2009627 -1992576 -1975425 -1962330 
3817.754 -1952995 -1943660 -1926903 -1894607 -1841193 -1768601 -1691144 
3821.129 -1632391 -1613575 -1639257 -1698504 -1773386 -1848155 -1911135 
3824.504 -1955997 -1980834 -1987925 -1983670 -1976249 -1973347 -1980009 
3827.879 -1996764 -2021368 -2050918 -2081784 -2110274 -2132926 -2145290 
3831.255 -2142982 -2123298 -2086565 -2036803 -1981197 -1928354 -1886195 
3834.630 -1859999 -1851025 -1856106 -1867522 -1875275 -1870788 -1849739 
3838.005 -1814962 -1773914 -1737316 -1712663 -1702399 -1705600 -1718901 
3841.380 -1739890 -1767677 -1803447 -1848617 -1903217 -1964375 -2026283 
3844.756 -2081091 -2122177 -2144466 -2146477 -2130091 -2100019 -2061734 
3848.131 -2021962 -1986177 -1957514 -1936964 -1922384 -1910541 -1897939 
3851.506 -1883060 -1868247 -1861055 -1871250 -1902591 -1947849 -1993004 
3854.881 -2026381 -2043432 -2045806 -2039013 -2029844 -2024666 -2028954 
3858.257 -2044916 -2072551 -2107636 -2145257 -2178623 -2201502 -2209743 
3861.632 -2202128 -2181425 -2152577 -2122408 -2097183 -2080498 -2072617 
3865.007 -2070605 -2069616 -2064834 -2053325 -2033967 -2007253 -1975457 
3868.382 -1942341 -1913411 -1894904 -1890120 -1897213 -1910277 -1922581 
3871.758 -1929377 -1929707 -1924792 -1917435 -1911497 -1911201 -1918458 
3875.133 -1933632 -1955469 -1982417 -2013123 -2046729 -2082048 -2116803 
3878.508 -2146939 -2166886 -2170183 -2152709 -2115220 -2064109 -2009067 
3881.883 -1958603 -1919481 -1893881 -1883720 -1889757 -1913675 -1955535 
3885.259 -2012661 -2078750 -2143807 -2199194 -2239675 -2262947 -2269111 
3888.634 -2258629 -2232390 -2191315 -2137773 -2075683 -2010452 -1947882 
3892.009 -1893452 -1851025 -1823409 -1812026 -1816975 -1837102 -1869600 
3895.384 -1909386 -1950356 -1987265 -2015828 -2034626 -2045707 -2053787 
3898.760 -2064141 -2079871 -2099492 -2117792 -2127881 -2124782 -2107801 
3902.135 -2081784 -2055040 -2035517 -2028591 -2033802 -2044784 -2052138 
3905.510 -2048180 -2029415 -1996534 -1954018 -1908100 -1865872 -1833143 
3908.885 -1814170 -1810937 -1822485 -1845252 -1873658 -1901502 -1922581 
3912.260 -1933203 -1932379 -1922318 -1906978 -1890978 -1878046 -1870425 
3915.636 -1867884 -1869303 -1872899 -1878706 -1887679 -1901601 -1921658 
3919.011 -1946563 -1972951 -1995445 -2009792 -2013255 -2006527 -1993499 
3922.386 -1979481 -1969554 -1967014 -1972126 -1981790 -1991125 -1994654 
3925.761 -1988519 -1971961 -1946035 -1913873 -1879431 -1848320 -1825554 
3929.137 -1817371 -1827699 -1857129 -1901403 -1951775 -1995775 -2021072 
3932.512 -2019258 -1989278 -1937030 -1873163 -1809650 -1756754 -1720386 
3935.887 -1703686 -1705600 -1723686 -1753586 -1790611 -1829744 -1866400 
3939.262 -1896817 -1918557 -1931455 -1936700 -1938415 -1941549 -1950356 
3942.638 -1966948 -1989805 -2014113 -2033703 -2043761 -2041618 -2027470 
3946.013 -2003658 -1973709 -1941648 -1910772 -1883456 -1861451 -1846340 
3949.388 -1839906 -1844229 -1860527 -1888603 -1925946 -1967739 -2007517 
3952.763 -2038683 -2056260 -2058338 -2046565 -2026447 -2005933 -1993038 
3956.139 -1994159 -2011375 -2042211 -2078948 -2112219 -2132465 -2132992 
3959.514 -2112780 -2076211 -2032680 -1993103 -1967541 -1961142 -1972522 
3962.889 -1994687 -2016850 -2029382 -2025128 -2003196 -1967673 -1927167 
3966.264 -1891209 -1868049 -1862441 -1874120 -1898038 -1926408 -1951148 
3969.640 -1964969 -1964606 -1950059 -1925385 -1895993 -1868577 -1848320 
3973.015 -1838257 -1838092 -1845054 -1854688 -1861847 -1862573 -1855578 
3976.390 -1841952 -1825521 -1811036 -1803315 -1805459 -1818031 -1838620 
3979.765 -1862903 -1885370 -1900875 -1906813 -1903052 -1892628 -1880223 
3983.141 -1871876 -1871547 -1881609 -1900644 -1925254 -1950719 -1971763 
3986.516 -1985319 -1990465 -1988453 -1982681 -1976843 -1974171 -1976513 
3989.891 -1983604 -1993961 -2004878 -2013189 -2017048 -2015135 -2007945 
3993.266 -1996962 -1984429 -1972852 -1964177 -1959394 -1958240 -1958933 
3996.642 -1958767 -1955403 -1947289 -1934490 -1919448 -1905724 -1898038 
4000.017 -1900149 -1914038 
##END=
