##TITLE=ad17_4 Oct 06 15:40:41 2026 (GMT+02:00)
##JCAMP-DX=5.01  $$ Nicolet v. 1
##DATATYPE=INFRARED SPECTRUM
##ORIGIN=Vojna akademija
##OWNER=Nicolet
##LONGDATE=2026/10/06
##TIME=15:41:21
##SPECTROMETER/DATA SYSTEM=Nicolet iS20
##DATA PROCESSING=
Ratio against background
%Transmittance->Absorbance
Truncated
ElementMultiply or ElementDivide
##COMMENTS=
Number of sample scans: 8
Collection length: 11,90 sec
Sample gain: 8,0
Background collected on: Tue Oct 06 15:39:53 2026 (GMT+02:00);
Number of background scans: 8
Background gain: 8,0
Sample spacing:  1,000
Number of scan points: 12415
Resolution points: 8286
Number of FFT points: 65536
Apodization: N-B strong;
Phase correction: Mertz;
Laser frequency: 15798,00 cm-1
Number of rejected sample scans: 0
Number of rejected background scans: 0
Bench serial number: BER2010005;
##RESOLUTION= 4,000
##XUNITS=1/CM
##YUNITS=ABSORBANCE
##FIRSTX=400.156891
##LASTX=4000.123047
##FIRSTY=0.030803
##MAXX=4000.123047
##MINX=400.156891
##MAXY=0.142193
##MINY=-0.000683
##XFACTOR=1.000000
##YFACTOR=1.000000E-009
##NPOINTS=7468
##DELTAX=0.482117
##ZPD=6100
##XYDATA=(X++(Y..Y))
400.157 30802586 31187190 30736432 29630166 28156154 26639602 25334808 
403.532 24389480 23813076 23505558 23305012 23065458 22705186 22226348 
406.907 21696136 21191026 20752222 20366014 19985282 19575320 19165638 
410.281 18875544 18895546 19423492 20614958 22498414 24950892 27688998 
413.656 30366260 32648786 34315648 35303628 35675520 35572112 35160972 
417.031 34646928 34248276 34179912 34603256 35504112 36667212 37768332 
420.406 38546608 38845944 38605452 37817964 36502084 34714544 32564782 
423.781 30242764 27987374 26033080 24571662 23698216 23425922 23705496 
427.155 24445910 25518898 26767716 28034062 29161564 30036740 30606714 
430.530 30883408 30938552 30881840 30832856 30873696 31026802 31242018 
433.905 31415808 31411250 31104106 30441528 29475670 28377876 27386558 
437.280 26753056 26643934 27117372 28113520 29485598 31015876 32451868 
440.655 33566248 34175040 34193356 33658256 32737456 31683430 30757984 
444.030 30176766 30036278 30317726 30903616 31627226 32302470 32773792 
447.404 32964888 32888398 32637928 32336164 32096964 31978000 31969442 
450.779 31999114 31961240 31749978 31301412 30622358 29786346 28904698 
454.154 28078136 27381652 26850082 26490286 26298918 26279804 26449048 
457.529 26827946 27423086 28205900 29110222 30050446 30932290 31662616 
460.904 32165110 32373108 32255572 31835254 31201432 30492958 29866980 
464.278 29467372 29379866 29625448 30148034 30830544 31506400 32006108 
467.653 32216280 32099030 31706884 31148922 30563802 30064258 29715380 
471.028 29518828 29417978 29319456 29136618 28830334 28422164 27979034 
474.403 27573214 27254802 27034252 26889490 26781706 26675538 26552908 
477.778 26416968 26284696 26174494 26095284 26043072 26006836 25980664 
481.152 25969022 25988298 26054822 26171784 26317154 26448026 26509692 
484.527 26459330 26288462 26030758 25752286 25524416 25403306 25407874 
487.902 25520130 25691608 25861430 25975598 25994594 25906342 25720012 
491.277 25463524 25169474 24875166 24609532 24388568 24212418 24067472 
494.652 23934234 23800966 23673058 23580274 23572612 23698882 23985004 
498.027 24412472 24915660 25384722 25693364 25736254 25448310 24840292 
501.401 23997854 23073248 22224150 21570446 21165804 20994988 21002500 
504.776 21122702 21307938 21530614 21783362 22066376 22374168 22689476 
508.151 22984540 23225554 23385778 23448828 23412248 23287322 23101134 
511.526 22893160 22709446 22596728 22590478 22702882 22918866 23193780 
514.901 23461628 23641114 23663084 23486600 23118152 22609782 22054314 
518.276 21556972 21203724 21048406 21095988 21304980 21597990 21883636 
521.650 22075126 22101098 21925526 21548056 21009908 20380910 19757990 
525.025 19241136 18905618 18787654 18867826 19079800 19328772 19527836 
528.400 19617644 19576670 19422558 19203594 18986054 18831182 18786476 
531.775 18869938 19070870 19355446 19681500 20008876 20303824 20545474 
535.150 20721290 20826326 20860952 20831054 20749894 20638168 20524284 
538.524 20438350 20402232 20422270 20482392 20549364 20577262 20527132 
541.899 20379416 20145636 19866402 19606552 19437076 19413132 19564678 
545.274 19884230 20328372 20823754 21288728 21653504 21871964 21933924 
548.649 21859142 21689586 21468850 21231906 20990642 20732098 20426786 
552.024 20048500 19592512 19091746 18614902 18253188 18099198 18208648 
555.398 18584952 19172806 19880102 20595432 21224322 21714492 22057870 
558.773 22284976 22440352 22559974 22652646 22696494 22648562 22467986 
562.148 22131572 21647512 21054494 20413346 19791836 19247196 18825022 
565.523 18551234 18438586 18491000 18708948 19089184 19620590 20278654 
568.898 21020408 21784826 22507870 23128776 23608680 23937630 24135106 
572.273 24240270 24298260 24348300 24408442 24473252 24517774 24510308 
575.647 24424704 24253724 24011896 23731776 23453304 23211432 23037470 
579.022 22956838 22993450 23170818 23502478 23982202 24573556 25214172 
582.397 25819902 26307260 26617124 26725218 26652530 26456232 26214370 
585.772 25995614 25840402 25753200 25708446 25662924 25571928 25405624 
589.147 25150198 24809874 24402800 23961230 23526404 23144536 22858898 
592.521 22692862 22638998 22654148 22672334 22620986 22443596 22122646 
595.896 21684886 21194260 20725530 20347298 20093578 19962768 19925960 
599.271 19946530 19995936 20063770 20155736 20283272 20451618 20653388 
602.646 20869016 21075326 21253410 21392268 21487822 21536706 21532216 
606.021 21464080 21323598 21113622 20852642 20575176 20322192 20124152 
609.396 19992742 19915934 19866124 19810736 19728446 19614386 19479074 
612.770 19337536 19200130 19064810 18919426 18747210 18537990 18292308 
616.145 18022930 17746990 17477988 17219354 16964768 16702481 16423076 
619.520 16124766 15815288 15508397 15220151 14967901 14769819 14642863 
622.895 14604105 14663837 14820385 15053786 15328089 15596794 15814805 
626.270 15956163 16020207 16032275 16028665 16042588 16086288 16145708 
629.644 16182542 16151555 16017731 15769655 15425855 15029604 14639949 
633.019 14311665 14091462 14008846 14073117 14276258 14595469 14998974 
636.394 15445802 15895223 16312355 16671836 16964526 17195326 17377206 
639.769 17523832 17641970 17727972 17771290 17760350 17690802 17570444 
643.144 17420280 17268620 17144860 17075586 17077378 17157168 17310720 
646.519 17522764 17764938 17996648 18171540 18242166 18176376 17970058 
649.893 17651462 17273654 16901170 16594684 16389698 16294124 16287208 
653.268 16333789 16394448 16441109 16462032 16459210 16442072 16420288 
656.643 16399642 16383402 16375626 16387118 16434776 16539505 16719146 
660.018 16979550 17309996 17682830 18059752 18394166 18644196 18779524 
663.393 18785336 18665606 18438104 18129356 17765768 17378894 17013626 
666.767 16738430 16664708 16909576 17497718 18275270 19010148 19559132 
670.142 19903828 20091912 20182600 20227172 20264872 20325318 20424424 
673.517 20561002 20718754 20871172 20993318 21071014 21109274 21132164 
676.892 21178362 21283962 21473376 21749988 22097786 22486306 22881774 
680.267 23258026 23599654 23905280 24182186 24443456 24702782 24974792 
683.642 25276364 25622538 26022984 26474790 26957036 27430636 27846816 
687.016 28162906 28353682 28425984 28414274 28370660 28341798 28354142 
690.391 28408862 28490018 28577736 28664550 28761576 28895206 29093888 
693.766 29372350 29723612 30118982 30517236 30875366 31162874 31364162 
697.141 31475868 31502086 31450182 31333286 31172524 31005058 30878212 
700.516 30839970 30930440 31166684 31538964 32014526 32550636 33105542 
703.890 33651488 34179876 34696420 35213072 35739116 36278052 36827784 
707.265 37384756 37946852 38514632 39088276 39665612 40243028 40818956 
710.640 41401192 42008876 42673672 43429336 44299540 45289596 46382480 
714.015 47544916 48737048 49928784 51106060 52271844 53438296 54618032 
717.390 55816920 57033176 58259488 59486000 60699144 61872660 62961868 
720.765 63903080 64617464 65038688 65128684 64890696 64367072 63626708 
724.139 62743404 61774176 60757752 59710892 58637044 57536868 56412568 
727.514 55267576 54102928 52914520 51694232 50434492 49135020 47806764 
730.889 46470972 45151820 43874376 42658028 41517876 40468720 39526560 
734.264 38708348 38027780 37486424 37068380 36735756 36438624 36120092 
737.639 35734588 35260468 34700580 34079048 33428166 32779046 32150444 
741.013 31548406 30969510 30408834 29865312 29344414 28855120 28405820 
744.388 27998046 27623988 27267396 26908066 26528568 26117416 25672310 
747.763 25199740 24712814 24227658 23762816 23336862 22965850 22664060 
751.138 22439516 22292124 22210690 22173588 22151724 22113824 22036396 
754.513 21909182 21737724 21541928 21351198 21195478 21094978 21056336 
757.888 21068892 21109274 21144930 21145174 21087466 20963066 20779678 
761.262 20560448 20338338 20145670 20009744 19943756 19944136 19991460 
764.637 20057452 20114018 20139250 20125020 20076400 20005858 19926028 
768.012 19842678 19749286 19630228 19465664 19241794 18959126 18636760 
771.387 18308412 18013330 17787446 17648148 17593008 17597906 17628168 
774.762 17644318 17613744 17519002 17359582 17151340 16921460 16704615 
778.136 16534375 16436256 16424246 16493900 16621811 16767599 16885842 
781.511 16931452 16873612 16703272 16436014 16108124 15764501 15451605 
784.886 15201724 15028128 14925135 14873083 14844419 14811848 14756758 
788.261 14670520 14556819 14428281 14305055 14208808 14157559 14163961 
791.636 14230274 14349095 14504502 14676861 14845413 14992114 15105071 
795.010 15178700 15213838 15215725 15192563 15152795 15103973 15051590 
798.385 14997534 14940773 14876889 14802111 14714459 14618018 14522248 
801.760 14443593 14399167 14402010 14457364 14560690 14698898 14855493 
805.135 15016020 15171289 15319096 15462214 15604865 15749041 15891064 
808.510 16023060 16134154 16214665 16258864 16267737 16249646 16219789 
811.885 16196057 16197398 16238295 16323743 16446648 16587144 16718905 
815.259 16813852 16855460 16844850 16804414 16771523 16786402 16879332 
818.634 17056046 17295306 17553814 17785340 17951374 18037160 18054432 
822.009 18034570 18013192 18015574 18049802 18105622 18164386 18208026 
825.384 18229380 18233284 18232904 18239608 18259476 18289820 18323966 
828.759 18357492 18393682 18443496 18521222 18635758 18785128 18953762 
832.133 19119066 19258696 19359812 19424394 19467362 19510334 19571056 
835.508 19660040 19777582 19916836 20067968 20222692 20374660 20516674 
838.883 20639488 20730882 20778566 20777628 20734600 20669338 20609294 
842.258 20583028 20608320 20687406 20806130 20942376 21074248 21189008 
845.633 21287686 21381548 21485596 21608996 21751346 21902316 22046784 
849.008 22170588 22267396 22339388 22396076 22448622 22506616 22576204 
852.382 22659244 22756440 22867594 22991878 23126120 23262676 23388680 
855.757 23486984 23541828 23542390 23488802 23392002 23273234 23159354 
859.132 23074298 23035130 23045610 23097394 23171798 23246560 23303928 
862.507 23333716 23337910 23327422 23318368 23322002 23341932 23370182 
865.882 23392248 23391828 23362034 23309590 23258482 23241284 23289488 
869.256 23423370 23642058 23921664 24218794 24486574 24682614 24781774 
872.631 24782688 24704570 24580954 24448786 24344130 24291742 24304392 
876.006 24382224 24515672 24687490 24875448 25057308 25211398 25319634 
879.381 25371864 25364664 25303196 25199108 25069734 24934468 24810436 
882.756 24711410 24643126 24603712 24585162 24577624 24573030 24569840 
886.131 24573976 24597994 24654172 24749538 24880536 25032350 25181340 
889.505 25300212 25369336 25379910 25337230 25257680 25162626 25071700 
892.880 24996340 24939134 24893904 24850396 24795526 24718706 24612442 
896.255 24473604 24304636 24114720 23919494 23738600 23592798 23498142 
899.630 23461000 23477086 23532524 23608996 23689294 23764078 23832608 
903.005 23899924 23969738 24039632 24096576 24121094 24092478 23999500 
906.379 23846084 23653640 23452674 23273724 23137966 23048582 22992820 
909.754 22947510 22892462 22816850 22725750 22634984 22565210 22530416 
913.129 22531288 22554844 22580184 22588210 22569188 22527066 22477234 
916.504 22439132 22425874 22438992 22466870 22489272 22484350 22438118 
919.879 22348738 22227672 22094824 21973202 21883392 21837364 21838270 
923.254 21880050 21949642 22027926 22093500 22127700 22117660 22061356 
926.628 21970414 21869106 21787332 21754690 21791026 21899178 22065504 
930.003 22263420 22464288 22642768 22786296 22895188 22979788 23053960 
933.378 23128600 23208286 23290362 23367420 23431656 23477996 23505208 
936.753 23516120 23515560 23510208 23507410 23516084 23548370 23617986 
940.128 23739090 23924676 24181940 24511114 24903378 25342324 25803410 
943.502 26258614 26681280 27048638 27347950 27578970 27754018 27895218 
946.877 28029076 28180160 28361854 28574162 28802364 29025690 29222728 
950.252 29383020 29512764 29635734 29786596 30000666 30305042 30707590 
953.627 31195806 31737466 32292262 32817244 33279434 33663232 33972012 
957.002 34227304 34460616 34711420 35014556 35394676 35862824 36414444 
960.377 37031752 37688532 38358648 39017800 39647496 40236192 40775316 
963.751 41257864 41676424 42024244 42298304 42502260 42647536 42750884 
967.126 42829500 42896532 42955604 43002168 43027412 43022988 42984392 
970.501 42911380 42804556 42660808 42472152 42227128 41916620 41540808 
973.876 41113088 40659124 40207480 39783904 39402352 39064020 38762216 
977.251 38489180 38243060 38029228 37857364 37734576 37659440 37618936 
980.625 37591692 37552420 37482160 37370092 37216504 37028864 36819092 
984.000 36599440 36381336 36177132 35998368 35855480 35754228 35692208 
987.375 35657064 35628936 35587000 35513712 35401504 35254576 35086388 
990.750 34914216 34753092 34614524 34504128 34424420 34375360 34355956 
994.125 34362772 34388916 34425784 34462408 34490924 34508792 34519592 
997.500 34531608 34553172 34588940 34637308 34691432 34741856 34781092 
1000.874 34804996 34812572 34803060 34774628 34723336 34647392 34551948 
1004.249 34451644 34371128 34341612 34387732 34522996 34741892 35021844 
1007.624 35326776 35617140 35860660 36035480 36134892 36165464 36146484 
1010.999 36104464 36070548 36076524 36144756 36283308 36479704 36705356 
1014.374 36919476 37085808 37185924 37226140 37235600 37253940 37316148 
1017.748 37434848 37596752 37766960 37907364 37989596 38008324 37980480 
1021.123 37937884 37910548 37915788 37954696 38017112 38089740 38164404 
1024.498 38241144 38324988 38417792 38514888 38602592 38664304 38689148 
1027.873 38677236 38640400 38598096 38569528 38565656 38587272 38626708 
1031.249 38673104 38716568 38749788 38767756 38766196 38740480 38688860 
1034.624 38615664 38533064 38459532 38414464 38408416 38437088 38480348 
1037.999 38509276 38493600 38413452 38265132 38059320 37816120 37555384 
1041.374 37294772 37047664 36826740 36648972 36533260 36497724 36553228 
1044.750 36699048 36920344 37194484 37499104 37817272 38141468 38470500 
1048.125 38801668 39126232 39428148 39689464 39900336 40066796 40212384 
1051.500 40368896 40566236 40818704 41119904 41445152 41764512 42055712 
1054.875 42312840 42546916 42778452 43026644 43299104 43590380 43885300 
1058.251 44168496 44429084 44665148 44879520 45077008 45259368 45426940 
1061.626 45581476 45729696 45882792 46053144 46247084 46460316 46677380 
1065.001 46878684 47047656 47180608 47286848 47386132 47497748 47632428 
1068.376 47788748 47956856 48126028 48292708 48462940 48649612 48865548 
1071.752 49115208 49394784 49696308 50017040 50366064 50765900 51244284 
1075.127 51823612 52507760 53278056 54096020 54920836 55718136 56473204 
1078.502 57190692 57886956 58578344 59273188 59970212 60663100 61347820 
1081.877 62028196 62714456 63419068 64150356 64907812 65684208 66469988 
1085.253 67257616 68045008 68831616 69615104 70387032 71134688 71846720 
1088.628 72520192 73163368 73794272 74431544 75083040 75740432 76381024 
1092.003 76976216 77500384 77941192 78298488 78578400 78785400 78917504 
1095.378 78968800 78937248 78831240 78672552 78487488 78299280 78114928 
1098.754 77924264 77702464 77425056 77078768 76667728 76211808 75737560 
1102.129 75269144 74821224 74400512 74010896 73657272 73348768 73094712 
1105.504 72900480 72763808 72676920 72631880 72628240 72675272 72791704 
1108.879 72995840 73294992 73679296 74122184 74590576 75054016 75496800 
1112.255 75919288 76331520 76740272 77139152 77504184 77800624 77992856 
1115.630 78056064 77984848 77790560 77495864 77124000 76698160 76236448 
1119.005 75753928 75263192 74771672 74278272 73771256 73233488 72646600 
1122.380 72003840 71315672 70611632 69933112 69319216 68800792 68392728 
1125.755 68097560 67913304 67842368 67894744 68086984 68434048 68942520 
1129.131 69606504 70410720 71337928 72378472 73536256 74826544 76267376 
1132.506 77868568 79622688 81506176 83483680 85519576 87591240 89689048 
1135.881 91813088 93963024 96127640 98282400 100395080 102431920 104370144 
1139.256 106198320 107913600 109515168 110998616 112357824 113590480 
1142.150 114704040 115717344 116651824 117522832 118329432 119054328 
1145.043 119671872 120165136 120536840 120815424 121043000 121263376 
1147.936 121506224 121778192 122068632 122358824 122635016 122892920 
1150.829 123136632 123371328 123597248 123809408 124003552 124183848 
1153.722 124365504 124571544 124820264 125112448 125425768 125719992 
1156.615 125954088 126099456 126153456 126135680 126075048 125989512 
1159.508 125875624 125707728 125453280 125087784 124610480 124043720 
1162.401 123425344 122790128 122156320 121523360 120876216 120197216 
1165.294 119473024 118699040 117873976 116995248 116057296 115054736 
1168.187 113990072 112877432 111742568 110611512 109498880 108400864 
1171.080 107297136 106161800 104979008 103754400 102516288 101306504 
1173.973 100159088 99090064 98089776 97130736 96178904 95210088 94216672 
1177.349 93205120 92186896 91170608 90157344 89143176 88126592 87113232 
1180.724 86116048 85150000 84223112 83330752 82456768 81582536 80695864 
1184.099 79799280 78908520 78045960 77230736 76468848 75752824 75066536 
1187.474 74395800 73733952 73084872 72457544 71858616 71285256 70724544 
1190.849 70157280 69567416 68947560 68302104 67641728 66978752 66319956 
1194.225 65665244 65011136 64355664 63703136 63065296 62456748 61890008 
1197.600 61371632 60900000 60468180 60066580 59687020 59321764 58962892 
1200.975 58601244 58225728 57827596 57404832 56965780 56527696 56112984 
1204.350 55741456 55423392 55156920 54931704 54735204 54559004 54402332 
1207.726 54270232 54168236 54096060 54043748 53993428 53926800 53831448 
1211.101 53706604 53562684 53417236 53287532 53182992 53104544 53045572 
1214.476 52996420 52949104 52900184 52850076 52802440 52761432 52732400 
1217.851 52722112 52738236 52789496 52882672 53018692 53191308 53386548 
1221.227 53587760 53778300 53948856 54097748 54230584 54356780 54485188 
1224.602 54622652 54772976 54938584 55121820 55324628 55546208 55781768 
1227.977 56021368 56250660 56457356 56633912 56781196 56906696 57020484 
1231.352 57129840 57235292 57330908 57407592 57459100 57485500 57493556 
1234.728 57493708 57495824 57504868 57520412 57538004 57552152 57558240 
1238.103 57552036 57527676 57476800 57388456 57253668 57069868 56844340 
1241.478 56592500 56333492 56080520 55834888 55584240 55308108 54984912 
1244.853 54601948 54160880 53675148 53165132 52649056 52140276 51645528 
1248.229 51167564 50709928 50277292 49874224 49501756 49154352 48820684 
1251.604 48487944 48149160 47807760 47477344 47176728 46921648 46716456 
1254.979 46551300 46403936 46250180 46072416 45864820 45634360 45395192 
1258.354 45159832 44932904 44709952 44481572 44239844 43984212 43721984 
1261.730 43466032 43228240 43014756 42825400 42655212 42498720 42351668 
1265.105 42211936 42077284 41944060 41805516 41655272 41489004 41307276 
1268.480 41116444 40926096 40744452 40576240 40420532 40273712 40132096 
1271.855 39995660 39869100 39759428 39671748 39606260 39556608 39512840 
1275.231 39464288 39404096 39332080 39252464 39172428 39095888 39021860 
1278.606 38943752 38851016 38731928 38577096 38381232 38143816 37868068 
1281.981 37562176 37238164 36909844 36593096 36300636 36039116 35807984 
1285.356 35598616 35398952 35195968 34980936 34752048 34513060 34272192 
1288.732 34037336 33815824 33611964 33430494 33275642 33151672 33061170 
1292.107 33002782 32969110 32947804 32924962 32889254 32836720 32772042 
1295.482 32707230 32656968 32632142 32636356 32663398 32700550 32730632 
1298.857 32738742 32714770 32655358 32563568 32447868 32320422 32193582 
1302.233 32078948 31984456 31912812 31861282 31822920 31789228 31752404 
1305.608 31707882 31654634 31592696 31521790 31438678 31337596 31213428 
1308.983 31064348 30895324 30717584 30546632 30397282 30278608 30192820 
1312.358 30134892 30097212 30072282 30056800 30051298 30057830 30077360 
1315.734 30107758 30143878 30180958 30215022 30245676 30273314 30296052 
1319.109 30307564 30297082 30251856 30164156 30034256 29872410 29694376 
1322.484 29516486 29349838 29195548 29047370 28895846 28734496 28564570 
1325.859 28394500 28237650 28106166 28005928 27934720 27883772 27842152 
1329.234 27800398 27752960 27699204 27641642 27584442 27533144 27495726 
1332.610 27481816 27502256 27566366 27677132 27828482 28003666 28181786 
1335.985 28340490 28465642 28556716 28627032 28698424 28791670 28919076 
1339.360 29077840 29252394 29422446 29573410 29701330 29811862 29914684 
1342.735 30018632 30128534 30244326 30363276 30482188 30598642 30710648 
1346.111 30815958 30911016 30991892 31056092 31105530 31147426 31191748 
1349.486 31248178 31321250 31408328 31500556 31588312 31664968 31731014 
1352.861 31792722 31858824 31935204 32020874 32107558 32184306 32242544 
1356.236 32280874 32305182 32326098 32353226 32390386 32434906 32479040 
1359.612 32514888 32538210 32550458 32558818 32572564 32599102 32640216 
1362.987 32693084 32752712 32816100 32882928 32955560 33035532 33123064 
1366.362 33216800 33315386 33419330 33531382 33655716 33794728 33946000 
1369.737 34102092 34253944 34395084 34525724 34655936 34803632 34991136 
1373.113 35235240 35540252 35891540 36258960 36604916 36897292 37113488 
1376.488 37234300 37242064 37116268 36837992 36400032 35813020 35108088 
1379.863 34324648 33502788 32672364 31849980 31045914 30268482 29527056 
1383.238 28830618 28182176 27575864 26997088 26426334 25847364 25254344 
1386.614 24657084 24077348 23538016 23050608 22611038 22205040 21819316 
1389.989 21448276 21095534 20772242 20491352 20261052 20083028 19950624 
1393.364 19851382 19769156 19689752 19605580 19516918 19430942 19357594 
1396.739 19307812 19289906 19309198 19364870 19448302 19541976 19624888 
1400.115 19682438 19709968 19713816 19706256 19700812 19705944 19722968 
1403.490 19743670 19754142 19738156 19686632 19602010 19498516 19397334 
1406.865 19317860 19277158 19286682 19354060 19485000 19682196 19944762 
1410.240 20265148 20630420 21023192 21425440 21824752 22213898 22591352 
1413.616 22957678 23311968 23649230 23961230 24236172 24462352 24627450 
1416.991 24718144 24719548 24617386 24406514 24101724 23740596 23368784 
1420.366 23020280 22708922 22431316 22175610 21930300 21689934 21460112 
1423.741 21258630 21108370 21029764 21031226 21108162 21249896 21445422 
1427.117 21689794 21982090 22324424 22717300 23155336 23627118 24116646 
1430.492 24607462 25087250 25547328 25983724 26395946 26786252 27160014 
1433.867 27527460 27903202 28306750 28758852 29271570 29834256 30409330 
1437.242 30946346 31408612 31785164 32085940 32329668 32536176 32722310 
1440.618 32901514 33083264 33272244 33468284 33667992 33867044 34063280 
1443.993 34257708 34455984 34667888 34906496 35186588 35523172 35927532 
1447.368 36402988 36942708 37531216 38152032 38796776 39468276 40178908 
1450.743 40943968 41773884 42666800 43606536 44568612 45523404 46448188 
1454.119 47327268 48143760 48874972 49481440 49913212 50135056 50176080 
1457.494 50136696 50118248 50170128 50279264 50409708 50531296 50632704 
1460.869 50716856 50793016 50867064 50934828 50976112 50958600 50840692 
1464.244 50585012 50171020 49589848 48833772 47886628 46718112 45306328 
1467.620 43650644 41780856 39742580 37586960 35348200 33017300 30556408 
1470.995 27920094 25110070 22239252 19537366 17250624 15501392 14246605 
1474.370 13341073 12626634 11998209 11405828 10846154 10336365 9890894 
1477.745 9508125 9171715 8860656 8558708 8259941 7968432 7693106 7442289 
1481.603 7219208 7021395 6844440 6686164 6547623 6431388 6337945 6262841 
1485.460 6195818 6125175 6042952 5949626 5854003 5769783 5706058 5660469 
1489.318 5616463 5552929 5458735 5340141 5216918 5108816 5027724 4973995 
1493.175 4939710 4912833 4881434 4836837 4774857 4696942 4609129 4518822 
1497.032 4430744 4347870 4271504 4204018 4148183 4105467 4073725 4048306 
1500.890 4023123 3994297 3961661 3928759 3901042 3883156 3876169 3876102 
1504.747 3873862 3856612 3815395 3755700 3703899 3690967 3720675 3768166 
1508.605 3805434 3818404 3806170 3777324 3744003 3717166 3702696 3698853 
1512.462 3697750 3689964 3669380 3635231 3592632 3550271 3517134 3498829 
1516.319 3494086 3495088 3492917 3481527 3461186 3435603 3410022 3388048 
1520.177 3372654 3365876 3368748 3380735 3398601 3416935 3429659 3432164 
1524.034 3421844 3400271 3372855 3349347 3340899 3354923 3390920 3440413 
1527.892 3491013 3531230 3553779 3556485 3539782 3505209 3453505 3384676 
1531.749 3299064 3200751 3102060 3021575 2976234 2969529 2989780 3018372 
1535.607 3040828 3051405 3051405 3049003 3055543 3084274 3142775 3222782 
1539.464 3292053 3308880 3250923 3137302 3010632 2909282 2851145 2835470 
1543.321 2851846 2886367 2926495 2961855 2987010 2999922 3000856 2991514 
1547.179 2974299 2952481 2930598 2913652 2905713 2906847 2911884 2913485 
1551.036 2905479 2886900 2862452 2840740 2832168 2844108 2877928 2926995 
1554.894 2981072 3031018 3074263 3114475 3159263 3214370 3275160 3316559 
1558.751 3301968 3221614 3117178 3035656 2996218 2994083 3016270 3048169 
1562.609 3077733 3095386 3095086 3076532 3044532 3007896 2974299 2947210 
1566.466 2925260 2904045 2878528 2845442 2804354 2758802 2714589 2676481 
1570.323 2646111 2621709 2600375 2580509 2562411 2547479 2538280 2538047 
1574.181 2550712 2580842 2631509 2701419 2781911 2858650 2918989 2958486 
1578.038 2980371 2992215 3001590 3015269 3038225 3072728 3118212 3171212 
1581.896 3226487 3277096 3315791 3336058 3331884 3300633 3243913 3169075 
1585.753 3088345 3016704 2967861 2949512 2962623 3000022 3049570 3096888 
1589.610 3131662 3149550 3152488 3146113 3136434 3127590 3120315 3114642 
1593.468 3110437 3109903 3116911 3134732 3163535 3198581 3230793 3250923 
1597.325 3252759 3235600 3205725 3173548 3149851 3143209 3156292 3185564 
1601.183 3222615 3257232 3280701 3286911 3274125 3244013 3201218 3151486 
1605.040 3101359 3056077 3019740 2994350 2979671 2974166 2975033 2980872 
1608.898 2991948 3011199 3041395 3083706 3135433 3190070 3239206 3275360 
1612.755 3295291 3300299 3296126 3291018 3295258 3318161 3366710 3441982 
1616.612 3537176 3640577 3740593 3830438 3908464 3975069 4032186 4081618 
1620.470 4125971 4168823 4214757 4268024 4331505 4404769 4484673 4567405 
1624.327 4650253 4732380 4812881 4888605 4953685 4999937 5021523 5018338 
1628.185 4999367 4979357 4973559 4990820 5030707 5084711 5140701 5187643 
1632.042 5217588 5227481 5217890 5191734 5151463 5099093 5037244 4972286 
1635.900 4915413 4878586 4866456 4875872 4899027 4928751 4959315 4988977 
1639.757 5019042 5052931 5094031 5143852 5199849 5257496 5310724 5354230 
1643.614 5385327 5403711 5411125 5409683 5402604 5394083 5391600 5405624 
1647.472 5444743 5510812 5598036 5697296 5798627 5893936 5978314 6050042 
1651.329 6113279 6180256 6272859 6409026 6575341 6725063 6822056 6864131 
1655.187 6867733 6849118 6820003 6787928 6757807 6733475 6718635 6715876 
1659.044 6727250 6751985 6786110 6821955 6849926 6861708 6855817 6840199 
1662.901 6832053 6848479 6896347 6970145 7056181 7139573 7208461 7258356 
1666.759 7292084 7319411 7354121 7410404 7496695 7610518 7740460 7872633 
1670.616 7998874 8116947 8227894 8330864 8421730 8494606 8545090 8573983 
1674.474 8590948 8615181 8666488 8753369 8869618 9001595 9137503 9271490 
1678.331 9403250 9534881 9665604 9789824 9897403 9976833 10021758 10032744 
1682.189 10022707 10015214 10049021 10164193 10370535 10628245 10878361 
1685.564 11089291 11263700 11418687 11570258 11728077 11896068 12074992 
1688.939 12267826 12481821 12727308 13012504 13336290 13686919 14046662 
1692.314 14399167 14734785 15057079 15381569 15731931 16127964 16567420 
1695.690 17011696 17401796 17695532 17893054 18024866 18134712 18263554 
1699.065 18447508 18710368 19045872 19413064 19762014 20069322 20341254 
1702.440 20595676 20849966 21119570 21420426 21770124 22184954 22670346 
1705.815 23214472 23789696 24366210 24924994 25464542 25996880 26540792 
1709.191 27111412 27712624 28333840 28955132 29558870 30138762 30708658 
1712.566 31299882 31952750 32700158 33554148 34497992 35498900 36525404 
1715.941 37575652 38681292 39893108 41224780 42617892 43962800 45166008 
1719.316 46203632 47120480 47989900 48885056 49858464 50934196 52105160 
1722.692 53342784 54614948 55902040 57208608 58556728 59969568 61455564 
1726.067 63007832 64614968 66281900 68040392 69947816 72063992 74416328 
1729.442 76967672 79620256 82245976 84764560 87197832 89701024 92545976 
1732.817 96075296 100541568 105836312 111362088 116343288 120360680 
1735.710 123499000 126080888 128405360 130655360 132893160 135085584 
1738.603 137130896 138917040 140354336 141397568 142022240 142192800 
1741.496 141852400 140953120 139493664 137546352 135239088 132711456 
1744.390 130042720 127230536 124208728 120900768 117270432 113352456 
1747.283 109231592 105014920 100770544 96501824 92153752 87673216 83069944 
1750.658 78441720 73962888 69806472 66075532 62773952 59830892 57138496 
1754.033 54583840 52067168 49508028 46855064 44106692 41321524 38607372 
1757.408 36080808 33815572 31823810 30065004 28470700 26967012 25493528 
1760.784 24020720 22559346 21158916 19883224 18777688 17850172 17074620 
1764.159 16406009 15798930 15215622 14630800 14031911 13422160 12818417 
1767.534 12246695 11735192 11302875 10954266 10679723 10461830 10278514 
1770.909 10105551 9920352 9705245 9454550 9178686 8895624 8622684 8370451 
1774.767 8144968 7948994 7784344 7651759 7549254 7470637 7406898 7347583 
1778.624 7282683 7204519 7110202 7002302 6887392 6772345 6662005 6555999 
1782.482 6451061 6342820 6228589 6109213 5989635 5875631 5772570 5682525 
1786.339 5604245 5534840 5471921 5414816 5364427 5321122 5283790 5248542 
1790.196 5209406 5159477 5095808 5022595 4951875 4898155 4869438 4862904 
1794.054 4866289 4864044 4840254 4785443 4697009 4581301 4450661 4321264 
1797.911 4207932 4120351 4061785 4028608 4012388 4002189 3988946 3967980 
1801.769 3938990 3905255 3870285 3836454 3803195 3767832 3726423 3675094 
1805.626 3612377 3539348 3459850 3380401 3307711 3247351 3201953 3171078 
1809.484 3150952 3136167 3121883 3105130 3086176 3068223 3056143 3054375 
1813.341 3064585 3084974 3110069 3130861 3136601 3118112 3070158 2994684 
1817.198 2900009 2799786 2708688 2637576 2591642 2569777 2567010 2577009 
1821.056 2595342 2620475 2652845 2691784 2733794 2769040 2784479 2766205 
1824.913 2707521 2614175 2503687 2398691 2318536 2274467 2267239 2287824 
1828.771 2317936 2336691 2327497 2285959 2222909 2157638 2107959 2083255 
1832.628 2084653 2105262 2134030 2157638 2165464 2152011 2119246 2075664 
1836.485 2034982 2012545 2020002 2063146 2138658 2235265 2335259 2420481 
1840.343 2474761 2486691 2451135 2369672 2250986 2108725 1959987 1821381 
1844.200 1703111 1607620 1531335 1471022 1426507 1402672 1405465 1439572 
1848.058 1504103 1590792 1685415 1773005 1842045 1889131 1918816 1939917 
1851.915 1961351 1987247 2016273 2042039 2056188 2051627 2024995 1977328 
1855.773 1911927 1833526 1747554 1659470 1574996 1500479 1440968 1399249 
1859.630 1375316 1365311 1362885 1362718 1362984 1367239 1383958 1422119 
1863.487 1487712 1580184 1691169 1806841 1913458 2001926 2069704 2120611 
1867.345 2160435 2191804 2210987 2208256 2175254 2111189 2025461 1934459 
1871.202 1855554 1803214 1784782 1799854 1840514 1894988 1949269 1989943 
1875.060 2007652 1996367 1955693 1890529 1811632 1733216 1669282 1629670 
1878.917 1614703 1613706 1605857 1568345 1484420 1351617 1184432 1012795 
1882.775 872699 793024 788775 851882 956970 1068428 1157156 1208587 1226363 
1887.114 1228490 1241748 1291462 1392601 1544602 1730921 1926205 2102532 
1890.972 2239129 2324565 2355546 2333893 2264641 2155440 2017472 1866369 
1894.829 1721473 1599605 1511817 1459452 1434652 1424446 1416102 1402340 
1898.686 1383194 1365211 1359262 1373687 1411182 1464472 1519564 1559500 
1902.544 1570241 1546897 1495093 1428734 1362885 1306782 1260756 1216561 
1906.401 1163069 1093938 1014688 944219 909586 934124 1027475 1176857 
1910.259 1350553 1506364 1610979 1650290 1633195 1584673 1536157 1512382 
1914.116 1522025 1557538 1599505 1626776 1622020 1577058 1493464 1379072 
1917.974 1243077 1095200 945215 803912 686715 612915 600173 660399 790136 
1922.313 967431 1152870 1305386 1398118 1425044 1400744 1351318 1302894 
1926.171 1274181 1273915 1302628 1357068 1432923 1525416 1627109 1723003 
1930.028 1791969 1810501 1759497 1635224 1453402 1250288 1071417 963346 
1933.885 956273 1052684 1226995 1432025 1614837 1724434 1728925 1620856 
1937.743 1419593 1162073 895674 666339 505654 431254 444024 528876 656118 
1942.082 790933 902713 971150 990511 967198 913405 842387 765075 691096 
1946.422 627813 582157 560625 569383 613213 695543 818286 981212 1180777 
1950.762 1407293 1641077 1854955 2014343 2086550 2053891 1919948 1713955 
1954.619 1482359 1281459 1158717 1141209 1231049 1407825 1638882 1890429 
1958.476 2138958 2368372 2567343 2722024 2814926 2825498 2742931 2573143 
1962.334 2345652 2111455 1935623 1875021 1963914 2199131 2537580 2901710 
1966.191 3198681 3348178 3301468 3062683 2687350 2268338 1896319 1636754 
1970.049 1515741 1519697 1605990 1722039 1831031 1921412 2012445 2136627 
1973.906 2320868 2566643 2840339 3081904 3231995 3258167 3172413 3025646 
1977.764 2888868 2826565 2866688 3004559 3206192 3433199 3652572 3847018 
1981.621 4003092 4101854 4112491 3997641 3726390 3295024 2736462 2118947 
1985.478 1526115 1044745 736863 622703 681472 864399 1115862 1389343 1659470 
1989.818 1913392 2139824 2324465 2448703 2499854 2484925 2434875 2398524 
1993.675 2423579 2543779 2763237 3056544 3376928 3672688 3896429 4011787 
1997.533 3996838 3839028 3537945 3105598 2575443 2002992 1460350 1033752 
2001.390 793854 776693 966335 1300700 1683452 2018970 2245390 2344286 
2005.248 2342188 2293420 2257780 2273268 2345752 2455467 2570343 2664413 
2009.105 2722958 2743997 2731260 2683549 2593475 2448703 2240028 1969140 
2012.963 1654681 1328086 1027707 793522 655521 636374 748114 991274 1350022 
2017.302 1789174 2259879 2702053 3062116 3304039 3410189 3382705 3236368 
2021.160 2992415 2671780 2293853 1880878 1460749 1077861 789174 652866 
2025.017 714327 985031 1434120 1990975 2566010 3071026 3432832 3616587 
2028.874 3622935 3489109 3268616 3019841 2788481 2597709 2449036 2324266 
2032.732 2194935 2029522 1807806 1526979 1203670 871537 572900 347052 216916 
2037.071 186220 237536 345261 481273 626021 769092 905336 1029899 1136226 
2041.411 1215997 1264610 1287839 1301963 1329448 1390340 1488576 1607587 
2045.268 1709298 1750881 1703610 1568578 1384556 1220881 1157255 1245736 
2049.126 1494627 1857152 2252051 2580109 2762704 2759536 2575076 2252917 
2052.983 1859181 1465835 1126426 873429 714559 640754 632956 669790 732249 
2057.323 799896 852679 871902 842952 763515 648419 528411 441569 424223 
2061.662 497925 661826 892520 1149050 1387016 1566782 1665823 1682088 
2065.520 1629936 1534394 1423814 1325726 1259559 1238558 1266505 1337757 
2069.377 1437976 1545134 1636887 1692466 1702113 1669249 1609582 1545201 
2073.235 1498318 1485484 1511185 1570274 1649126 1732784 1806641 1859681 
2077.092 1884106 1872459 1818786 1718413 1570374 1379404 1157322 923665 
2080.949 700322 511891 378588 312997 317042 381573 487741 609198 718841 
2085.289 794950 825423 812410 772776 733444 721927 759831 854007 994961 
2089.629 1158053 1312831 1431893 1496390 1501743 1454831 1370995 1267634 
2093.486 1162737 1073742 1015585 1001736 1040992 1134233 1271921 1434087 
2097.344 1594151 1723768 1803314 1825740 1797858 1735312 1657275 1578687 
2101.201 1505300 1434519 1358431 1268797 1161907 1041125 915762 800294 
2105.058 711207 662290 664182 719903 824461 963080 1114999 1254442 1358763 
2109.398 1414374 1420756 1389476 1338721 1286510 1240984 1198819 1145893 
2113.255 1066335 950063 798933 629771 467972 340386 264357 246023 279177 
2117.595 351760 452349 577114 730623 921706 1156657 1433056 1735711 2039243 
2121.935 2310142 2516184 2632576 2645910 2557344 2383065 2152810 1901012 
2125.792 1664593 1474912 1350188 1294951 1298773 1340416 1391071 1424479 
2129.649 1421521 1372557 1278800 1150843 1005488 862838 744098 668927 649979 
2133.989 689171 773805 876915 958830 978655 906631 730689 464754 144256 
2138.329 -178588 -452342 -630480 -683117 -601363 -395672 -91208 276757 
2142.186 665708 1034283 1346066 1575062 1711726 1761859 1741200 1666056 
2146.043 1547695 1390739 1196227 971947 740115 536207 405285 380678 472814 
2150.383 656450 879903 1076499 1193436 1212441 1156657 1081083 1045808 
2154.240 1095466 1236864 1439140 1644570 1800486 1874522 1867135 1802449 
2158.098 1712990 1616799 1507827 1361788 1155594 882759 565767 244366 -29090 
2162.438 -205117 -248897 -144672 106771 486182 957734 1468030 1957058 
2166.295 2360643 2631076 2751667 2738429 2634843 2494389 2364841 2267906 
2170.152 2198065 2128037 2029656 1888632 1715785 1543239 1413775 1359361 
2174.010 1386817 1473482 1577024 1651621 1663262 1601168 1475377 1308577 
2177.867 1124632 944983 787979 671284 617062 650012 786352 1023257 1331808 
2182.207 1654648 1919715 2066908 2061082 1909132 1656311 1378739 1158817 
2186.064 1058264 1109318 1302063 1595880 1927702 2234699 2465231 2588809 
2189.922 2599975 2512485 2349916 2135462 1887966 1619060 1336394 1050325 
2193.779 776261 536041 354878 252422 237801 305702 438253 610028 797572 
2198.119 987489 1175030 1362054 1547296 1720342 1860379 1941315 1940549 
2201.976 1849598 1678662 1454399 1210680 980382 786385 636839 531729 467607 
2206.316 446279 476496 571175 739086 977559 1268831 1580450 1872026 2108958 
2210.655 2264375 2328296 2305212 2210754 2066308 1891494 1702046 1506730 
2214.513 1309075 1110215 911047 716352 534582 377958 259715 189435 169712 
2218.852 193943 247382 312765 374974 429098 480510 544070 634715 761159 
2223.192 918717 1089653 1247796 1367638 1436779 1458255 1451507 1445788 
2227.049 1471820 1549058 1680492 1850263 2029289 2179050 2262610 2254816 
2230.907 2147016 1951766 1700816 1441999 1225433 1092377 1066734 1146060 
2234.764 1301465 1484620 1644836 1737142 1738139 1651155 1502308 1332340 
2238.622 1182306 1085368 1055474 1086796 1156225 1233674 1288304 1297111 
2242.479 1251617 1157488 1032556 899858 783132 698530 652435 641551 657080 
2246.819 688242 726607 768262 812078 856032 895608 921340 921938 889831 
2251.158 824328 734838 638697 557042 506682 496698 526023 586338 666107 
2255.498 756313 851849 951093 1052617 1152172 1242147 1314492 1363882 
2259.355 1391204 1404002 1414141 1433189 1467996 1517835 1576592 1635789 
2263.213 1687677 1728259 1757102 1774136 1778494 1766584 1734613 1681257 
2267.070 1611012 1535159 1468628 1427139 1420623 1449977 1506431 1573599 
2270.927 1632929 1666721 1664559 1623583 1548859 1452903 1352448 1266006 
2274.785 1208288 1188386 1206195 1253179 1312897 1367571 1402307 1409321 
2278.642 1389409 1349756 1299903 1246533 1192373 1135661 1074207 1008810 
2282.500 945514 895010 869478 878144 922569 996887 1089387 1185429 1271356 
2286.839 1338588 1381399 1397852 1387415 1351650 1294619 1224536 1155129 
2290.697 1103305 1085866 1115895 1196725 1320608 1468628 1616067 1735744 
2294.554 1804911 1810667 1751413 1637552 1489806 1335763 1202606 1111610 
2298.412 1074041 1087029 1134864 1194034 1242047 1263049 1254675 1226729 
2302.269 1198021 1186060 1200812 1239721 1290830 1336195 1361489 1362020 
2306.126 1343906 1321871 1310172 1318381 1346199 1384523 1420291 1443827 
2309.984 1452005 1450310 1448515 1456959 1482160 1524718 1581314 1646299 
2313.841 1715252 1783052 1844407 1890861 1910663 1892059 1826905 1716018 
2317.699 1569908 1409055 1257665 1135528 1052418 1006186 984666 972976 
2321.556 960623 945447 932696 929642 939636 958697 975965 978389 956240 
2325.896 908291 843616 779216 734772 728797 771548 862639 991208 1139880 
2330.235 1287972 1416734 1514045 1574098 1598507 1592355 1562526 1515009 
2334.093 1453402 1379304 1293755 1198453 1097459 997717 907760 836213 788410 
2338.432 764411 758470 762354 766370 764511 757342 752064 760561 794883 
2342.772 863336 965106 1090816 1222476 1341214 1430097 1482093 1500612 
2346.629 1495791 1479899 1461347 1444625 1429167 1411814 1389376 1360458 
2350.487 1328285 1302163 1294918 1319577 1381465 1474313 1576326 1657076 
2354.344 1686878 1645701 1530471 1357267 1156192 959660 796643 686383 638962 
2358.684 658541 745426 895774 1096562 1324862 1547495 1725864 1829400 
2362.541 1842510 1771607 1642208 1489873 1348293 1236000 1154996 1093672 
2366.399 1037870 977526 914168 858290 825556 827980 870707 948735 1050724 
2370.738 1161508 1267668 1359960 1432990 1485218 1517170 1531302 1530471 
2374.596 1518600 1500014 1478802 1458023 1439306 1422751 1407559 1393465 
2378.453 1381199 1373155 1372324 1380734 1398451 1422884 1448614 1467996 
2382.311 1474313 1462644 1431294 1382628 1322934 1260457 1203171 1158119 
2386.168 1128884 1115596 1115630 1124400 1137090 1149415 1159083 1164963 
2390.025 1166558 1163634 1155827 1142438 1123968 1101977 1080252 1063512 
2393.883 1057334 1065671 1090151 1128552 1176126 1225732 1269462 1300734 
2397.740 1314393 1307380 1278833 1230384 1165827 1091380 1015585 947705 
2401.598 896670 869246 867851 890926 932896 986858 1045642 1103870 1158883 
2405.937 1209750 1256236 1297377 1331110 1354642 1365610 1363184 1349523 
2409.795 1329049 1308145 1292525 1286078 1289767 1300900 1313861 1322136 
2413.652 1319611 1302395 1270160 1226330 1177787 1132240 1097459 1079090 
2417.510 1078359 1093074 1117623 1145893 1172339 1194865 1214601 1236099 
2421.367 1264976 1306549 1363317 1433821 1513247 1593053 1664260 1717481 
2425.224 1745691 1745558 1717714 1666489 1598873 1523222 1446487 1373621 
2429.082 1306882 1246002 1190213 1139615 1096861 1066667 1054544 1064242 
2432.939 1096031 1145395 1203171 1257765 1298972 1319444 1317517 1295881 
2436.797 1261354 1221579 1183801 1153833 1134798 1128718 1135761 1154996 
2440.654 1183269 1215166 1244373 1263946 1268332 1256336 1231381 1201543 
2444.511 1177189 1168883 1182904 1219818 1273682 1333802 1387315 1422385 
2448.369 1431826 1414506 1374751 1320574 1262517 1209318 1167023 1138286 
2452.226 1122207 1115497 1113603 1111577 1105265 1090716 1066103 1031161 
2456.084 988352 942559 901518 873197 863934 876915 909354 953550 998315 
2460.423 1033054 1050558 1049960 1036276 1020135 1012197 1020135 1045808 
2464.281 1085302 1130047 1169947 1197157 1207291 1199782 1176591 1140379 
2468.138 1093274 1037007 974305 909852 851617 809854 794120 810551 858655 
2472.478 931169 1015020 1094868 1159182 1201410 1222775 1230019 1232444 
2476.335 1236598 1243842 1250022 1246733 1226397 1185296 1126692 1059758 
2480.193 997385 950395 925059 919780 927782 939005 945647 944883 939836 
2484.532 937578 945182 966235 998448 1034682 1065006 1082246 1083641 1072546 
2488.872 1056072 1042786 1038269 1043816 1056470 1071616 1085667 1098290 
2492.729 1113138 1136625 1175063 1232112 1307048 1394562 1486282 1571571 
2496.587 1640811 1685814 1701048 1684350 1637585 1566283 1478802 1386318 
2500.444 1300268 1230251 1182472 1159049 1157089 1170378 1191675 1214103 
2504.302 1232777 1246035 1255273 1264045 1276540 1296646 1325693 1362054 
2508.159 1400512 1433721 1454598 1457856 1442763 1413443 1377643 1342876 
2512.016 1314725 1294187 1277637 1258762 1232976 1199683 1164099 1135528 
2515.874 1123569 1135097 1170312 1222974 1282289 1337657 1381299 1410783 
2519.731 1428934 1441167 1453302 1469027 1489374 1514078 1541410 1569908 
2523.589 1598408 1624947 1647098 1661865 1666987 1661599 1647663 1628605 
2527.446 1608185 1588065 1566915 1540546 1504037 1454100 1391337 1321040 
2531.303 1251385 1190745 1145561 1118486 1109351 1115630 1135163 1166192 
2535.161 1207358 1256103 1307380 1353545 1386318 1398650 1387781 1356403 
2539.018 1311900 1264610 1224038 1197789 1189648 1199683 1226330 1266804 
2542.876 1317417 1373887 1431660 1485218 1529373 1561196 1579718 1587267 
2546.733 1587699 1585272 1583210 1582778 1584340 1587433 1592821 1601933 
2550.591 1616001 1635789 1659304 1682654 1700317 1707136 1700184 1679361 
2554.448 1647064 1607154 1564089 1521327 1482027 1449146 1425609 1414473 
2558.305 1417598 1434585 1461779 1492699 1519332 1533762 1531036 1510288 
2562.163 1474812 1431726 1390074 1359494 1347728 1359860 1396224 1452205 
2566.020 1518135 1581181 1628738 1650557 1643273 1610347 1562426 1512150 
2569.878 1471587 1448282 1443561 1454233 1475444 1503472 1537719 1579652 
2573.735 1630169 1686546 1742331 1787377 1811466 1809337 1782653 1740368 
2577.593 1694662 1657807 1636820 1631765 1636521 1642840 1644403 1638882 
2581.450 1628938 1620124 1617963 1625080 1640479 1660402 1679993 1695926 
2585.307 1706371 1711327 1711161 1705772 1694196 1675270 1648528 1615369 
2589.165 1578720 1542674 1511352 1488144 1474912 1472784 1482060 1502707 
2593.022 1533629 1572535 1615369 1656810 1691236 1714554 1724966 1723902 
2596.880 1714687 1701847 1688275 1675236 1662298 1648029 1631266 1612642 
2600.737 1594350 1579219 1569941 1567780 1572535 1583044 1597210 1614304 
2604.594 1633395 1654215 1676367 1698421 1718013 1732617 1739503 1737740 
2608.452 1727295 1709664 1687244 1662530 1637585 1614072 1592588 1574198 
2612.309 1559500 1549258 1544436 1545600 1553747 1568611 1590426 1618262 
2616.167 1651189 1688109 1727694 1768380 1808538 1846237 1879314 1905072 
2620.024 1920880 1924907 1916420 1897451 1871693 1845505 1825474 1817455 
2623.882 1825108 1849132 1887001 1933460 1982421 2027458 2062880 2084586 
2627.739 2089813 2077794 2049596 2008850 1961285 1914157 1876019 1853957 
2631.596 1852626 1873191 1912560 1965112 2022631 2077894 2124574 2159170 
2635.454 2180815 2190905 2191705 2186210 2176752 2165330 2152677 2139324 
2639.311 2125539 2112188 2100734 2093076 2091578 2097604 2111455 2131599 
2643.169 2154375 2175887 2192204 2200896 2201928 2196567 2187275 2176419 
2647.026 2165031 2153509 2141422 2129235 2118081 2110922 2110656 2119546 
2650.884 2137426 2161967 2189074 2214017 2233833 2247822 2257813 2266973 
2654.741 2278731 2294952 2315271 2338023 2360677 2381599 2400323 2417549 
2658.598 2434642 2452035 2469063 2483492 2492556 2494522 2488790 2477027 
2662.456 2462398 2448636 2438807 2434575 2435941 2441672 2450002 2459533 
2666.313 2469729 2480693 2492923 2506753 2521850 2537347 2551745 2563444 
2670.171 2571276 2574543 2573376 2568310 2560311 2550379 2539847 2530082 
2674.028 2522383 2518284 2519017 2525582 2538447 2556878 2579309 2603375 
2677.885 2625909 2644077 2655445 2658345 2652478 2638610 2618575 2594842 
2681.743 2570676 2549212 2533548 2525849 2527649 2538747 2557244 2580342 
2685.600 2603675 2623342 2636110 2639943 2634843 2621942 2603675 2582242 
2689.458 2559577 2536714 2513785 2490323 2465831 2440140 2414184 2389428 
2693.315 2368106 2352681 2345219 2346885 2357612 2376468 2401356 2429977 
2697.173 2459766 2488757 2514851 2536647 2552745 2561877 2562944 2555578 
2701.030 2540147 2518484 2492889 2466630 2442605 2423013 2409452 2402089 
2704.887 2400756 2404721 2413284 2425545 2440273 2455867 2470462 2482259 
2708.745 2489757 2492956 2492723 2490823 2489257 2489357 2491490 2495189 
2712.602 2499288 2502587 2504720 2505586 2505353 2504253 2501954 2497488 
2716.460 2490457 2480959 2470196 2460832 2455767 2457700 2468296 2487258 
2720.317 2513118 2543479 2575543 2607108 2636410 2662179 2683349 2699219 
2724.175 2709454 2714523 2716056 2716390 2718457 2724625 2736028 2752034 
2728.032 2770674 2789148 2804555 2814893 2819562 2818895 2814926 2809890 
2731.889 2806022 2805088 2807990 2814326 2821930 2828099 2829400 2822763 
2735.747 2807156 2782712 2752534 2721191 2693418 2673081 2662246 2660279 
2739.604 2665013 2672580 2679615 2683082 2681649 2675348 2665579 2654311 
2743.462 2644010 2636876 2634476 2637176 2644810 2656045 2669413 2683749 
2747.319 2698919 2715223 2733394 2753968 2776309 2798952 2819062 2834536 
2751.177 2844075 2848344 2848944 2848310 2847910 2847910 2846809 2842407 
2755.034 2833469 2820496 2805989 2793383 2785613 2783379 2784779 2785613 
2758.891 2781144 2768273 2746965 2720357 2694185 2674748 2666646 2672481 
2762.749 2692384 2724625 2767006 2817527 2874459 2935768 2998320 3058079 
2766.606 3109669 3147882 3169109 3171478 3156526 3128057 3092383 3055843 
2770.464 3024478 3002458 2991648 2990814 2996919 3005827 3013635 3018239 
2774.321 3019540 3019907 3022676 3030517 3044532 3063651 3085074 3106098 
2778.178 3125321 3143643 3163635 3188201 3218576 3253193 3287679 3316158 
2782.036 3334222 3340432 3337761 3331984 3330081 3337460 3356159 3384876 
2785.893 3420508 3459850 3501501 3546262 3596107 3652372 3714560 3779464 
2789.751 3842271 3898000 3943504 3978112 4003760 4023725 4041216 4058440 
2793.608 4076869 4097439 4121522 4151160 4188527 4235066 4290511 4352355 
2797.466 4416116 4476572 4529804 4573600 4607856 4635216 4658827 4682439 
2801.323 4709235 4741491 4780250 4825277 4875034 4926875 4977280 5022629 
2805.180 5060944 5091986 5117935 5143282 5173392 5213128 5265411 5331017 
2809.038 5408744 5496148 5590518 5689608 5791273 5893600 5994708 6092714 
2812.895 6186541 6276019 6362556 6448942 6538205 6632936 6733779 6839929 
2816.753 6949506 7060761 7173190 7287265 7405280 7529834 7662686 7804315 
2820.610 7954191 8110938 8273955 8443555 8621095 8808480 9007548 9218283 
2824.468 9440091 9671160 9909301 10153271 10402605 10657888 10920389 
2827.843 11191480 11472811 11765558 12071448 12392794 12732632 13093803 
2831.218 13479781 13892855 14334574 14805540 15305709 15835218 16395342 
2834.593 16988198 17617990 18289924 19009558 19783652 20618570 21521038 
2837.969 22499356 23562154 24720530 25986750 27372300 28887524 30539452 
2841.344 32329846 34255448 36307804 38476004 40745544 43101724 45528556 
2844.719 48006552 50513952 53023408 55502044 57915460 60226452 62399096 
2848.094 64402200 66207224 67790584 69131560 70210912 71011408 71517352 
2851.469 71716528 71602648 71177816 70454368 69454344 68210520 66762120 
2854.845 65150164 63417152 61600712 59732104 57837628 55936640 54043636 
2858.220 52170280 50326176 48520732 46764384 45068004 43443696 41902680 
2861.595 40454096 39103936 37854760 36705248 35652388 34692540 33823272 
2864.970 33044186 32355976 31759568 31253270 30832180 30485244 30196550 
2868.346 29948090 29719674 29493826 29257142 29000754 28720266 28414840 
2871.721 28085348 27733992 27363232 26977484 26582002 26184806 25795498 
2875.096 25423998 25080194 24771882 24504278 24280318 24101060 23966236 
2878.471 23875068 23826132 23818082 23849026 23916940 24020020 24157138 
2881.847 24327870 24532534 24771180 25043126 25346224 25677406 26033010 
2885.222 26410348 26808914 27230318 27677946 28155376 28665222 29207916 
2888.597 29781414 30381684 31004098 31644120 32297686 32961172 33630976 
2891.972 34303172 34973612 35638936 36297500 36950464 37601556 38255980 
2895.348 38918672 39593232 40280396 40978600 41684556 42396124 43113104 
2898.723 43838232 44576652 45335348 46119980 46934200 47778284 48649280 
2902.098 49542528 50452580 51375356 52308956 53253820 54212340 55188748 
2905.473 56187640 57213524 58270400 59361080 60487068 61647644 62840536 
2908.849 64061412 65305412 66568040 67846280 69139648 70448832 71775152 
2912.224 73117640 74471344 75826008 77167216 78478872 79744256 80949968 
2915.599 82085192 83140320 84104184 84961552 85691560 86270528 86673976 
2918.974 86882640 86885560 86682592 86282488 85699800 84953296 84060272 
2922.350 83037568 81900104 80661344 79334464 77933032 76470272 74960832 
2925.725 73420096 71863072 70305216 68759328 67234488 65735012 64260492 
2929.100 62806540 61367700 59939932 58522076 57116428 55727516 54360008 
2932.475 53016820 51697816 50400852 49122776 47862732 46622488 45407368 
2935.851 44225096 43084088 41990668 40948156 39956532 39013164 38114300 
2939.226 37255816 36434948 35649800 34899244 34182204 33497524 32844618 
2942.601 32223310 31634710 31081112 30565580 30091246 29659894 29272276 
2945.976 28927010 28621830 28353824 28119918 27917868 27745648 27601566 
2949.352 27483160 27387580 27310900 27247394 27190878 27134126 27069198 
2952.727 26988414 26885434 26754500 26591726 26394784 26161650 25891324 
2956.102 25582926 25236330 24853378 24438166 23997714 23540536 23076324 
2959.477 22612190 22152422 21697180 21243562 20787396 20325768 19858840 
2962.853 19390022 18924308 18466592 18018546 17577378 17137072 16689155 
2966.228 16227460 15750414 15263289 14776983 14306493 13867163 13469392 
2969.603 13117366 12807087 12528438 12266054 12004919 11733217 11444336 
2972.978 11138445 10821593 10503885 10195704 9905742 9639246 9397292 9177333 
2976.836 8975210 8787009 8609841 8442339 8284391 8135414 7994385 7859003 
2980.693 7726395 7594097 7461064 7327937 7197007 7070865 6951796 6840737 
2984.551 6736942 6639227 6546042 6456879 6371870 6292424 6219211 6152597 
2988.408 6091807 6034788 5980128 5926650 5874859 5826834 5786203 5756990 
2992.265 5742452 5744500 5762631 5793993 5833652 5875799 5914928 5947174 
2996.123 5971394 5988963 6003711 6019803 6040936 6068152 6100073 6132602 
2999.980 6160562 6179047 6184794 6176761 6156462 6126956 6092042 6055182 
3003.838 6018729 5984025 5950096 5914693 5873784 5821697 5753599 5664934 
3007.695 5554372 5423740 5278759 5127758 4979491 4841762 4719350 4613516 
3011.552 4522070 4441455 4367483 4296568 4226434 4155743 4083324 4008008 
3015.410 3928458 3844043 3754563 3661260 3565872 3470371 3376127 3283840 
3019.267 3193241 3105130 3020474 2942006 2873859 2819395 2781078 2758802 
3023.125 2748699 2744364 2737996 2722124 2691351 2644077 2582976 2514484 
3026.982 2446804 2388829 2347618 2326331 2324099 2336125 2355413 2374070 
3030.840 2386463 2389995 2385064 2374436 2361910 2349650 2338623 2328396 
3034.697 2318170 2308243 2300315 2296551 2298783 2306677 2317204 2324932 
3038.554 2324132 2311074 2285725 2252085 2216582 2186143 2165563 2155074 
3042.412 2151611 2150146 2146050 2137393 2125140 2113220 2105861 2105495 
3046.269 2111721 2121011 2128469 2128902 2119280 2099269 2071036 2038644 
3050.127 2005555 1975264 1949935 1930099 1916187 1907568 1903508 1902908 
3053.984 1904373 1906170 1907102 1906236 1903374 1899248 1894555 1890096 
3057.842 1885637 1881178 1875920 1870063 1863807 1858516 1855188 1855022 
3061.699 1858216 1864073 1870995 1876851 1879747 1878349 1871760 1860712 
3065.556 1846304 1830831 1816823 1806775 1802516 1804512 1811499 1820450 
3069.414 1827371 1828302 1821049 1805710 1785448 1765619 1751879 1748685 
3073.271 1757202 1774236 1793998 1808072 1809769 1795063 1764721 1723802 
3077.129 1680991 1646100 1627076 1628372 1649825 1687144 1732118 1775267 
3080.986 1808172 1824309 1820982 1798989 1763057 1719677 1676500 1640213 
3084.844 1614903 1601700 1598042 1599838 1601567 1599306 1591158 1578089 
3088.701 1563025 1549590 1540147 1535259 1532931 1529307 1520761 1504702 
3092.558 1480763 1451274 1420390 1392900 1373155 1364148 1366873 1380169 
3096.416 1401409 1426507 1450642 1469060 1477970 1476142 1465370 1450709 
3100.273 1440237 1442464 1463541 1505067 1562659 1626676 1684151 1724068 
3104.131 1738838 1727561 1695327 1651887 1607121 1568378 1538351 1515076 
3107.988 1493996 1470257 1442298 1412445 1387083 1373754 1378241 1402340 
3111.845 1442464 1490338 1535724 1569808 1587200 1588231 1577856 1564621 
3115.703 1556041 1557604 1570307 1590859 1613373 1631599 1641743 1643173 
3119.560 1637951 1630335 1624182 1621588 1621887 1622852 1621422 1615568 
3123.418 1605425 1593220 1582611 1576758 1577257 1582977 1590393 1594251 
3127.275 1588730 1569343 1533862 1482858 1419925 1351418 1286078 1232544 
3131.133 1199383 1191808 1210946 1252747 1308610 1367638 1418396 1452936 
3134.990 1467996 1465636 1451872 1434918 1422418 1418629 1425044 1439638 
3138.847 1459086 1479599 1498850 1515608 1529939 1542408 1552982 1560763 
3142.705 1564953 1564321 1558635 1548759 1536289 1522956 1510354 1498983 
3146.562 1488909 1479699 1471255 1464506 1461214 1463475 1472318 1487712 
3150.420 1506863 1525815 1539315 1543871 1538916 1527012 1514677 1509157 
3154.277 1516705 1539648 1575528 1617032 1654548 1678496 1682754 1666189 
3158.135 1633195 1591158 1548559 1512416 1486515 1471687 1466168 1467897 
3161.992 1474978 1486182 1501144 1519298 1539382 1559666 1577856 1592322 
3165.849 1602432 1608518 1611677 1613007 1613140 1611910 1608584 1602831 
3169.707 1594417 1584440 1574298 1565618 1559699 1557272 1558402 1562592 
3173.564 1569043 1577490 1586934 1597011 1606722 1614870 1620124 1620923 
3177.422 1615269 1601800 1579419 1547894 1508392 1463275 1416235 1371360 
3181.279 1332938 1303725 1285114 1277039 1278667 1289002 1307247 1333071 
3185.136 1365477 1402240 1439239 1470822 1492200 1500413 1496489 1485019 
3188.994 1473947 1471255 1482292 1507927 1544436 1585205 1622552 1651754 
3192.851 1671112 1682255 1688874 1693531 1697789 1700217 1698554 1690637 
3196.709 1675236 1653417 1627608 1600237 1573632 1550056 1531335 1520030 
3200.566 1519298 1531867 1558735 1598241 1645035 1691335 1730022 1755239 
3204.424 1765685 1763756 1755139 1745525 1739670 1739304 1743495 1750482 
3208.281 1757934 1765120 1772140 1779925 1788875 1798224 1806908 1813063 
3212.138 1815758 1814461 1808771 1797725 1779792 1752345 1713556 1663728 
3215.996 1606190 1547296 1495226 1458355 1442065 1447816 1472751 1511485 
3219.853 1556972 1603163 1646432 1684716 1716716 1741799 1758466 1764887 
3223.711 1759497 1742198 1714221 1678363 1638716 1599206 1563889 1536090 
3227.568 1518168 1512050 1518002 1535891 1562792 1595315 1629005 1659071 
3231.426 1682321 1696791 1702545 1700184 1691535 1678064 1661799 1644936 
3235.283 1630701 1622386 1623184 1634658 1655579 1681789 1706803 1724068 
3239.140 1728226 1718479 1697622 1672143 1649725 1637419 1639248 1655180 
3242.998 1681856 1714022 1746556 1775200 1798290 1816257 1830465 1842777 
3246.855 1854356 1865471 1875454 1882908 1886768 1886302 1881777 1873757 
3250.713 1863607 1852560 1842311 1833193 1826073 1820982 1818154 1817854 
3254.570 1820283 1825807 1833659 1842477 1849665 1852859 1849332 1838451 
3258.427 1821747 1802416 1785315 1775167 1775034 1785281 1804046 1827071 
3262.285 1849964 1869497 1884971 1897218 1908866 1922577 1939285 1958556 
3266.142 1978227 1996301 2011613 2024762 2038044 2054190 2074765 2098836 
3270.000 2122209 2139025 2143154 2130400 2101133 2059817 2014809 1974465 
3273.857 1946074 1932495 1932295 1940516 1951832 1961884 1969473 1976363 
3277.715 1986149 2002026 2025228 2053658 2083155 2108358 2125040 2130700 
3281.572 2126105 2113453 2096372 2078327 2061614 2047932 2037978 2032319 
3285.429 2031120 2034349 2041274 2050695 2060715 2069072 2074465 2076263 
3289.287 2074931 2072001 2069038 2067440 2068106 2071169 2076596 2083754 
3293.144 2091678 2099868 2106794 2112054 2115883 2119479 2125306 2136294 
3297.002 2155540 2184012 2220512 2261311 2301148 2333959 2355147 2362276 
3300.859 2355280 2335991 2307943 2274700 2240061 2208123 2182647 2167262 
3304.717 2164565 2175187 2197432 2226806 2257780 2284760 2304479 2316337 
3308.574 2322533 2326964 2333093 2342621 2354647 2366940 2376435 2381499 
3312.431 2382165 2380333 2378167 2377035 2376935 2376535 2374070 2368273 
3316.289 2359044 2346918 2333260 2318702 2302846 2285659 2267139 2249553 
3320.146 2236464 2232601 2241926 2265507 2300715 2341755 2381466 2413950 
3324.004 2436408 2450502 2461032 2473561 2491690 2515351 2539713 2557911 
3327.861 2562110 2547379 2513851 2466530 2413584 2365874 2333026 2321301 
3331.719 2332993 2365408 2412618 2466330 2518250 2561911 2593409 2612142 
3335.576 2620209 2620909 2617375 2611508 2603675 2592809 2577976 2559944 
3339.433 2540946 2525582 2518550 2523916 2542946 2573910 2611542 2649344 
3343.291 2680315 2699152 2703120 2692017 2668713 2637243 2602875 2570810 
3347.148 2545346 2529515 2524083 2528349 2539613 2554311 2569443 2583442 
3351.006 2596309 2609908 2626842 2649011 2676581 2707921 2739396 2766939 
3354.863 2787347 2799419 2804321 2804788 2804621 2806622 2812392 2821263 
3358.720 2830401 2836070 2834436 2822063 2797918 2763204 2722324 2681282 
3362.578 2647777 2629009 2629509 2651011 2691117 2744698 2804221 2862418 
3366.435 2913485 2953916 2982473 2999588 3006595 3005360 2997720 2986109 
3370.293 2972998 2961155 2953015 2949412 2949746 2951981 2953415 2952148 
3374.150 2947744 2941639 2936402 2934167 2935568 2939304 2942607 2942874 
3378.008 2939738 2935334 2935034 2944542 2967493 3004159 3049603 3095052 
3381.865 3130527 3148416 3145913 3125521 3094151 3061082 3033454 3015036 
3385.722 3005060 2999722 2994083 2985042 2972965 2961555 2956451 2963323 
3389.580 2985809 3023377 3072427 3126189 3177253 3219077 3246984 3259903 
3393.437 3259068 3247952 3230159 3208962 3186665 3164870 3144044 3124820 
3397.295 3107867 3094752 3086943 3086743 3095820 3115676 3146847 3188534 
3401.152 3238238 3291986 3344706 3390720 3424950 3443118 3443919 3428123 
3405.010 3398701 3360567 3318762 3277530 3240073 3207494 3179689 3155792 
3408.867 3135300 3118045 3104430 3095253 3090914 3091148 3094785 3100659 
3412.724 3107300 3114441 3122718 3133731 3149117 3169977 3195911 3225285 
3416.582 3254862 3280935 3300166 3310182 3310115 3301334 3286811 3270352 
3420.439 3256665 3249387 3250589 3259302 3272956 3286644 3294690 3292987 
3424.297 3279399 3255663 3226821 3199850 3182660 3180490 3195511 3224685 
3428.154 3261906 3298797 3327577 3343437 3344839 3334388 3316893 3298363 
3432.011 3283339 3275126 3274559 3281302 3293789 3310148 3328445 3346843 
3435.869 3363472 3376762 3385878 3390887 3392790 3393158 3393926 3395696 
3439.726 3398200 3399903 3398801 3393725 3384609 3373823 3364273 3358964 
3443.584 3359732 3365308 3372921 3378197 3377496 3368413 3351751 3329747 
3447.441 3305641 3281703 3257466 3230593 3198148 3158328 3111805 3062850 
3451.299 3018239 2985709 2971597 2978503 3005160 3045933 3092750 3137536 
3455.156 3174516 3200517 3216006 3224418 3230059 3237570 3249621 3267281 
3459.013 3288981 3311985 3332719 3348412 3356893 3357995 3352519 3341935 
3462.871 3327610 3309948 3288681 3263208 3233264 3199983 3165771 3134398 
3466.728 3110136 3095619 3091748 3096921 3107366 3118679 3126522 3128024 
3470.586 3122084 3108601 3089146 3065219 3038292 3010565 2983741 2960288 
3474.443 2942073 2930464 2925227 2924493 2925127 2923793 2917955 2907014 
3478.301 2892437 2877061 2863819 2855481 2851512 2850345 2847310 2838138 
3482.158 2818828 2787947 2746198 2696318 2642743 2589809 2542446 2504987 
3486.015 2480459 2471395 2477360 2496655 2525149 2557678 2589375 2616009 
3489.873 2635976 2648511 2654378 2654578 2649611 2639143 2622709 2600075 
3493.730 2572310 2541646 2511652 2485558 2465664 2451769 2442039 2432476 
3497.588 2419281 2400323 2375569 2347651 2320301 2297817 2283227 2277765 
3501.445 2280230 2287957 2297584 2305811 2310674 2311174 2306977 2298583 
3505.302 2285992 2270037 2251952 2234200 2220212 2213618 2217214 2231602 
3509.160 2254350 2280163 2302547 2315771 2316271 2304112 2281695 2253184 
3513.017 2222110 2191538 2163333 2137959 2116316 2099336 2088881 2087183 
3516.875 2095273 2112887 2137659 2165896 2193136 2216115 2233001 2243558 
3520.732 2248221 2246989 2239462 2223709 2197666 2160702 2113486 2059983 
3524.590 2005255 1955260 1915022 1888432 1877118 1881044 1898749 1927403 
3528.447 1962916 2000129 2034250 2060083 2074332 2074931 2061981 2037146 
3532.304 2003358 1963781 1921812 1880279 1842311 1810934 1789573 1781189 
3536.162 1786579 1803680 1828036 1852526 1869630 1874322 1863640 1839083 
3540.019 1805211 1769212 1737740 1716616 1709098 1714986 1731519 1753576 
3543.877 1775333 1791104 1796959 1791769 1777962 1760229 1744028 1733216 
3547.734 1728359 1726064 1720708 1705539 1675702 1629570 1569974 1505067 
3551.592 1445323 1401110 1379803 1382662 1405897 1441899 1483290 1523189 
3555.449 1556540 1580051 1590892 1587866 1571571 1544569 1512382 1481993 
3559.306 1460649 1452703 1458089 1471454 1485385 1491535 1484886 1465736 
3563.164 1439306 1414207 1399215 1401974 1425477 1467298 1519199 1569409 
3567.021 1605525 1619027 1607453 1573732 1523754 1463275 1398451 1334999 
3570.879 1278302 1232909 1201410 1183103 1173634 1166923 1155495 1133867 
3574.736 1100482 1057932 1012396 971449 942691 930804 937976 962350 999577 
3579.076 1042620 1083342 1114500 1131044 1131143 1117291 1095366 1072912 
3582.933 1056769 1051588 1058397 1074573 1095466 1115862 1132439 1145063 
3586.791 1156093 1169647 1186924 1204533 1215432 1212541 1191177 1150943 
3590.648 1095234 1030364 964375 904340 855866 820975 797838 781738 767166 
3594.988 750836 732382 714924 702379 698496 703906 716717 732780 747451 
3599.327 756910 760163 759233 758437 762354 773407 791862 814933 838935 
3603.667 860083 876052 886145 890428 889665 883954 872898 856065 833988 
3608.006 809024 784858 765407 752396 744397 737195 725445 704802 674071 
3612.346 636540 599709 573199 563710 572834 595926 625192 652003 670222 
3616.686 677224 674403 667036 662224 667003 682965 706329 728399 739684 
3621.025 732813 705167 658640 599078 534548 474606 428402 402234 398652 
3625.365 415368 446545 483794 518426 544202 558103 562516 563743 568853 
3629.704 580432 596590 614010 630799 646993 663817 682434 702711 722790 
3634.044 739883 751201 755947 755748 753558 752695 754985 759964 765142 
3638.384 766934 762420 750404 732482 711307 689569 668927 649150 628676 
3642.723 605349 578341 548316 517862 490262 468801 456031 452847 457656 
3647.063 466844 476331 482069 482732 480178 477326 476629 478354 481306 
3651.402 484159 486912 490959 499020 514312 539657 576384 622272 670852 
3655.742 711307 732183 728565 704138 670388 640256 625324 631662 659569 
3660.082 703043 751732 794086 819714 823232 804643 768826 722259 671914 
3664.421 622637 576318 533255 493281 456097 423327 398188 385818 393114 
3668.761 426147 488935 577645 680410 781705 868582 935353 981312 1007780 
3673.100 1015618 1003994 970685 915131 843118 768262 706627 666571 646993 
3677.440 641716 644504 650809 658209 665742 674403 686217 703143 726541 
3681.780 755051 785456 812244 829241 832129 819979 796111 766768 739850 
3686.119 722657 719305 730689 753027 779348 801456 814502 817456 812311 
3690.459 801091 784958 764080 739252 713298 689801 672180 662788 660996 
3694.798 664082 667998 668961 665642 659735 654758 655089 663153 678883 
3699.138 699990 723155 746322 769390 794352 824129 859585 897932 933560 
3703.478 959726 971349 965671 942658 903676 851849 790468 723454 656019 
3707.817 594964 548250 524862 531729 570810 635943 713365 784327 833955 
3712.157 857061 858688 849558 839831 835715 838636 846736 856995 867055 
3716.496 874857 879704 881397 879604 873993 863901 848861 828743 803746 
3720.836 773606 738223 697069 650676 601202 552861 511559 482766 470990 
3725.176 477093 498058 527582 558369 584712 604387 617925 627415 633587 
3729.515 636109 632492 620380 598581 569649 539691 517265 510199 522340 
3733.855 552828 597121 648187 698032 738788 765507 775398 769025 748712 
3738.194 719604 688009 662224 650245 657313 683662 723753 768295 804078 
3742.534 818220 800759 750936 682368 620812 589025 590717 613578 640256 
3746.874 657976 658972 639925 602197 551004 495172 444919 410061 396364 
3751.213 405318 434272 478652 532525 590419 647689 701218 749176 790601 
3755.553 824627 850654 868084 876616 876616 868814 853974 832660 805373 
3759.892 772245 734606 694912 656948 625026 603724 596656 606610 633620 
3764.232 674370 721098 762752 789472 795348 780742 750371 712236 675465 
3768.572 648419 639195 651738 684823 731619 782668 829009 863934 884319 
3772.911 889665 881530 862407 836080 806070 775830 748546 726507 712236 
3777.251 707590 713564 729860 752927 777390 796643 806667 807331 802850 
3781.590 799298 802684 817257 843217 877446 911977 937876 947440 938042 
3785.930 912276 877944 845043 822402 816991 831565 864166 908457 955044 
3790.270 993931 1015817 1015485 992238 950495 897766 842553 792659 752728 
3794.609 724881 708851 702612 703441 709150 718011 728997 741343 754387 
3798.949 767664 781406 796543 815000 837873 864166 889432 907926 915364 
3803.288 911213 897102 876816 854571 835383 823764 822071 829905 842753 
3807.628 855335 863867 867984 869511 871470 875919 883821 894844 907096 
3811.968 918219 925823 927948 923399 911147 891225 864067 831731 797041 
3816.307 762619 729926 698729 668828 641285 620347 613313 629605 676394 
3820.647 751400 837507 908457 944551 941131 906266 852812 793954 740215 
3824.986 698297 671649 658972 656550 658806 662755 668231 677887 694813 
3829.326 721131 756645 798634 841856 880766 911844 933527 947506 955575 
3833.666 959295 958298 951259 936747 914965 889166 866291 855036 863934 
3838.005 897434 953483 1022958 1093373 1153468 1194566 1212641 1207889 
3841.863 1183369 1144398 1097393 1049894 1007548 974504 951856 938142 931169 
3846.202 928347 927284 926686 925126 921473 914334 902647 885448 863469 
3850.542 838570 815000 799696 801024 826220 875089 934656 985363 1013592 
3854.881 1017146 1000905 971017 932398 888004 839831 789439 739053 691726 
3859.221 651506 623333 612417 622836 656516 712004 783564 863203 941396 
3863.561 1008511 1057367 1083707 1087560 1072812 1046240 1014356 982806 
3867.418 956173 938308 932364 940201 959992 984898 1005422 1014190 1007913 
3871.758 987688 955941 915496 869810 822170 776792 737327 706395 684591 
3876.097 671483 665742 666206 671615 681306 695244 713564 737327 766104 
3880.437 797705 826851 847068 852247 839034 807265 760794 707457 658806 
3884.776 629140 629937 663585 720865 786917 848430 898629 936050 962914 
3889.116 981710 993533 997916 992536 975201 946112 908291 867221 829009 
3893.456 798070 777058 767399 769158 781971 804244 833623 865926 895209 
3897.795 915662 922635 915164 897500 878276 866789 869611 887672 916559 
3902.135 948768 976729 996289 1006850 1011267 1012596 1012297 1009441 
3905.992 1001404 986326 964375 938308 912309 890295 874624 864930 858356 
3910.332 851351 840694 825988 809423 794684 785489 783663 788311 797373 
3914.671 807298 816527 824859 834619 849127 870707 899127 931435 962018 
3919.011 985396 997784 997618 986758 969323 950462 935386 927682 930140 
3923.351 942691 962947 987555 1011500 1031062 1043915 1049894 1050491 
3927.208 1047668 1043085 1038402 1034350 1031925 1031726 1034383 1040062 
3931.065 1048034 1056902 1064143 1068062 1067830 1064143 1059493 1056470 
3934.923 1057267 1062283 1070288 1078359 1083773 1083707 1077296 1065073 
3938.780 1048532 1029168 1007647 983703 956704 927151 896836 869910 851384 
3943.120 845342 853675 874093 902348 932962 960324 981544 995359 1003064 
3947.459 1007647 1012928 1021995 1035446 1051222 1065372 1072812 1069623 
3951.317 1053713 1025947 989348 947971 906498 868017 834453 806203 783896 
3955.656 768594 762785 768660 787713 818186 855202 890594 915563 924329 
3959.996 915662 894612 870607 855335 857692 880932 921307 970320 1017743 
3964.336 1054809 1077064 1085036 1082578 1075104 1067896 1065073 1068394 
3968.193 1078691 1095234 1116228 1138751 1159116 1172903 1176957 1169913 
3972.051 1153402 1132339 1111843 1096961 1089254 1086464 1083873 1075635 
3975.908 1058596 1033121 1003795 977227 959892 954878 961353 974836 989182 
3980.248 999345 1003097 1001769 999643 1001636 1010902 1028537 1052451 
3984.105 1078658 1102741 1121842 1134465 1141143 1143634 1143767 1142239 
3987.962 1138983 1132406 1121177 1103870 1081216 1055009 1028139 1003762 
3991.820 984002 969589 959129 951026 943555 935917 929642 927018 930903 
3996.159 942957 962881 988352 1015751 1041557 1063312 1080219 1093141 
4000.017 1102973 1109849 
##END=
