##TITLE=ad17_2 Oct 06 11:29:54 2026 (GMT+02:00)
##JCAMP-DX=5.01  $$ Nicolet v. 1
##DATATYPE=INFRARED SPECTRUM
##ORIGIN=Vojna akademija
##OWNER=Nicolet
##LONGDATE=2026/10/06
##TIME=11:30:42
##SPECTROMETER/DATA SYSTEM=Nicolet iS20
##DATA PROCESSING=
Ratio against background
%Transmittance->Absorbance
Truncated
ElementMultiply or ElementDivide
##COMMENTS=
Number of sample scans: 8
Collection length: 11,90 sec
Sample gain: 8,0
Background collected on: Tue Oct 06 11:28:36 2026 (GMT+02:00);
Number of background scans: 8
Background gain: 8,0
Sample spacing:  1,000
Number of scan points: 12415
Resolution points: 8286
Number of FFT points: 65536
Apodization: N-B strong;
Phase correction: Mertz;
Laser frequency: 15798,00 cm-1
Number of rejected sample scans: 0
Number of rejected background scans: 0
Bench serial number: BER2010005;
##RESOLUTION= 4,000
##XUNITS=1/CM
##YUNITS=ABSORBANCE
##FIRSTX=400.156891
##LASTX=4000.123047
##FIRSTY=0.015884
##MAXX=4000.123047
##MINX=400.156891
##MAXY=0.238372
##MINY=-0.000529
##XFACTOR=1.000000
##YFACTOR=1.000000E-009
##NPOINTS=7468
##DELTAX=0.482117
##ZPD=6100
##XYDATA=(X++(Y..Y))
400.157 15884293 13658709 11802600 10415263 9653306 9649782 10422187 
403.532 11833856 13581919 15278080 16514758 17042778 16860730 16223744 
406.907 15506715 15060029 15078176 15552662 16318960 17152272 17879380 
410.281 18428078 18837272 19199854 19609428 20108882 20688762 21305536 
413.656 21919566 22510106 23077022 23625228 24141796 24588002 24909412 
417.031 25042004 24940118 24601082 24079974 23470336 22856104 22279708 
420.406 21754308 21299866 20951868 20750170 20719482 20850416 21097692 
423.781 21397140 21708570 22042288 22458600 23016962 23728346 24515740 
427.155 25238578 25728872 25877080 25698182 25348154 25073246 25103786 
430.530 25572700 26433376 27471898 28372958 28871978 28842054 28342790 
433.905 27573992 26812686 26310852 26200116 26461372 26926470 27362066 
437.280 27548784 27376924 26854910 26097254 25268568 24550836 24092060 
440.655 23955240 24093914 24345112 24484330 24276080 23590488 22460868 
444.030 21086284 19750882 18735206 18244446 18346120 18976156 19960338 
447.404 21090770 22173448 23094286 23826728 24399644 24852150 25204480 
450.779 25450980 25578324 25591466 25537664 25494162 25551192 25772222 
454.154 26173720 26727826 27373852 28038478 28627068 29034442 29150686 
457.529 28888266 28235882 27289730 26241402 25299824 24649122 24400872 
460.904 24572084 25091078 25809914 26549668 27145976 27521036 27693800 
464.278 27754936 27801388 27886704 27985502 28008436 27836076 27386840 
467.653 26665250 25770954 24859938 24082532 23543402 23265368 23196192 
471.028 23227860 23245408 23159004 22934272 22595156 22200996 21809246 
474.403 21451548 21134598 20849584 20590742 20364414 20189264 20087956 
477.778 20072860 20134564 20236058 20318756 20319242 20173472 19831302 
481.152 19267424 18482876 17508586 16402567 15250488 14151123 13212416 
484.527 12535361 12179526 12146268 12362384 12702744 13012812 13160397 
487.902 13076046 12769277 12332999 11913198 11673411 11726784 12110492 
491.277 12772280 13600620 14452739 15205431 15791267 16196297 16447542 
494.652 16582670 16630417 16602911 16501438 16326977 16080821 15758729 
498.027 15335296 14764710 13988315 12970443 11737132 10420321 9255040 
501.401 8524240 8483760 9228403 10645426 12430844 14221475 15684040 16612895 
505.258 16969972 16854390 16451810 15950389 15497341 15149673 14888890 
508.633 14657360 14407250 14123568 13825089 13542606 13296623 13082637 
512.008 12874183 12640347 12368657 12076934 11813903 11640124 11607316 
515.383 11741116 12030705 12429173 12865719 13270658 13582022 13757606 
518.758 13777237 13640041 13364308 12988128 12566499 12162897 11840086 
522.132 11654997 11645433 11828884 12199631 12729492 13365503 14033862 
525.507 14653692 15142605 15442506 15534529 15441134 15213460 14910424 
528.882 14580735 14246674 13907532 13549306 13164222 12765081 12393272 
532.257 12106506 11965476 12007099 12229314 12587816 13009397 13411772 
535.632 13724843 13913211 13974217 13932507 13822488 13682371 13547870 
539.007 13451140 13427423 13509450 13720362 14064492 14519165 15032313 
542.381 15529378 15938805 16200116 16281052 16177485 15907492 15501873 
545.756 14996985 14437735 13873732 13359797 12955218 12708918 12652218 
549.131 12786646 13081203 13474073 13887792 14254754 14525435 14681727 
552.506 14732215 14703594 14628367 14535611 14447978 14376459 14323719 
555.881 14285742 14255404 14225001 14189327 14147769 14104639 14067607 
559.255 14044506 14040296 14054464 14082221 14117270 14156668 14203740 
562.630 14268861 14365774 14508270 14704725 14955897 15254228 15585803 
566.005 15931759 16267119 16565526 16800178 16949228 17004736 16980032 
569.380 16911022 16845228 16831210 16898484 17046776 17244692 17444356 
572.755 17601738 17693978 17733564 17764630 17848550 18034190 18342076 
576.130 18749148 19199092 19616672 19937374 20125194 20174616 20106836 
579.504 19960790 19787120 19634526 19546656 19551090 19650542 19819996 
582.879 20007870 20152022 20190932 20089692 19856552 19546862 19243940 
586.254 19034692 18981104 19096248 19344846 19654980 19950000 20165420 
589.629 20271538 20274730 20209468 20121514 20048710 20014740 20020430 
593.004 20048396 20068108 20047286 19955552 19774080 19504580 19174052 
596.378 18835610 18554382 18396240 18401702 18572122 18863674 19199610 
599.753 19487980 19646070 19630088 19438982 19110338 18698710 18262692 
603.128 17848582 17484094 17183260 16949058 16778998 16667945 16610932 
606.503 16604666 16649112 16746799 16901066 17108638 17353514 17598840 
609.878 17789690 17866226 17776710 17502374 17068176 16544392 16019348 
613.253 15579141 15277978 15121608 15072413 15065758 15040477 14955658 
616.627 14807597 14622472 14443216 14306905 14232841 14222981 14268314 
620.002 14359369 14491792 14665447 14874420 15099857 15310171 15462867 
623.377 15522030 15471932 15324656 15117765 14903532 14733722 14641355 
626.752 14635563 14703560 14821619 14964197 15112688 15258175 15396056 
630.127 15522854 15632378 15715783 15765464 15778143 15757149 15710905 
633.501 15650515 15585117 15518184 15448927 15373879 15292701 15210852 
636.876 15140478 15098347 15099891 15151732 15248017 15369589 15490335 
640.251 15584464 15637908 15655426 15662536 15697507 15796904 15983663 
643.626 16254082 16575750 16894350 17154720 17314548 17361134 17313616 
647.001 17217388 17127352 17088234 17125662 17238040 17403348 17588004 
650.375 17760798 17900096 17994092 18040960 18045348 18016956 17969124 
653.750 17920470 17891432 17900754 17962390 18081202 18252704 18466522 
657.125 18710574 18974252 19248928 19525062 19789132 20022962 20209918 
660.500 20340978 20422932 20478154 20541478 20643240 20797858 20994988 
663.875 21203204 21381548 21492802 21516824 21453218 21326732 21187304 
667.250 21119988 21218790 21525390 21981044 22471684 22920510 23317072 
670.624 23688804 24068102 24475110 24912606 25363716 25799436 26191916 
673.999 26521490 26787382 27008088 27219064 27463780 27787328 28227396 
677.374 28802504 29506416 30305148 31145894 31962380 32694620 33308018 
680.749 33800780 34204576 34567556 34937844 35340616 35773800 36209976 
684.124 36614072 36956312 37224008 37423832 37573952 37694420 37800972 
687.498 37905376 38018996 38156624 38339612 38589516 38924144 39349748 
690.873 39857224 40422896 41011920 41587296 42111232 42552620 42890168 
694.248 43114168 43232592 43272748 43281828 43314296 43422088 43640204 
697.623 43976476 44411980 44908284 45423776 45919876 46374112 46779256 
700.998 47137396 47453360 47732272 47979096 48202512 48417112 48643536 
704.373 48901224 49205596 49565332 49983544 50464936 51019336 51660832 
707.747 52403040 53247900 54178560 55159176 56146576 57101684 58004936 
711.122 58862524 59699904 60544584 61409644 62286304 63150092 63980476 
714.497 64781056 65590404 66476008 67515176 68759520 70218544 71850672 
717.872 73581112 75315568 76970640 78488632 79831488 80972648 81882704 
721.247 82523032 82857976 82866792 82556648 81960280 81126272 80101680 
724.621 78918176 77595096 76144368 74582792 72941472 71260856 69583760 
727.996 67945384 66365316 64850412 63399284 62009732 60678948 59402336 
731.371 58168256 56955692 55739004 54499236 53232016 51953216 50693584 
734.746 49486156 48348888 47278648 46251764 45240060 44224876 43210012 
738.121 42220004 41290440 40446972 39691788 38998664 38324844 37627316 
741.496 36881060 36089596 35282176 34500648 33780080 33141408 32585814 
744.870 32100852 31668424 31273354 30905002 30553706 30208164 29852784 
748.245 29470916 29053110 28601410 28131194 27664314 27221570 26812860 
751.620 26434328 26072098 25710906 25344396 24977212 24623490 24299382 
754.995 24014524 23767088 23547530 23345324 23157888 22993694 22868816 
758.370 22797576 22781930 22805746 22836442 22833754 22766846 22623534 
761.744 22415266 22170100 21923852 21705852 21529742 21392268 21276550 
765.119 21160828 21023680 20851078 20637020 20384314 20103330 19812402 
768.494 19535738 19297352 19118510 19008174 18959574 18948810 18941126 
771.869 18902814 18808240 18652844 18450064 18227514 18012122 17820344 
775.244 17650564 17484368 17292652 17049844 16745351 16388770 16008243 
778.619 15642202 15329598 15095877 14948250 14875071 14853539 14856145 
781.993 14860019 14852853 14832418 14803963 14775989 14756758 14752438 
785.368 14765807 14799437 14854979 14933057 15030735 15139139 15241496 
788.743 15313638 15330560 15270290 15122603 14893930 14607771 14297487 
792.118 13999230 13743720 13547426 13413002 13330925 13285417 13259386 
795.493 13238924 13216310 13189565 13162345 13142740 13142740 13175391 
798.867 13250401 13370151 13524045 13687706 13825225 13901887 13891350 
802.242 13789927 13618739 13422400 13253134 13154114 13148546 13231203 
805.617 13372747 13529685 13663598 13749739 13784351 13781375 13764411 
808.992 13756648 13773064 13819615 13894565 13992216 14106145 14229794 
812.367 14355225 14471203 14564220 14621856 14637345 14614008 14567920 
815.742 14523825 14508373 14543730 14639196 14789050 14972530 15161853 
819.116 15326955 15442644 15493769 15476567 15398733 15277188 15137183 
822.491 15007582 14915123 14883301 14926095 15045417 15230378 15460223 
825.866 15706783 15941108 16142270 16298216 16408933 16484126 16539160 
829.241 16589072 16643260 16703650 16764533 16816710 16851602 16867376 
832.616 16870442 16875678 16900000 16959910 17063282 17208426 17384620 
835.990 17576618 17769600 17953272 18124312 18284532 18438138 18587684 
839.365 18733476 18873502 19006200 19131634 19253224 19375748 19502812 
842.740 19633694 19763990 19886520 19995726 20092156 20183122 20280702 
846.115 20398030 20543390 20714860 20900236 21079952 21232604 21340686 
849.490 21396446 21402604 21372360 21324364 21280586 21261380 21281874 
852.865 21350746 21468292 21627034 21812000 22003246 22179758 22320796 
856.239 22411148 22443072 22417430 22342458 22233950 22112464 21998854 
859.614 21912666 21866772 21864054 21896950 21949050 22000284 22031168 
862.989 22030540 21998332 21946400 21893778 21862278 21869910 21925420 
866.364 22027820 22167030 22327146 22488470 22632366 22742440 22805432 
869.739 22813848 22766358 22670730 22541826 22402114 22277232 22188022 
873.113 22148936 22161904 22216582 22291184 22359516 22397194 22388786 
876.488 22332762 22242844 22145936 22071500 22045390 22078474 22163126 
879.863 22272420 22371170 22428560 22427372 22374134 22295404 22230324 
883.238 22211212 22252992 22343018 22447052 22516422 22507802 22398728 
886.613 22193672 21924410 21637310 21384124 21203758 21118562 21131014 
889.987 21228046 21384470 21569506 21754308 21911970 22022314 22075090 
893.362 22068258 22008474 21906916 21776150 21625014 21457780 21277384 
896.737 21087848 20898776 20725598 20584036 20485900 20432482 20413658 
900.112 20411158 20408796 20399178 20389452 20397856 20445678 20547384 
903.487 20701446 20889842 21085032 21262562 21409114 21528872 21638424 
906.862 21757478 21895032 22042880 22175156 22258780 22264780 22180142 
910.236 22013390 21791410 21550704 21323354 21133832 20991894 20895298 
913.611 20834112 20796154 20770226 20746938 20720420 20687198 20646924 
916.986 20602900 20561420 20529910 20513306 20511846 20519316 20524214 
920.361 20512090 20471798 20398448 20294902 20170416 20039028 19915102 
923.736 19810910 19735312 19693184 19685452 19709618 19760348 19830608 
927.110 19912466 20000202 20091114 20186106 20288618 20401816 20524180 
930.485 20648974 20762264 20848714 20895890 20900376 20870510 20825632 
933.860 20793096 20797996 20860012 20987060 21175230 21410610 21674924 
937.235 21951454 22227568 22496810 22757454 23009588 23252540 23483382 
940.610 23696922 23887742 24053428 24197038 24328046 24462280 24617738 
943.985 24808786 25042144 25313102 25606756 25900326 26171784 26404996 
947.359 26593840 26742768 26864286 26973358 27081858 27198038 27326320 
950.734 27469358 27631508 27818520 28035826 28285248 28562554 28856362 
954.109 29150720 29430638 29685506 29913442 30119798 30315308 30511476 
957.484 30716196 30933856 31164976 31408508 31662330 31923328 32187230 
960.859 32446404 32691620 32913596 33106436 33270776 33415034 33552646 
964.233 33697712 33860988 34045360 34244620 34444616 34627408 34773728 
967.608 34866212 34893136 34847972 34731052 34549080 34315616 34047800 
970.983 33763352 33479702 33210396 32966570 32758966 32597960 32494716 
974.358 32458722 32493252 32592460 32740812 32916420 33093668 33251532 
977.733 33377140 33466532 33522866 33552646 33562956 33560556 33554402 
981.108 33559164 33593740 33680236 33835164 34062100 34345880 34654608 
984.482 34947468 35183212 35336192 35400428 35390688 35331952 35252060 
987.857 35169668 35089660 35006076 34907068 34783492 34633040 34461584 
991.232 34281444 34106576 33948296 33812776 33700828 33609132 33531886 
994.607 33463418 33399470 33338464 33280506 33227816 33182070 33143054 
997.982 33108618 33075112 33039678 33002642 32969788 32950200 32953880 
1001.356 32985694 33043076 33114086 33183218 33238262 33276714 33308804 
1004.731 33354670 33436578 33566784 33742188 33942276 34138724 34303100 
1008.106 34419760 34490604 34532648 34568596 34616604 34684252 34767808 
1011.481 34858096 34948148 35039120 35140312 35263632 35416352 35597180 
1014.856 35795388 35998404 36197080 36392356 36593884 36815884 37067620 
1018.231 37348388 37645784 37940956 38213284 38447768 38636992 38779024 
1021.605 38875292 38927912 38942376 38929036 38905224 38892616 38909032 
1024.980 38960860 39037776 39116952 39172100 39189908 39179280 39174316 
1028.356 39221024 39356244 39590544 39896596 40214456 40467664 40595340 
1031.731 40568928 40405000 40154232 39887404 39667572 39531276 39483992 
1035.106 39502788 39550440 39585972 39579692 39516000 39393464 39221460 
1038.481 39017728 38804020 38601180 38427132 38291876 38195772 38130652 
1041.857 38083552 38042032 37998996 37955564 37919588 37902156 37912536 
1045.232 37955964 38033788 38145012 38287932 38461304 38662420 38885260 
1048.607 39119344 39353120 39578132 39794360 40013824 40258112 40548524 
1051.982 40899552 41309424 41760464 42222344 42664316 43065356 43418500 
1055.358 43730852 44016256 44288384 44555140 44818640 45079952 45342596 
1058.733 45614596 45905588 46220364 46554288 46892416 47214480 47501740 
1062.108 47746880 47956596 48150420 48350552 48576684 48838412 49133832 
1065.483 49453484 49783768 50112264 50427572 50720616 50985128 51219492 
1068.859 51430000 51633776 51857400 52128212 52467608 52881548 53359868 
1072.234 53879008 54415064 54954788 55501704 56073620 56692804 57374124 
1075.609 58115640 58899556 59701236 60504320 61310156 62141228 63029132 
1078.984 64003124 65072328 66220960 67410056 68592984 69730248 70799496 
1082.359 71799464 72742144 73644472 74519296 75374280 76214064 77044896 
1085.735 77878080 78729312 79614920 80549928 81543792 82600616 83716816 
1089.110 84879880 86063888 87227192 88319224 89284536 90081216 90696040 
1092.485 91151152 91498416 91799088 92106112 92442456 92799328 93143848 
1095.860 93440648 93663984 93806576 93873768 93869904 93787328 93604496 
1099.236 93292760 92833632 92230488 91512520 90724080 89912776 89116616 
1102.611 88357192 87645440 86989496 86399792 85891560 85477624 85161288 
1105.986 84932784 84773424 84665288 84601760 84592664 84663680 84844960 
1109.361 85157944 85609224 86189136 86880376 87664744 88530024 89469872 
1112.737 90472592 91514688 92555576 93539360 94412240 95132200 95679832 
1116.112 96057688 96280880 96363480 96311280 96123256 95799128 95347528 
1119.487 94789448 94150488 93450144 92693608 91871136 90967432 89978320 
1122.862 88921064 87839568 86792760 85834624 85004792 84317616 83769528 
1126.238 83353072 83069984 82939544 82997256 83279456 83814904 84612792 
1129.613 85662496 86939672 88417712 90076528 91903840 93894576 96043640 
1132.988 98342272 100780032 103346792 106036544 108846576 111769056 
1135.881 114779952 117834944 120865448 123795656 126564904 129138992 
1138.774 131520720 133738000 135824896 137798144 139649744 141350864 
1141.667 142870960 144193424 145326720 146296944 147137232 147872032 
1144.560 148513728 149071248 149561632 150016560 150481248 150994960 
1147.453 151575424 152208992 152858432 153480336 154052160 154587344 
1150.347 155131872 155741392 156451504 157259728 158122960 158977040 
1153.240 159762928 160455072 161066640 161636000 162199888 162773664 
1156.133 163340912 163864880 164305168 164639600 164868560 165008608 
1159.026 165074992 165071200 164987392 164811568 164542304 164195632 
1161.919 163797248 163367792 162904208 162376784 161737360 160946096 
1164.812 159993728 158910688 157754352 156585552 155439952 154312752 
1167.705 153163488 151937888 150597296 149133328 147571024 145951888 
1170.598 144317344 142690416 141075344 139466752 137861632 136265696 
1173.491 134690336 133142096 131613616 130082056 128520504 126910792 
1176.384 125258264 123591880 121955376 120385424 118897672 117479656 
1179.277 116100712 114726656 113338088 111939840 110555992 109215912 
1182.170 107938576 106725480 105561384 104424552 103296904 102171256 
1185.063 101050152 99938688 98839088 97746792 96655120 95562064 94475904 
1188.439 93414480 92398344 91442128 90545976 89696256 88869064 88042384 
1191.814 87203256 86350400 85491536 84635864 83787408 82943552 82097720 
1195.189 81244744 80386144 79530072 78688752 77872728 77089096 76340840 
1198.564 75629840 74960632 74340312 73776480 73271688 72820152 72407008 
1201.940 72013576 71624568 71233880 70846232 70473816 70128736 69816080 
1205.315 69531680 69264376 69003720 68745360 68493400 68256928 68044504 
1208.690 67857240 67687840 67523648 67354688 67178704 67004308 66845244 
1212.065 66714904 66617868 66548884 66495240 66445008 66393888 66348024 
1215.441 66320384 66324592 66369028 66453224 66570476 66712780 66875620 
1218.816 67059368 67265232 67490056 67722496 67944528 68138760 68296440 
1222.191 68424768 68545616 68690592 68886752 69147608 69469464 69834992 
1225.566 70220528 70606144 70981640 71343664 71691392 72020968 72323480 
1228.942 72588992 72813216 73002584 73173248 73345944 73536688 73748280 
1232.317 73969880 74181768 74366104 74513000 74624808 74710632 74779656 
1235.692 74832720 74861664 74852016 74793120 74682728 74529880 74349080 
1239.067 74152872 73944416 73716872 73455840 73148744 72790528 72385008 
1242.443 71941584 71467984 70965368 70427552 69844056 69207480 68517992 
1245.818 67785352 67024492 66250020 65474464 64706056 63951336 63218996 
1249.193 62521108 61870864 61279860 60752988 60287660 59875424 59506900 
1252.568 59174568 58875160 58607652 58369652 58153860 57948588 57739860 
1255.943 57517992 57280660 57034580 56789240 56552456 56323648 56093604 
1259.319 55848680 55579156 55286052 54982504 54688112 54419232 54181600 
1262.694 53967168 53758164 53536444 53292552 53029100 52758740 52496620 
1266.069 52253868 52031984 51824508 51620828 51412468 51196676 50976708 
1269.444 50758972 50549984 50354788 50175520 50014660 49875040 49760100 
1272.820 49671864 49608788 49564736 49530312 49496292 49456488 49409444 
1276.195 49356916 49299936 49235320 49154092 49042608 48887504 48681228 
1279.570 48423340 48120068 47779648 47407532 47003864 46565424 46090800 
1282.945 45584200 45059144 44535940 44034412 43570636 43151492 42775528 
1286.321 42436640 42129120 41850576 41601484 41383000 41193196 41025972 
1289.696 40872868 40726656 40584900 40450972 40331808 40233212 40155396 
1293.071 40090780 40026684 39950432 39854172 39738732 39613884 39494408 
1296.446 39394224 39323596 39286816 39282896 39306620 39351052 39405940 
1299.822 39457576 39489976 39486712 39434640 39329544 39177468 38993624 
1303.197 38795868 38599944 38413844 38237236 38064888 37892576 37721852 
1306.572 37560768 37420688 37310624 37232276 37179212 37139040 37100388 
1309.947 37058200 37016416 36986292 36980156 37006640 37065276 37147268 
1313.323 37236860 37318744 37381072 37416352 37420652 37391364 37325896 
1316.698 37223540 37087252 36926296 36754796 36589524 36443416 36321276 
1320.073 36218908 36125600 36028712 35917704 35787580 35637320 35468232 
1323.448 35281600 35077160 34853964 34611260 34350828 34077008 33796372 
1326.824 33517890 33251032 33006500 32796018 32629318 32513890 32451152 
1330.199 32433838 32447048 32471146 32488428 32487466 32469254 32445942 
1333.574 32438156 32466076 32544460 32678078 32861844 33082872 33326834 
1336.949 33582680 33843364 34106360 34369584 34629704 34881360 35119728 
1340.325 35343344 35554992 35760560 35965000 36169788 36372256 36567500 
1343.700 36752776 36928708 37100604 37275852 37460488 37654380 37851580 
1347.075 38041632 38215272 38368240 38502508 38624428 38740116 38851196 
1350.450 38953428 39039624 39104552 39149512 39183200 39217904 39264724 
1353.826 39328020 39404164 39483628 39556536 39618928 39673600 39727296 
1357.201 39785028 39845276 39899392 39934628 39940256 39914320 39865724 
1360.576 39812664 39774388 39766036 39789820 39837032 39891984 39942872 
1363.951 39987228 40030716 40081004 40143108 40216712 40297560 40381512 
1367.327 40467228 40558560 40662176 40782452 40918412 41062392 41205400 
1370.702 41342840 41480584 41635796 41836236 42113352 42490384 42973932 
1374.077 43546716 44172164 44803284 45397728 45920208 46333964 46597552 
1377.452 46662512 46479012 46017488 45280144 44306880 43158444 41902424 
1380.828 40592684 39264508 37946128 36665336 35451980 34337060 33338856 
1384.203 32456830 31669710 30943536 30240382 29532446 28814224 28101818 
1387.578 27424320 26806836 26259070 25776300 25346926 24960332 24611110 
1390.953 24296646 24014874 23760018 23522660 23292390 23063570 22840458 
1394.328 22639102 22481142 22384250 22353098 22379682 22450156 22552228 
1397.704 22676804 22817164 22965362 23109100 23233732 23327352 23384168 
1401.079 23406270 23399868 23371546 23324590 23256874 23161696 23030518 
1404.454 22858932 22651284 22421930 22191650 21982856 21812556 21695124 
1407.829 21642220 21665450 21778346 21992756 22316470 22747222 23272918 
1411.205 23871920 24519352 25194332 25880738 26566538 27241642 27891932 
1414.580 28500914 29051906 29530284 29928068 30241982 30467900 30595194 
1417.955 30603620 30470672 30191540 29795148 29338138 28877642 28451844 
1421.330 28073716 27738478 27436638 27161390 26915680 26714648 26577986 
1424.706 26521350 26547800 26648866 26812192 27031676 27312064 27669328 
1428.081 28124690 28695130 29383410 30172326 31028582 31913132 32793302 
1431.456 33647476 34465924 35248428 36000020 36730276 37453300 38186688 
1434.831 38950384 39759684 40612296 41475588 42292644 43010000 43604264 
1438.207 44089236 44497320 44861364 45207336 45551372 45900432 46254048 
1441.582 46609020 46962476 47315484 47674248 48047556 48443600 48866144 
1444.957 49314188 49782800 50268512 50770852 51296036 51854936 52462108 
1448.332 53129368 53868020 54692584 55621108 56677020 57880860 59239920 
1451.708 60734468 62316172 63923804 65492032 66980608 68377376 69688616 
1455.083 70927056 72088640 73135728 73994000 74599512 74957216 75137872 
1458.458 75233168 75297320 75346896 75384056 75410904 75435736 75471024 
1461.833 75526888 75604720 75692672 75763952 75773576 75661200 75362184 
1465.209 74804416 73918656 72646408 70936104 68769656 66170372 63210220 
1468.584 59981168 56582424 53084996 49489388 45747516 41787752 37594656 
1471.959 33301294 29212984 25678110 22886628 20799388 19228252 17959180 
1475.334 16848606 15830236 14902846 14091086 13412592 12857357 12392044 
1478.710 11974059 11569067 11157959 10739223 10324013 9928963 9568549 
1482.085 9249218 8970169 8726154 8511500 8320597 8147230 7984598 7825399 
1485.942 7665249 7505089 7353178 7220858 7117477 7042408 6983042 6916378 
1489.800 6821585 6692355 6539382 6381957 6235244 6105382 5989803 5882080 
1493.657 5776868 5672219 5571119 5480578 5406831 5352351 5313206 5282549 
1497.515 5256255 5236066 5228252 5236972 5259877 5287580 5307370 5310153 
1501.372 5294356 5266317 5236435 5214738 5205650 5204410 5194584 5148211 
1505.229 5030003 4809832 4491871 4143767 3871522 3734444 3712922 3754096 
1509.087 3819875 3893955 3974768 4064527 4161095 4256246 4337395 4392786 
1512.944 4419229 4421304 4410459 4398375 4392619 4392786 4390677 4374344 
1516.802 4337562 4285224 4231587 4190368 4168087 4161630 4160727 4150725 
1520.659 4119749 4066968 4006636 3958752 3933507 3927689 3930130 3929729 
1524.516 3919263 3897666 3868446 3836856 3806805 3778762 3750252 3719973 
1528.374 3689597 3663666 3646692 3641412 3646625 3657484 3667576 3671218 
1532.231 3666673 3656382 3645923 3638138 3629651 3612578 3580171 3530829 
1536.089 3469135 3405580 3354088 3331250 3353421 3428089 3543390 3660759 
1539.946 3732439 3733842 3683448 3619728 3573088 3551607 3547031 3544225 
1543.804 3528825 3492683 3434167 3358630 3273724 3187033 3103362 3027248 
1547.661 2963657 2918155 2896373 2900776 2927562 2966493 3007195 3044131 
1551.518 3080436 3123452 3181325 3255697 3338429 3409621 3445723 3430995 
1555.376 3363572 3254562 3121650 2986477 2870423 2795650 2778610 2814159 
1559.233 2864653 2892738 2893038 2878762 2862552 2850678 2846042 2849411 
1563.091 2860918 2879729 2903378 2927095 2944275 2949579 2941306 2922258 
1566.948 2899342 2882197 2881430 2905246 2955017 3022443 3091315 3146146 
1570.806 3180824 3198515 3207026 3213302 3221614 3232696 3244447 3251624 
1574.663 3247050 3223616 3177019 3111404 3038659 2973565 2924993 2894872 
1578.520 2879996 2874693 2873692 2871991 2866588 2856582 2844308 2833569 
1582.378 2829000 2833069 2845876 2864320 2884465 2902944 2918322 2931131 
1586.235 2943541 2957118 2971864 2986844 3001357 3016170 3035055 3061916 
1590.093 3099424 3144711 3189669 3221180 3226187 3197246 3137202 3059614 
1593.950 2984775 2934267 2921758 2949746 3008029 3079268 3145812 3195110 
1597.807 3223516 3234132 3233030 3226020 3215639 3201686 3182226 3156660 
1601.665 3126489 3095486 3068890 3050804 3042863 3043731 3050471 3059614 
1605.522 3068356 3075664 3081537 3087344 3094585 3104797 3118880 3136968 
1609.380 3158061 3179990 3200117 3216239 3227689 3235634 3242711 3251891 
1613.237 3264577 3279667 3292787 3296560 3283606 3250756 3204656 3162600 
1617.095 3145479 3165571 3220846 3299698 3389251 3480057 3567543 3650902 
1620.952 3731503 3810582 3886499 3953502 4002958 4028608 4031016 4017839 
1624.809 3999949 3986806 3983931 3992123 4007707 4024260 4033992 4030648 
1628.667 4011820 3979517 3938823 3896161 3857949 3829502 3814660 3815863 
1632.524 3833914 3868446 3918361 3982225 4058708 4145841 4239951 4334450 
1636.382 4422810 4500441 4566769 4623964 4675272 4723872 4772478 4822329 
1640.239 4873426 4924495 4974397 5023501 5074554 5133156 5206958 5303479 
1644.097 5429377 5588101 5779554 5996152 6221900 6434448 6611841 6742831 
1647.954 6830336 6885406 6918364 6937352 6948934 6960415 6983008 7034258 
1651.811 7138327 7316951 7558694 7795511 7946159 7992157 7968432 7912989 
1655.669 7845743 7772572 7691925 7600335 7496290 7381452 7261086 7142571 
1659.526 7032002 6933581 6848344 6775071 6711703 6656655 6609957 6571742 
1663.384 6541097 6515131 6490241 6463269 6432800 6399442 6365212 6333271 
1667.241 6307787 6292323 6291046 6307183 6343290 6399879 6474972 6563702 
1671.099 6659785 6757739 6854673 6949843 7044899 7141897 7240095 7333868 
1674.956 7411853 7462109 7480210 7473165 7455873 7442794 7446097 7471446 
1678.813 7518742 7580643 7646296 7705112 7752266 7792339 7840042 7918725 
1682.671 8054396 8266999 8547117 8841347 9077003 9221972 9295524 9336215 
1686.528 9371559 9414560 9467418 9527159 9591685 9662894 9748380 9858727 
1690.386 10001143 10175589 10374166 10585600 10800295 11014960 11235919 
1693.761 11479309 11767942 12122315 12543887 13000794 13437778 13810517 
1697.136 14112615 14369506 14623123 14917145 15287793 15746325 16255492 
1700.511 16734883 17116186 17389104 17587210 17752686 17917878 18106522 
1703.887 18334334 18609160 18926626 19267804 19603570 19908442 20174340 
1707.262 20413276 20651822 20918490 21237056 21616728 22050584 22516596 
1710.637 22988698 23448688 23893344 24338312 24812786 25349736 25973488 
1714.012 26690476 27486370 28339146 29232866 30176944 31203710 32352332 
1717.388 33623064 34953176 36245056 37422784 38474048 39443968 40399732 
1720.763 41411252 42536468 43816388 45271500 46902196 48692940 50617140 
1724.138 52648640 54764972 56947684 59184212 61471824 63829384 66308340 
1727.513 68994600 71992848 75389816 79207080 83366480 87707152 92035744 
1730.889 96245936 100396336 104765384 109834720 116231944 124464296 
1733.782 134413648 145056304 154959424 163262688 170023328 175792832 
1736.675 181150176 186524896 192170544 198184912 204505552 210946672 
1739.568 217218384 223009072 228062240 232193408 235288656 237305968 
1742.461 238288320 238372304 237748736 236595936 234981680 232842944 
1745.354 230023360 226374320 221835200 216486864 210507712 204120896 
1748.247 197471840 190570272 183302144 175542368 167283616 158702448 
1751.140 150146992 141991040 134486752 127692896 121510688 115758432 
1754.033 110233904 104758728 99189728 93439168 87518072 81554392 75770616 
1757.408 70406592 65615104 61424684 57751668 54448792 51342612 48273936 
1760.784 45142184 41939244 38769716 35803988 33198022 31020860 29244914 
1764.159 27777544 26509268 25342886 24212172 23086982 21971564 20894534 
1767.534 19891376 18988616 18191440 17486232 16849810 16261546 15706852 
1770.909 15175132 14657976 14146263 13635014 13131641 12651024 12210127 
1774.285 11819351 11479309 11180396 10907036 10642438 10376236 10107621 
1777.660 9845136 9600695 9384425 9198179 9035458 8883145 8730379 8574186 
1781.517 8420109 8277097 8150370 8036979 7926486 7805563 7665249 7507415 
1785.375 7343977 7191246 7059482 6948766 6848984 6746600 6630379 6497641 
1789.232 6354857 6215884 6095235 6002468 5937299 5890107 5846883 5798761 
1793.089 5746145 5694510 5647043 5600688 5546351 5474169 5378819 5263433 
1796.947 5139393 5023367 4930762 4869438 4838847 4831442 4837842 4850306 
1800.804 4865887 4883746 4901272 4911426 4903618 4867763 4800988 4708464 
1804.662 4603971 4502819 4418158 4354062 4305001 4258254 4200773 4125436 
1808.519 4034594 3938355 3851029 3784444 3742732 3721778 3712020 3705169 
1812.377 3696982 3689196 3686355 3692470 3707508 3727259 3743635 3748013 
1816.234 3733141 3695979 3637002 3559725 3468434 3367378 3260103 3150919 
1820.091 3044064 2945909 2862218 2798585 2759336 2746532 2759336 2792949 
1823.949 2838905 2884766 2917955 2931165 2925227 2909249 2896607 2900609 
1827.806 2929030 2980838 3043130 3093651 3106465 3065353 2971764 2843208 
1831.664 2702953 2569476 2455101 2364975 2300148 2259945 2242559 2245290 
1835.521 2262909 2288757 2313106 2326664 2323100 2301281 2265907 2225540 
1839.379 2189440 2163499 2148681 2142587 2140856 2139624 2136694 2130700 
1843.236 2119846 2098270 2057786 1991242 1898449 1788176 1677166 1584041 
1847.093 1525383 1511950 1545168 1616832 1709997 1805543 1886336 1942413 
1850.951 1971836 1977561 1965578 1941248 1909431 1873124 1833759 1791337 
1854.808 1745325 1694396 1638683 1581048 1527112 1485218 1463176 1465237 
1858.666 1489607 1527977 1567647 1596379 1606888 1600569 1586170 1577823 
1862.523 1589129 1627408 1693198 1780490 1880578 1984817 2087083 2184112 
1866.380 2271736 2342188 2381499 2372370 2302447 2172656 2001827 1818553 
1870.238 1652087 1521160 1431793 1381232 1361422 1362286 1374352 1389576 
1874.095 1401409 1403769 1391869 1363317 1319046 1264976 1211577 1170445 
1877.953 1151873 1160910 1196360 1250654 1311468 1366242 1405598 1425144 
1881.810 1426341 1415304 1400578 1390407 1390174 1399814 1413144 1418462 
1885.668 1401941 1351982 1262816 1137787 989880 840595 712502 623931 581527 
1890.007 579436 603325 639294 680177 726541 783929 857626 946908 1043384 
1894.347 1132273 1197024 1228191 1226297 1202008 1169515 1141840 1126061 
1898.204 1123469 1132605 1152704 1184997 1231879 1292990 1361954 1425543 
1902.062 1466833 1471088 1433422 1362153 1278999 1210116 1179050 1199982 
1905.919 1273981 1390008 1529506 1673041 1802349 1902343 1961285 1969639 
1909.776 1922444 1822745 1684317 1529141 1382595 1267003 1193968 1162671 
1913.634 1161142 1173800 1187256 1198254 1214136 1249025 1314027 1407659 
1917.491 1509091 1583210 1594350 1522756 1373521 1173169 958963 766503 
1921.349 625523 551368 542743 582953 648419 719073 785987 851517 924329 
1925.688 1012762 1116726 1227194 1326025 1393930 1413775 1379205 1295981 
1929.546 1182671 1064143 964741 902182 881431 896272 931069 967497 989016 
1933.885 984666 950827 888436 801688 695111 573099 442332 310643 188871 
1938.225 86654 10437 -38367 -62950 -67985 -55197 -22265 40160 142201 289721 
1943.047 477890 691262 907328 1104800 1271722 1409720 1533663 1664792 
1946.904 1825507 2029289 2276765 2555545 2844742 3120515 3359264 3540851 
1950.762 3648262 3665771 3584848 3408352 3158528 2874025 2607842 2409286 
1954.619 2307710 2302680 2360077 2421880 2421614 2312307 2077195 1737507 
1958.476 1338123 935320 576649 287068 69156 -90446 -205216 -280422 -306746 
1962.816 -266945 -146692 54972 321121 618821 914301 1178983 1399647 1580350 
1967.156 1737641 1894289 2067241 2266806 2489124 2717323 2919623 3056510 
1971.013 3081838 2956551 2666513 2233100 1713356 1184831 735834 433510 
1974.870 310676 355209 519521 739916 962848 1169847 1375449 1612874 1905271 
1979.210 2250053 2610775 2931965 3157494 3253193 3216006 3069958 2853747 
1983.068 2606875 2357479 2113586 1871860 1628871 1392035 1184964 1039963 
1986.925 983105 1019304 1122141 1242014 1316254 1296878 1157289 905668 
1990.782 577711 228419 -86968 -329161 -477232 -529192 -491364 -375147 
1994.640 -192333 41784 306067 576152 825390 1031028 1183236 1285214 1353578 
1998.979 1410285 1476740 1564953 1677565 1808638 1950534 2096905 2244158 
2002.837 2390295 2530981 2655811 2748866 2789381 2760236 2651778 2468929 
2006.694 2227872 1952831 1667553 1390107 1130578 893118 678418 486945 321353 
2011.034 185988 88112 37277 40524 101799 216916 373846 554089 741410 928214 
2015.856 1121011 1340283 1613473 1961717 2384764 2852913 3308379 3681543 
2019.713 3899805 3912076 3703799 3305274 2785246 2241194 1775333 1467764 
2023.570 1370662 1497154 1825840 2300215 2844442 3379934 3834984 4161764 
2027.428 4336993 4360990 4250591 4032521 3733341 3373355 2968228 2533848 
2031.285 2092643 1682487 1348858 1131243 1048200 1084272 1190778 1299438 
2035.143 1346565 1290963 1124831 874126 583716 299270 51393 -147057 -295355 
2039.482 -396797 -449727 -445689 -377861 -245222 -58974 157846 379152 586039 
2043.822 771913 945879 1124167 1321006 1537919 1761394 1963814 2116915 
2047.679 2200430 2210021 2158537 2068572 1961185 1848367 1731287 1605159 
2051.537 1466068 1317882 1174465 1058363 997451 1014754 1126193 1334467 
2055.394 1627674 1980357 2355313 2711388 3004092 3194543 3257800 3187733 
2059.251 3001990 2740863 2460132 2211952 2035581 1946407 1931563 1956525 
2063.109 1975131 1945941 1840880 1653982 1401675 1116560 835615 593670 
2066.966 417358 320259 306299 372851 512786 713730 958763 1225068 1481062 
2071.306 1692932 1830898 1874489 1820916 1686146 1502674 1309640 1144033 
2075.163 1029235 969988 951823 950628 943322 915563 868980 819647 792194 
2079.503 808560 881928 1010503 1179150 1361389 1526713 1648694 1707369 
2083.360 1695460 1617663 1491702 1343474 1203503 1103139 1063180 1091247 
2087.218 1177156 1296878 1416833 1505633 1542075 1521094 1453202 1357832 
2091.075 1256070 1159913 1069192 974238 862772 728200 576185 425384 303846 
2095.415 238564 244697 320988 447407 592310 719040 799929 822237 791862 
2099.754 729295 665078 629704 642977 712137 827515 968925 1109584 1225367 
2104.094 1300335 1327122 1307414 1247796 1156358 1040129 904274 755649 
2107.951 603325 461669 347251 274900 253350 282062 350467 441138 536174 
2112.291 621674 689337 738024 770652 789838 796941 790933 770984 738389 
2116.631 699957 665974 648652 658607 701052 774900 872599 983802 1096363 
2120.970 1200314 1288936 1358032 1407094 1437211 1452437 1457690 1459186 
2124.828 1463043 1472983 1489806 1510254 1527977 1534261 1519398 1475144 
2128.685 1395891 1280063 1132904 967929 806800 678817 615669 641683 766536 
2133.025 977891 1244971 1520795 1759165 1928069 2016440 2036646 2014576 
2136.882 1978926 1944343 1909065 1856153 1766717 1628805 1449612 1253013 
2140.740 1074406 947539 893051 915629 1004758 1141575 1305619 1479998 
2144.597 1650590 1801218 1912793 1960020 1918617 1777962 1547795 1262882 
2148.454 975766 745559 617460 609265 706395 868217 1040826 1180412 1272420 
2152.794 1338522 1430995 1611976 1932495 2403888 2987544 3596040 4120719 
2156.651 4461239 4558130 4415781 4105065 3735146 3400705 3149183 2956384 
2160.509 2754401 2467530 2057886 1544237 1002931 533620 228519 141671 268999 
2164.848 561122 943023 1343707 1711194 2022132 2275533 2476327 2623875 
2168.706 2706454 2705153 2603775 2399157 2103164 1740102 1341247 937943 
2172.563 558999 234552 -5533 -134735 -136656 -16831 193579 437888 653530 
2176.903 787414 813705 745658 627216 515938 456893 467275 530070 602562 
2181.242 633686 587897 460641 277718 85162 -65799 -134172 -102040 28529 
2185.582 234818 482533 730059 936880 1071218 1114567 1069358 962317 840329 
2189.922 754089 745260 828013 982640 1157754 1287274 1315523 1212076 986824 
2194.261 683529 370430 111676 -42078 -66428 36316 243437 519753 829440 
2198.601 1134731 1402606 1604760 1718446 1733382 1653750 1500180 1302960 
2202.458 1096164 908291 755881 642347 561156 503166 460044 428833 412117 
2206.798 414538 438584 484690 549610 628875 717048 807365 891291 957734 
2211.137 994629 993599 955243 891325 823498 778751 776660 821971 898795 
2215.477 976496 1016249 986559 875554 694945 476463 258688 77606 -46749 
2219.817 -112376 -132780 -126785 -110521 -90545 -64440 -24783 35222 116117 
2224.156 212407 315152 416694 513483 606113 696870 783929 862075 920975 
2228.496 951325 949333 922370 886942 864166 872865 920510 1000208 1091347 
2232.835 1168784 1211245 1207922 1162073 1089188 1008810 934954 873462 
2236.693 819581 763150 694779 612185 522838 442730 389798 378787 417689 
2241.032 504692 630567 780942 940699 1095566 1233375 1345834 1428435 1480896 
2245.372 1507794 1518401 1522391 1529673 1545966 1571571 1602864 1634259 
2249.229 1661865 1684650 1704308 1721806 1734214 1732883 1705739 1639348 
2253.087 1527644 1375083 1199151 1023556 874359 769789 715157 702943 716551 
2257.427 737394 749309 742937 716186 672379 617560 560724 513350 487808 
2261.766 498787 557008 665974 817091 990278 1157056 1286842 1358132 1363616 
2266.106 1312964 1227460 1132206 1047901 982441 932099 884518 827183 752230 
2270.445 661328 563644 473478 403130 360018 345659 355939 384359 425284 
2274.785 475568 534250 601534 676527 755748 832760 899094 945813 966667 
2279.125 959627 929044 884983 841757 815000 815962 849558 911479 990046 
2283.464 1068594 1131376 1168086 1175528 1157754 1123602 1082412 1039631 
2287.322 996754 952022 903510 851982 802584 763615 744696 752728 789439 
2291.661 850521 928347 1013459 1097592 1176392 1248627 1314924 1376080 
2295.519 1431826 1480663 1519930 1547795 1563191 1565984 1556640 1535525 
2299.376 1503272 1461414 1413410 1366075 1328850 1312000 1324430 1370729 
2303.233 1448847 1549923 1660402 1764488 1848500 1903940 1929067 1928335 
2307.091 1909997 1883906 1857784 1835024 1814394 1791569 1761327 1721007 
2310.948 1672309 1622619 1584407 1570374 1591657 1653251 1752844 1881078 
2314.806 2024229 2168161 2300615 2414883 2508452 2583076 2641077 2684349 
2318.663 2712889 2725225 2720424 2699752 2667913 2632109 2601942 2584976 
2322.521 2586142 2606242 2642710 2690750 2744898 2800219 2851312 2892738 
2326.378 2917621 2919122 2892037 2835737 2756302 2666646 2586376 2535047 
2330.235 2527848 2570343 2656578 2770774 2892804 3005394 3097488 3165838 
2334.093 3213569 3246249 3268216 3281436 3286077 3282271 3272956 3264577 
2337.950 3264143 3276929 3301801 3330248 3347310 3336492 3286778 3196345 
2341.808 3074429 2937703 2806689 2697052 2617042 2567144 2542113 2534981 
2345.665 2539613 2552212 2570243 2592442 2616942 2642277 2667646 2693117 
2349.522 2720357 2751300 2787247 2827899 2869323 2905646 2930331 2940505 
2353.380 2938670 2933700 2936836 2958086 3001457 3062784 3131528 3195844 
2357.237 3245915 3279132 3299398 3316292 3340131 3379667 3437774 3511388 
2361.095 3590226 3656014 3686823 3659289 3554347 3364941 3100759 2786680 
2364.952 2457633 2152011 1901611 1723469 1623617 1596313 1630967 1715419 
2368.810 1837519 1982787 2132498 2263709 2352781 2380633 2342088 2246922 
2372.667 2119346 1989311 1885703 1825574 1810667 1829933 1865770 1899348 
2376.524 1917552 1914623 1890196 1846137 1783684 1702745 1603230 1487845 
2380.382 1363416 1241283 1134266 1054511 1008876 998016 1016913 1057201 
2384.239 1109484 1165561 1219851 1267867 1305685 1329581 1335830 1322469 
2388.097 1291030 1246965 1198221 1154199 1122307 1105365 1101611 1105099 
2391.954 1108886 1107092 1097625 1082279 1066335 1055673 1054843 1065571 
2395.812 1086099 1111477 1135661 1153302 1160644 1157289 1145163 1128120 
2399.669 1109949 1092742 1076233 1057865 1034482 1003629 965671 923997 
2403.526 884352 852081 830403 818983 813937 809854 801655 787116 767532 
2407.866 746322 727503 713597 705200 701749 702711 709282 723587 747218 
2412.206 779116 813738 842255 855169 845475 813439 766735 718608 682567 
2416.545 667799 676162 701682 733975 763548 785456 800759 814236 831034 
2420.885 852845 876749 896305 905569 902348 890727 879073 876816 890727 
2425.224 921805 965405 1013692 1059194 1097160 1126625 1147687 1160744 
2429.082 1163202 1151043 1119782 1068992 1003064 931999 868283 822170 798369 
2433.421 794219 800128 802916 792427 763117 717314 662655 610990 572701 
2437.761 554023 555217 571175 592874 610426 616067 606411 583252 552430 
2442.101 522805 502337 496100 504957 524961 550406 574957 594898 610127 
2446.440 623300 638332 657976 682567 710311 737726 762586 784261 804012 
2450.780 824096 844844 865063 880899 888004 883555 867387 843085 815531 
2455.119 789340 766669 747152 729461 712634 698895 693618 703640 734904 
2459.459 788576 859917 939404 1014788 1074539 1111909 1124665 1115530 
2463.316 1088922 1049894 1001736 946244 885282 821008 758039 702479 660133 
2467.656 636109 632060 646196 672545 703076 728963 742074 737759 715389 
2471.996 680144 640621 608634 595097 606843 644139 700521 764710 823133 
2476.335 864897 884319 882194 864365 838802 813705 794385 783431 781506 
2480.675 788344 803315 824560 849027 871039 884053 881962 862473 828212 
2485.014 787414 751533 730557 730059 749243 781705 817987 850388 875985 
2489.354 896272 916127 939371 966700 993798 1013990 1020467 1011002 988817 
2493.694 961918 939504 928712 931103 943588 960125 975500 988319 1001869 
2498.033 1021696 1052949 1097060 1149780 1202473 1244872 1269263 1271556 
2501.891 1252980 1217326 1168451 1109351 1040527 962317 876982 790999 714095 
2506.230 656782 627946 630335 659802 705665 755018 796908 824627 838204 
2510.570 842885 846073 854439 872101 899758 936283 979452 1027109 1077130 
2514.909 1126227 1169149 1199383 1210016 1196925 1161342 1110780 1057267 
2518.767 1014489 993300 997451 1023223 1060423 1096928 1122572 1133170 
2522.624 1131177 1124400 1121343 1128519 1147920 1176259 1206826 1232345 
2526.482 1248029 1251351 1243410 1226297 1203238 1177555 1151807 1129582 
2530.339 1114135 1108720 1114899 1131642 1154664 1177422 1193403 1197988 
2534.197 1190844 1175628 1159282 1148618 1148518 1159913 1179880 1203570 
2538.054 1226231 1245669 1262450 1279465 1299039 1321638 1344637 1362552 
2541.911 1369100 1359494 1332938 1292392 1243975 1194765 1150711 1113736 
2545.769 1082544 1052883 1020367 982109 939072 895375 858854 837375 837308 
2550.108 861012 906399 965803 1028770 1083940 1121211 1134532 1123569 
2553.966 1093440 1053448 1015053 989813 985330 1004625 1045078 1099452 
2557.823 1157089 1207258 1241848 1256236 1251019 1231315 1204965 1180379 
2561.681 1164265 1160112 1167588 1182671 1199151 1211478 1214900 1207956 
2565.538 1192140 1171508 1151010 1134831 1124998 1120546 1118187 1113105 
2569.396 1101611 1082644 1059260 1037472 1026146 1033088 1062349 1112308 
2573.253 1175362 1239655 1292226 1323665 1331210 1319710 1299969 1285347 
2577.110 1286842 1308942 1347994 1393830 1434020 1457258 1458854 1441167 
2580.968 1413476 1386584 1369865 1367073 1375648 1388213 1395891 1392999 
2584.825 1378673 1357832 1338522 1328916 1333968 1353212 1381565 1411914 
2588.683 1437245 1453933 1462876 1468229 1475377 1488211 1507096 1528708 
2592.540 1546864 1554844 1548061 1526048 1492865 1455828 1424213 1406263 
2596.397 1406761 1426175 1460283 1502075 1543239 1577291 1600503 1613839 
2600.255 1621289 1628672 1641443 1662397 1690803 1722870 1753176 1776365 
2604.112 1789573 1792767 1788176 1779326 1769711 1760928 1753576 1747321 
2607.970 1742132 1739004 1740335 1748619 1765220 1789939 1819718 1850397 
2611.827 1877750 1899148 1914690 1926737 1938552 1952631 1970005 1988612 
2615.685 2004756 2014176 2014309 2004556 1986947 1965612 1945176 1929433 
2619.542 1920314 1917319 1918350 1919482 1917086 1907967 1891161 1867966 
2623.399 1841945 1818653 1803813 1801318 1812564 1835390 1864938 1895088 
2627.257 1921146 1940816 1955460 1968907 1985516 2008650 2038311 2071502 
2631.114 2102931 2127570 2141389 2143253 2134563 2118181 2097305 2075431 
2634.972 2055722 2041806 2037911 2048664 2077495 2125140 2188175 2259579 
2638.829 2328463 2385031 2421980 2437007 2433542 2419581 2404788 2397058 
2642.687 2401223 2418215 2445271 2478060 2511885 2543113 2569443 2589509 
2646.544 2602242 2607175 2603842 2592742 2575243 2553878 2531648 2512385 
2650.401 2499255 2495222 2502320 2521950 2554078 2597575 2649278 2704253 
2654.259 2756935 2801453 2833235 2850478 2854080 2848077 2837771 2829300 
2658.116 2827732 2835837 2854714 2883165 2918355 2956651 2994550 3028616 
2661.974 3056510 3078000 3093684 3105898 3117178 3129326 3142675 3155758 
2665.831 3165504 3169276 3165705 3156226 3145045 3138303 3141774 3158896 
2669.688 3189269 3228523 3269651 3304973 3328946 3338963 3336726 3325741 
2673.546 3311150 3297228 3285843 3277029 3269418 3261472 3252759 3243979 
2677.403 3237370 3235901 3241509 3254962 3274759 3297795 3319363 3334522 
2681.261 3339764 3333086 3315691 3291118 3264810 3242811 3229658 3227856 
2685.118 3236769 3252725 3270452 3284541 3290350 3285776 3270753 3247384 
2688.976 3218843 3188067 3158028 3130594 3107233 3088745 3075798 3068657 
2692.833 3067022 3070058 3076332 3084073 3091415 3096721 3098589 3096254 
2696.690 3088545 3075097 3055409 3029850 2999889 2967761 2937002 2910983 
2700.548 2892337 2882531 2881030 2885900 2894672 2904846 2914853 2924693 
2704.405 2934701 2945809 2957919 2970096 2980571 2987444 2989379 2986443 
2708.263 2980438 2974867 2973732 2980338 2997153 3024345 3060047 3100592 
2712.120 3141240 3176686 3202053 3214136 3211466 3194810 3166539 3131528 
2715.978 3094518 3060481 3033654 3016704 3011566 3018739 3038192 3068723 
2719.835 3108367 3153622 3199516 3240507 3271287 3288347 3291452 3283740 
2723.692 3271688 3262607 3262974 3276228 3302202 3337026 3375392 3412259 
2727.550 3444287 3471039 3493251 3512658 3529159 3541519 3547331 3544191 
2731.407 3531297 3510319 3484567 3458949 3437407 3421877 3412760 3408252 
2735.265 3406582 3405714 3404311 3401139 3394460 3382238 3362236 3333120 
2739.122 3295792 3254094 3213602 3180390 3159029 3150318 3151720 3157694 
2742.979 3163201 3164703 3162667 3160431 3163034 3174249 3195611 3224952 
2746.837 3257900 3290050 3318028 3340766 3359364 3375092 3388516 3398434 
2750.694 3402708 3399569 3389217 3374491 3360032 3351083 3350449 3358296 
2754.552 3370951 3383273 3390553 3390386 3384242 3376294 3372421 3377430 
2758.409 3394059 3421844 3458181 3499096 3540750 3579803 3613413 3638973 
2762.267 3653708 3655279 3642381 3615585 3577899 3534838 3493418 3460986 
2766.124 3443285 3444287 3465061 3504307 3558088 3621666 3688761 3752725 
2769.981 3807874 3850027 3877540 3891514 3895894 3895994 3896930 3902747 
2773.839 3915051 3933674 3957080 3983897 4013726 4046902 4084026 4125001 
2777.696 4168355 4210910 4249554 4281944 4307945 4329899 4351820 4377524 
2781.554 4409723 4448385 4490967 4533956 4574403 4611506 4647072 4684851 
2785.411 4729533 4784371 4850473 4925970 5007478 5089941 5168966 5241164 
2789.269 5304854 5359932 5407703 5450648 5491887 5534941 5583302 5639591 
2793.126 5705085 5779655 5861223 5947342 6035023 6122520 6208590 6292861 
2796.983 6375400 6455500 6531713 6602119 6665000 6719746 6767835 6812665 
2800.841 6859520 6914257 6981728 7065139 7165038 7279280 7404202 7534520 
2804.698 7665451 7793453 7916262 8034110 8148682 8263149 8380146 8501804 
2808.556 8628430 8758879 8890856 9022027 9151918 9281747 9414932 9556152 
2812.413 9709683 9877370 10058074 10247301 10439361 10627633 10808378 
2815.788 10981485 11150445 11322225 11504145 11703194 11923176 12164976 
2819.164 12426275 12703869 12994033 13294641 13605509 13928059 14264787 
2822.539 14618052 14989336 15379166 15786836 16210916 16650455 17104500 
2825.914 17572996 18056262 18555178 19071008 19605614 20161672 20742906 
2829.289 21353530 21998298 22680924 23403576 24166280 24966894 25802356 
2832.665 26669582 27568060 28500312 29473046 30496334 31583216 32747708 
2836.040 34003148 35362720 36838136 38440164 40180184 42069908 44121912 
2839.415 46351252 48773160 51405268 54265800 57372384 60741364 64385288 
2842.790 68310248 72513344 76982424 81694416 86614024 91700368 96904544 
2846.166 102171880 107448856 112676816 117794088 122739088 127442616 
2849.059 131833360 135840256 139388544 142409136 144838320 146619920 
2851.952 147713008 148094256 147763056 146742336 145080288 142844480 
2854.845 140109648 136957552 133463624 129694400 125713032 121575168 
2857.738 117335720 113051360 108774208 104554744 100437592 96455984 92636648 
2861.113 88997640 85551000 82306760 79273056 76457112 73866136 71504744 
2864.488 69374760 67474416 65797000 64332032 63065068 61981224 61062660 
2867.864 60291508 59648928 59112108 58654448 58245052 57847128 57425136 
2871.239 56945456 56381896 55721228 54962648 54118540 53209960 52264856 
2874.614 51312856 50381764 49499192 48688232 47967956 47352692 46849044 
2877.989 46456664 46168180 45972252 45856756 45812828 45837500 45933908 
2881.365 46108672 46369060 46719220 47158408 47681016 48278044 48940828 
2884.740 49662204 50438324 51266840 52146776 53075824 54050164 55063780 
2888.115 56111248 57187100 58287492 59410052 60553952 61718868 62905452 
2891.490 64114868 65349700 66612728 67906208 69231152 70585088 71962856 
2894.865 73357320 74761440 76169832 77581304 78998696 80428048 81877704 
2898.241 83356280 84872552 86433272 88044776 89710472 91431544 93205448 
2901.616 95026912 96889056 98784760 100710040 102665760 104657568 106693704 
2904.991 108784248 110937480 113159656 115455720 117831256 120294056 
2907.884 122855016 125526040 128317520 131236168 134282864 137453520 
2910.777 140740528 144135984 147632144 151221168 154893392 158633168 
2913.670 162418960 166224880 170020480 173776800 177466880 181063648 
2916.563 184540160 187862880 190990608 193878400 196477200 198741472 
2919.457 200634464 202127600 203201744 203844816 204050176 203817152 
2922.350 203152016 202069632 200592528 198750384 196576608 194104064 
2925.243 191366816 188399008 185234688 181910576 178461824 174919072 
2928.136 171307504 167643152 163935936 160193232 156423344 152638528 
2931.029 148854224 145085360 141344752 137638736 133968936 130334256 
2933.922 126735616 123178736 119676328 116244720 112902528 109665960 
2936.815 106545592 103546720 100669520 97911032 95267272 92733768 90307232 
2940.190 87984600 85764344 83646184 81631712 79724064 77926800 76243792 
2943.565 74677456 73228736 71897200 70681072 69578736 68588488 67708560 
2946.941 66937044 66271596 65709532 65247684 64882540 64610152 64422756 
2950.316 64309976 64254112 64231328 64214580 64174556 64085684 63930720 
2953.691 63700332 63393644 63015000 62570012 62061796 61490948 60855744 
2957.066 60153948 59385164 58550664 57653316 56695484 55678620 54603152 
2960.442 53470484 52284400 51052468 49785996 48497280 47197340 45894024 
2963.817 44590200 43286072 41980884 40675716 39375324 38087460 36821544 
2967.192 35587180 34390992 33236972 32126218 31058548 30033544 29050878 
2970.567 28111116 27213878 26358624 25543004 24764412 24020020 23307738 
2973.943 22626396 21975850 21355930 20765672 20202802 19663854 19144272 
2977.318 18640530 18150326 17673650 17213080 16772868 16357495 15970498 
2980.693 15613417 15284876 14981585 14698213 14430233 14174093 13928196 
2984.068 13693245 13471989 13267447 13082159 12917498 12772962 12646999 
2987.444 12536384 12438447 12350555 12271644 12201915 12143474 12100441 
2990.819 12077956 12082589 12120543 12196599 12312785 12467942 12656653 
2994.194 12871419 13103775 13346130 13593440 13844449 14100430 14364130 
2997.569 14638476 14924553 15222108 15528863 15841713 16158227 16475970 
3000.945 16792498 17104880 17407968 17693666 17952410 18172680 18343770 
3004.320 18458086 18510812 18501962 18435060 18316016 18152088 17950442 
3007.695 17717170 17457292 17173920 16869306 16543670 16196745 15827246 
3011.070 15434060 15017598 14579262 14123191 13655734 13184237 12716220 
3014.446 12257397 11811316 11378209 10956747 10544384 10139399 9742111 
3017.821 9354259 8979742 8622549 8286046 7972179 7681571 7413437 7166285 
3021.678 6938059 6725971 6527004 6337575 6154244 5974921 5799265 5629655 
3025.536 5469774 5323604 5193847 5079884 4977581 4880328 4781188 4675071 
3029.393 4560574 4440618 4321432 4209404 4109614 4023491 3949389 3883256 
3033.250 3820610 3759176 3698552 3640377 3586919 3540016 3499664 3463792 
3037.108 3428924 3391688 3349614 3301668 3248553 3192674 3136735 3083806 
3040.965 3036190 2995117 2960454 2930564 2902678 2874092 2842674 2808023 
3044.823 2771374 2736262 2705820 2682849 2667713 2658245 2649944 2637677 
3048.680 2617842 2589209 2553778 2516051 2481892 2456234 2441872 2439140 
3052.538 2446337 2460366 2477594 2495455 2511985 2525849 2536547 2542846 
3056.395 2544413 2540347 2530948 2516651 2499655 2482659 2468563 2460066 
3060.252 2459066 2465131 2476494 2489524 2500121 2504253 2500054 2487258 
3064.110 2468030 2445837 2424046 2404854 2388595 2374036 2358745 2341322 
3067.967 2321734 2301880 2284760 2272968 2267706 2267006 2266473 2260511 
3071.825 2243392 2211353 2164032 2104197 2037212 1969373 1907068 1855687 
3075.682 1819019 1799288 1797791 1813828 1845405 1888366 1936755 1982421 
3079.540 2017505 2034549 2029023 2000129 1951699 1890229 1824276 1762591 
3083.397 1711826 1675602 1654914 1647630 1650324 1658739 1668917 1677498 
3087.254 1681789 1680392 1672742 1659371 1642874 1626410 1613905 1608252 
3091.112 1610746 1619626 1630734 1638650 1638284 1626211 1602864 1570972 
3094.969 1535558 1501244 1471088 1445323 1422651 1400877 1379205 1358896 
3098.827 1343341 1337159 1343839 1364347 1396257 1433987 1470024 1497520 
3102.684 1511152 1508559 1490438 1459585 1420756 1378972 1339918 1308112 
3106.542 1286942 1277703 1279598 1289933 1304589 1319046 1330346 1336660 
3110.399 1338455 1337225 1334533 1331974 1329980 1328518 1327288 1325925 
3114.256 1323931 1320608 1314924 1305021 1290099 1270592 1248992 1230517 
3118.114 1221479 1226264 1246633 1278966 1315224 1344670 1358165 1350354 
3121.971 1322535 1282057 1240220 1208720 1195828 1204035 1230185 1267468 
3125.829 1306882 1341247 1366275 1380967 1386916 1387049 1384423 1380568 
3129.686 1375648 1368402 1356536 1337957 1310737 1275012 1233208 1189682 
3133.543 1151142 1124765 1115530 1125728 1152272 1188552 1224436 1249192 
3137.401 1254940 1238226 1201178 1150412 1096463 1048930 1015850 1001437 
3141.258 1005289 1024153 1052318 1084305 1114400 1138784 1154930 1161408 
3145.116 1158252 1146159 1127024 1103538 1078924 1056337 1038368 1026146 
3148.973 1020035 1019637 1023954 1032822 1046406 1065106 1088158 1114002 
3152.831 1138618 1157189 1164730 1158053 1136824 1104236 1066302 1029368 
3156.688 999145 978821 968560 966368 969456 976530 987024 1002001 1022293 
3161.028 1047236 1074307 1099120 1116560 1122971 1116560 1099386 1074705 
3164.885 1047834 1023290 1004459 993101 989846 994396 1005854 1022393 
3168.742 1041756 1060091 1073975 1079655 1075835 1063412 1045908 1028405 
3172.600 1015950 1012164 1018374 1033619 1055075 1080153 1106029 1131044 
3176.457 1154265 1174033 1189217 1197490 1196592 1184698 1161342 1127323 
3180.315 1084438 1035346 984035 934489 890860 857792 838337 834885 846902 
3184.654 871968 905934 943920 981876 1016681 1047203 1072912 1093739 1109052 
3188.994 1117855 1119483 1114367 1104435 1092975 1083242 1077529 1075170 
3192.851 1073344 1067630 1054278 1031925 1002466 970552 942293 922270 912408 
3197.191 911147 914401 917887 918584 916592 915065 919049 932962 959660 
3201.531 998747 1047236 1099851 1150943 1195729 1231082 1255538 1269396 
3205.388 1273915 1270559 1260357 1244407 1222941 1196925 1167588 1136758 
3209.245 1106827 1080219 1057932 1039597 1023323 1006319 986094 961852 
3213.103 935220 909985 890694 881198 882094 891457 904805 917289 926321 
3217.442 932298 938906 951093 972943 1005688 1045974 1087660 1123303 1146691 
3221.782 1154830 1147787 1128187 1099054 1062814 1021463 976729 931767 
3225.639 891856 863402 853011 863934 895940 942459 993666 1038966 1068560 
3229.979 1077695 1066136 1038468 1001536 963180 930040 906697 895143 895209 
3234.319 904738 919813 935784 948502 955011 954679 950030 945514 946112 
3238.658 955775 975268 1002699 1033287 1061784 1084172 1098489 1105465 
3242.516 1107126 1106528 1105465 1105764 1108056 1113470 1122705 1134964 
3246.373 1148186 1157588 1155993 1137555 1098555 1041424 974603 912209 
3250.230 869113 856829 879604 933028 1004559 1078127 1139083 1177854 1191908 
3254.570 1185163 1165295 1140545 1116859 1097957 1085036 1079090 1080817 
3258.427 1090816 1108488 1131077 1153235 1168053 1169249 1154033 1123602 
3262.285 1084006 1044048 1012363 994164 990411 997352 1008710 1018042 
3266.142 1020600 1015751 1005987 995791 990112 993334 1007548 1032689 
3270.000 1066767 1106295 1146392 1181807 1207391 1218721 1213604 1191908 
3273.857 1157222 1114567 1070288 1030331 998448 975799 961486 953317 949200 
3278.197 948801 953018 964276 985031 1016581 1058330 1107026 1158684 1207856 
3282.536 1251252 1286377 1312964 1331974 1344504 1351019 1351085 1343607 
3286.394 1328019 1305154 1277571 1249690 1226164 1211046 1205231 1207657 
3290.251 1214302 1220648 1222542 1218123 1207856 1194233 1180080 1167588 
3294.109 1158319 1151840 1148252 1147621 1151010 1160013 1175794 1197888 
3297.966 1224237 1250753 1273350 1288770 1295682 1295184 1290431 1284582 
3301.823 1280927 1281525 1287341 1298906 1316819 1341480 1373188 1411149 
3305.681 1452969 1494594 1531069 1557804 1571039 1569409 1553514 1525184 
3309.538 1486881 1441400 1392002 1342178 1296413 1260324 1238525 1234471 
3313.396 1247730 1275111 1309906 1344870 1373787 1393332 1403869 1408589 
3317.253 1411847 1416900 1424612 1433388 1439705 1439339 1429798 1410983 
3321.111 1385786 1358896 1336295 1323499 1323134 1336361 1360658 1391969 
3324.968 1424679 1454033 1476574 1490438 1496489 1496024 1491269 1483589 
3328.825 1473582 1461613 1447650 1432424 1417864 1405697 1398052 1394861 
3332.683 1394927 1395526 1393764 1388213 1379205 1369499 1363051 1363450 
3336.540 1373155 1391770 1417598 1447750 1479400 1510321 1539016 1563823 
3340.398 1583010 1594450 1596246 1588630 1574131 1558003 1546199 1544536 
3344.255 1555775 1578521 1607520 1635124 1653949 1659038 1648993 1626776 
3348.113 1598042 1569542 1547229 1535691 1535924 1547063 1565618 1587400 
3351.970 1606755 1619892 1624049 1619493 1609050 1597476 1590393 1591590 
3355.827 1602964 1622187 1645401 1666555 1680824 1685581 1680026 1665757 
3359.685 1645800 1623982 1604261 1591391 1590493 1605990 1640512 1693364 
3363.542 1759664 1829833 1892925 1938619 1960419 1958189 1937820 1909498 
3367.400 1882808 1864472 1855821 1852926 1848966 1836953 1813828 1780391 
3371.257 1741865 1705173 1677864 1663462 1663329 1675236 1694629 1716616 
3375.115 1736942 1752944 1763789 1770044 1773770 1777563 1784150 1795961 
3378.972 1813762 1837319 1864373 1892126 1916986 1936589 1949935 1957357 
3382.829 1961185 1964181 1968940 1977261 1989910 2005155 2020501 2032751 
3386.687 2038777 2036114 2024529 2005189 1980956 1955760 1934392 1920880 
3390.544 1919049 1931563 1959854 2003824 2061315 2128037 2196966 2259479 
3394.402 2307010 2332394 2332294 2308542 2268239 2222410 2182214 2156806 
3398.259 2149813 2159003 2177818 2198465 2214117 2221511 2221178 2216016 
3402.116 2210154 2205658 2203827 2204060 2205625 2208356 2213551 2222177 
3405.974 2234066 2247389 2257614 2259712 2249354 2225407 2190839 2151911 
3409.831 2117382 2094974 2089813 2102865 2131433 2169393 2209088 2243825 
3413.689 2267739 2277432 2272469 2254882 2229371 2202494 2181215 2171691 
3417.546 2177452 2198565 2231668 2270337 2307210 2336491 2354647 2362109 
3421.404 2362143 2359777 2359578 2364075 2373836 2386963 2400623 2411685 
3425.261 2418348 2420281 2418981 2417615 2420048 2429644 2448670 2476927 
3429.118 2511985 2548879 2581609 2604508 2613675 2607942 2589642 2563110 
3432.976 2534314 2508652 2490357 2481159 2480726 2486724 2496122 2505886 
3436.833 2513118 2515784 2513551 2506653 2496189 2483892 2471662 2461166 
3440.691 2453168 2448470 2447104 2449636 2456500 2468363 2485891 2508586 
3444.548 2535714 2564244 2590542 2610442 2620042 2617575 2603775 2580976 
3448.406 2553145 2524416 2497755 2475094 2457533 2445338 2438340 2435908 
3452.263 2437607 2442239 2448570 2454801 2459399 2461299 2459799 2455267 
3456.120 2449369 2443872 2441772 2445004 2455001 2472228 2494856 2520583 
3459.978 2546046 2568710 2586976 2601342 2613908 2628176 2646477 2670747 
3463.835 2700452 2733494 2767272 2798985 2826999 2849978 2866721 2875527 
3467.693 2873525 2857449 2825098 2776609 2715823 2650311 2589709 2542713 
3471.550 2515451 2508886 2519650 2541213 2567277 2593175 2617309 2640377 
3475.407 2663079 2684349 2700552 2706054 2695485 2665646 2618242 2558977 
3479.265 2496455 2439540 2394426 2362742 2341388 2324998 2307810 2286492 
3483.122 2260478 2232035 2204126 2179616 2159836 2145185 2134962 2128236 
3486.980 2123841 2119180 2111155 2095273 2067507 2025727 1970971 1908899 
3490.837 1847934 1797658 1766317 1757601 1769844 1796194 1827204 1853624 
3494.695 1868699 1870529 1861544 1847601 1834890 1828568 1831397 1842643 
3498.552 1859082 1876452 1888665 1890562 1877251 1845871 1796327 1731253 
3502.409 1657807 1585338 1523721 1481062 1461580 1464273 1484553 1515042 
3506.267 1548493 1578454 1600536 1613905 1619792 1621688 1623517 1628106 
3510.124 1636055 1645202 1651255 1649326 1635656 1609482 1572901 1530936 
3513.982 1490239 1456626 1434020 1423116 1421654 1425909 1431494 1434918 
3517.839 1434485 1429998 1422418 1413277 1404135 1397154 1394794 1399913 
3521.697 1414806 1440569 1475144 1513579 1549125 1574530 1585571 1581115 
3525.554 1564621 1541576 1518600 1501011 1491203 1489075 1492566 1498418 
3529.411 1504236 1507727 1507594 1502108 1489341 1467930 1437644 1399913 
3533.269 1358298 1318248 1285181 1263348 1254342 1257665 1269927 1286676 
3537.126 1303924 1318414 1328783 1334002 1332805 1324330 1307281 1281957 
3540.984 1249823 1214734 1182173 1158086 1148485 1157488 1187057 1234637 
3544.841 1294087 1356071 1409121 1442996 1451374 1433388 1393731 1341779 
3548.698 1289002 1245071 1217857 1211378 1225699 1256602 1297842 1340981 
3552.556 1377410 1400479 1405099 1389077 1352415 1298141 1232378 1163734 
3556.413 1103106 1060057 1040926 1046639 1072281 1108554 1143734 1168319 
3560.271 1177189 1169481 1148651 1119583 1086564 1052385 1019172 989581 
3564.128 967829 960291 973275 1010138 1067099 1131907 1185462 1210547 
3567.986 1200580 1160843 1104236 1044912 993466 954579 928446 911412 898430 
3572.325 885348 869146 849558 827780 805738 785257 767366 752396 740978 
3576.665 733278 730125 732150 739717 752031 767598 783730 797904 807962 
3581.004 812576 811680 806800 800560 796145 797672 808526 831664 868349 
3585.344 918485 979087 1044446 1106461 1156126 1186160 1193702 1179847 
3589.201 1148850 1105265 1053713 998714 945182 898164 862440 841225 834951 
3593.541 840761 851816 860149 858854 844413 818054 784161 749575 721297 
3597.881 705067 704636 720633 751234 790900 833225 870441 896405 907893 
3602.220 905104 890627 868582 844081 821008 803116 793721 796111 812742 
3606.560 844479 889233 940599 988618 1022692 1035512 1025814 998946 963778 
3610.899 929309 902547 886112 878409 874126 867486 855501 839134 823564 
3615.239 815066 818651 836677 867818 906863 946311 977360 992204 987787 
3619.579 965206 929642 887141 843417 802352 765739 734440 707656 684458 
3623.918 663883 645134 630003 621907 626453 651074 701881 781008 879936 
3628.258 976164 1039365 1049030 1008577 942326 876484 827780 803082 800261 
3632.597 811879 826884 834254 827814 807929 781074 756877 743999 746919 
3636.937 765009 793157 823531 848396 862307 864033 855534 840827 823896 
3641.277 807995 794684 784958 779514 780444 790269 812410 849459 901817 
3645.616 966036 1034150 1092078 1123237 1113969 1059891 970286 865992 771913 
3649.956 705001 670421 662390 670354 685056 701019 716186 729627 740846 
3654.295 749044 753591 755981 760329 773440 801223 845110 900190 956273 
3658.635 1000573 1020965 1009108 962748 887174 793921 698762 615569 554288 
3662.975 519587 510696 523767 555051 601268 660631 731519 812809 901285 
3667.314 992935 1081980 1161109 1222310 1256934 1259692 1230351 1175694 
3671.172 1106229 1031427 959494 895807 844977 811746 799564 807497 826287 
3675.511 840794 838868 819149 790734 764378 747583 742571 746554 752861 
3679.851 753690 742903 718575 683994 645931 611820 587797 576782 577744 
3684.190 586636 598879 611488 624727 642845 672014 719305 787879 872001 
3688.530 956804 1022559 1052152 1039166 988584 913371 828577 746289 674967 
3692.870 617859 575422 546160 528710 521046 521445 527814 537468 547752 
3697.209 557307 565900 575090 587267 604122 625490 648453 667434 676494 
3701.549 672014 656185 635909 620447 616929 627548 649150 674237 693883 
3705.888 700056 688374 659636 620579 581062 552861 545496 563544 604852 
3710.228 660465 717878 764478 793356 804311 802717 795414 787149 780112 
3714.568 774137 767731 758835 746256 728432 705200 676991 645234 612284 
3718.907 581228 555283 538032 531961 538928 558734 589357 626419 665476 
3723.247 702346 735270 764611 792327 820344 849592 878210 902481 918020 
3727.586 921540 912010 891325 862639 829673 796875 767930 745957 732946 
3731.926 729860 736597 752960 778087 810950 847434 880202 898264 891789 
3736.266 858124 803580 740945 682633 639659 617991 619285 640787 675930 
3740.605 716152 752562 778452 789638 784029 761590 724284 676726 625158 
3744.945 574924 527615 482301 437821 394739 355673 325597 309980 312732 
3749.284 333290 364494 393346 407939 403992 386481 366086 354281 357000 
3753.624 374244 401637 432316 459911 478221 482799 472085 447739 414903 
3757.964 381507 356602 347648 358592 387675 428899 473179 511924 540188 
3762.303 556212 562118 561753 561089 565535 578010 597784 620347 639261 
3766.643 649581 649813 642612 633919 630633 638498 658872 687213 714360 
3770.982 731685 734075 721429 697733 669492 643177 623566 613810 614408 
3775.322 624395 641982 665509 693618 724947 757474 787315 809157 818386 
3779.662 812610 793323 764810 732349 699757 668629 639062 610426 583385 
3784.001 560094 544833 542046 554155 580365 615967 653596 686483 709216 
3788.341 720401 721861 719438 719073 725611 740414 761258 782966 799663 
3792.680 807398 804510 792925 776560 760727 749973 747218 752130 762088 
3797.020 772676 779979 782137 779282 772743 765175 759333 758205 763615 
3801.360 775398 790203 804377 814800 821008 824062 825755 828112 832959 
3805.699 841425 852745 864697 873064 874392 866225 848297 821373 786352 
3810.039 744862 698762 650842 604122 562051 527715 503233 490826 492452 
3814.378 509469 542146 587200 637635 683629 718077 738854 748944 753923 
3818.718 760063 773573 798269 832694 867851 888967 882891 847102 789074 
3823.058 721197 654990 599377 560990 542245 541781 553392 568355 577313 
3827.397 575090 562284 544136 528179 521644 529705 553823 591812 637038 
3831.737 681571 717447 739385 744961 734573 709415 672246 627216 580564 
3836.076 541150 520051 527217 568488 640522 731619 822568 894711 935718 
3840.416 941164 914334 863602 800360 735502 679215 638962 618124 616266 
3844.756 629804 653762 682699 712435 739286 759831 772046 773639 763847 
3849.095 743169 713896 680775 649415 627813 624727 648021 699260 767366 
3853.435 829075 860481 853277 815166 760296 701350 648751 609231 586669 
3857.774 582422 594865 620281 653298 688009 719206 742538 755715 758072 
3862.114 751699 738589 720865 699857 675465 647922 618024 588361 562250 
3866.454 543141 533885 537136 553956 583816 621873 658707 682202 683529 
3870.793 662689 626751 585409 547752 520947 509137 512654 526985 544833 
3875.133 558634 564639 563246 558568 556013 560990 577811 608137 650211 
3879.472 697733 742007 774203 789605 788775 776560 760063 744895 736332 
3883.812 738124 752097 776958 806170 829971 838337 825789 793555 746588 
3888.152 691793 636474 587665 551070 530269 525459 532790 546525 561587 
3892.491 576052 590783 607241 625955 644637 660399 668629 666804 654094 
3896.831 633056 608800 587366 575024 575090 587930 610559 639261 671018 
3901.170 704702 740646 778751 817655 853708 882427 899824 905104 900953 
3905.510 891789 881762 873163 865859 857493 844778 824428 794518 755184 
3909.850 708353 658773 611820 573697 549577 543406 556378 587631 634814 
3914.189 694348 761159 829507 892321 942359 973508 982341 969456 938839 
3918.529 897069 851384 808228 772809 747849 733776 729295 732349 740480 
3922.868 750869 761656 770917 777589 780676 781307 780875 782170 788078 
3927.208 800427 819946 845342 873562 900289 920975 932896 935718 931202 
3931.548 923598 917057 914334 916327 921473 927151 930870 930903 926354 
3935.887 917289 904307 888004 869744 850787 832162 815365 800294 787116 
3940.227 775365 764478 755350 749608 749409 756976 772444 793887 817390 
3944.566 838570 853974 862506 865029 864930 865859 870242 878575 888735 
3948.906 896903 899625 895110 883854 868051 850787 834287 820577 810784 
3953.246 806800 811348 827548 858091 903477 960822 1022991 1080518 1123901 
3957.585 1145628 1143003 1117689 1075503 1023854 970087 920311 878608 847400 
3961.925 827780 820278 824262 838503 860381 886975 915397 943057 968892 
3966.264 992636 1014422 1034316 1051388 1063910 1069657 1066634 1054045 
3970.122 1032822 1005156 974703 945049 919946 902481 894047 895010 903278 
3974.461 915098 925192 927815 919713 900024 872134 842553 818983 808095 
3978.801 813307 833590 865096 901186 935951 965571 988651 1005821 1018042 
3983.141 1025681 1027441 1022028 1008212 987157 962350 938773 921340 912873 
3987.480 913803 920842 929642 935784 936415 931899 924130 916592 912342 
3991.820 912973 918452 927516 938142 948502 957103 963147 966069 966534 
3996.159 965538 964840 966667 972843 984666 1001536 1020899 1038501 1049661 
4000.499 1050325 
##END=
