##TITLE=ad17_1 Oct 06 08:09:10 2026 (GMT+02:00)
##JCAMP-DX=5.01  $$ Nicolet v. 1
##DATATYPE=INFRARED SPECTRUM
##ORIGIN=Vojna akademija
##OWNER=Nicolet
##LONGDATE=2026/10/06
##TIME=08:09:36
##SPECTROMETER/DATA SYSTEM=Nicolet iS20
##DATA PROCESSING=
Ratio against background
%Transmittance->Absorbance
Truncated
ElementMultiply or ElementDivide
##COMMENTS=
Number of sample scans: 8
Collection length: 11,90 sec
Sample gain: 8,0
Background collected on: Tue Oct 06 08:07:57 2026 (GMT+02:00);
Number of background scans: 8
Background gain: 8,0
Sample spacing:  1,000
Number of scan points: 12415
Resolution points: 8286
Number of FFT points: 65536
Apodization: N-B strong;
Phase correction: Mertz;
Laser frequency: 15798,00 cm-1
Number of rejected sample scans: 0
Number of rejected background scans: 0
Bench serial number: BER2010005;
##RESOLUTION= 4,000
##XUNITS=1/CM
##YUNITS=ABSORBANCE
##FIRSTX=400.156891
##LASTX=4000.123047
##FIRSTY=0.032391
##MAXX=4000.123047
##MINX=400.156891
##MAXY=0.259013
##MINY=0.000453
##XFACTOR=1.000000
##YFACTOR=1.000000E-009
##NPOINTS=7468
##DELTAX=0.482117
##ZPD=6100
##XYDATA=(X++(Y..Y))
400.157 32390852 30339150 27730884 24852502 22151446 20085700 18959888 
403.532 18903092 19815626 21428678 23346196 25171896 26591338 27427708 
406.907 27662902 27382182 26726840 25846274 24898640 24032908 23351162 
410.281 22893160 22609326 22383762 22069618 21561462 20842664 20007870 
413.656 19215264 18631124 18351546 18377020 18644508 19082260 19663994 
417.031 20432342 21475464 22830330 24338452 25614418 26205394 25874690 
420.406 24740138 23158796 21553106 20258554 19501842 19348032 19706256 
423.781 20354762 21033242 21547640 21826180 21920192 21927058 21907822 
427.155 21842276 21642184 21203098 20475478 19504650 18431190 17435560 
430.530 16693940 16302379 16256353 16461859 16788504 17116944 17381584 
433.905 17579792 17755964 17976168 18299254 18763884 19373634 20097882 
437.280 20871068 21608890 22214560 22589256 22658756 22386380 21790154 
440.655 20937508 19938934 18914338 17957210 17125974 16437219 15884912 
444.030 15460909 15172523 15041369 15095397 15354210 15821645 16482474 
447.404 17311892 18278000 19352154 20506846 21703518 22887886 23989380 
450.779 24920150 25604084 25993504 26084694 25914114 25545430 25045022 
454.154 24463998 23847836 23239046 22681866 22225894 21900852 21696622 
457.529 21543808 21340896 20996346 20485656 19867962 19265658 18825748 
460.904 18671280 18890528 19500006 20435920 21552548 22662806 23578246 
464.278 24133774 24223908 23800442 22889912 21599836 20127900 18729706 
467.653 17637830 17021414 16923804 17268344 17883384 18567350 19134022 
471.028 19451352 19477932 19257866 18897760 18512162 18183216 17929966 
474.403 17714134 17461880 17100160 16584976 15917769 15156088 14409340 
477.778 13815818 13486343 13474654 13745943 14193675 14662500 15004256 
481.152 15130837 15042260 14830293 14635255 14591255 14750759 15058382 
484.527 15357300 15463794 15228079 14610616 13693108 12650274 11682158 
487.902 10948557 10547236 10490952 10724721 11151295 11670518 12193600 
491.277 12650512 12990176 13171839 13169107 12978637 12625645 12160512 
494.652 11644378 11136236 10676905 10285163 9964594 9711987 9527363 9418454 
498.509 9398138 9476630 9654051 9917640 10242824 10598093 10955184 11286960 
502.366 11570428 11780879 11890347 11876487 11732367 11479922 11170980 
505.740 10886548 10711951 10707095 10888723 11216334 11607861 11964625 
509.115 12211252 12311251 12269530 12116898 11893038 11630187 11344128 
512.490 11040925 10727098 10417232 10141773 9937066 9836934 9860625 10002024 
516.347 10232103 10506940 10788507 11054995 11309949 11572368 11867804 
519.722 12209241 12588328 12971980 13313637 13564860 13687227 13668249 
523.097 13524216 13300518 13059827 12870839 12785588 12821318 12952725 
526.471 13119313 13248693 13277423 13176654 12953375 12645736 12304639 
529.846 11984481 11730052 11566005 11496796 11507514 11570496 11651458 
533.221 11717218 11740298 11699586 11584005 11391474 11130490 10816327 
536.596 10472046 10127359 9814531 9570175 9426648 9404943 9507515 9714698 
540.453 9988360 10279261 10544995 10762455 10935034 11088373 11257103 
543.828 11464782 11706598 11944734 12118567 12171007 12069166 11826944 
547.203 11500947 11177201 10934286 10826009 10867761 11040177 11302263 
550.577 11610583 11935062 12256851 12564521 12843944 13072735 13226250 
553.952 13289687 13270625 13201554 13133964 13120337 13191410 13347701 
557.327 13556827 13769781 13933979 14013534 13996459 13891042 13718482 
560.702 13506032 13284870 13086461 12946274 12897973 12960714 13131402 
564.077 13374934 13632142 13828475 13905787 13844723 13678849 13486036 
567.451 13368032 13418367 13686646 14166425 14796660 15489649 16150694 
570.826 16708815 17129592 17410350 17574274 17658362 17708198 17766424 
574.201 17871992 18052564 18318056 18656440 19033826 19407416 19733856 
577.576 19986186 20157714 20256158 20294000 20278620 20209954 20084694 
580.951 19909136 19708822 19527108 19419370 19433160 19587556 19864286 
584.326 20207002 20539984 20787638 20905034 20889528 20777802 20626042 
587.700 20489756 20403100 20368374 20360562 20341222 20278064 20155736 
591.075 19985250 19797108 19634108 19531024 19505136 19549982 19639796 
594.450 19735868 19797140 19791662 19700292 19522774 19275806 18990278 
597.825 18702792 18446886 18250526 18127388 18076744 18083998 18127214 
601.200 18182250 18230278 18263314 18282422 18295418 18311454 18335508 
604.574 18364300 18387564 18388980 18353102 18270224 18138544 17964910 
607.949 17764214 17554228 17352582 17175574 17036680 16945992 16908682 
611.324 16922426 16975138 17044364 17103710 17128146 17102880 17029684 
614.699 16925182 16815918 16723897 16658580 16609451 16550863 16451983 
618.074 16293950 16079996 15837004 15603663 15419401 15308764 15273928 
621.448 15299463 15360972 15438524 15522511 15616234 15728323 15862849 
624.823 16012060 16156025 16265847 16318342 16299490 16209196 16056307 
628.198 15850544 15596931 15295996 14948867 14566310 14174812 13818282 
631.573 13545888 13402374 13413616 13577201 13861006 14208704 14557778 
634.948 14848430 15042123 15128572 15125451 15070664 15011836 14994275 
638.323 15045039 15167206 15337631 15517600 15661746 15736500 15732240 
641.697 15664220 15566468 15474987 15416551 15397841 15409650 15437563 
645.072 15475880 15536693 15648212 15839754 16127208 16496895 16907198 
648.447 17294824 17602046 17796248 17879690 17884214 17852830 17821448 
651.822 17804154 17796592 17787688 17776814 17781336 17834534 17969124 
655.197 18201494 18518454 18880734 19234590 19537886 19773942 19955170 
658.571 20110860 20270530 20445886 20625902 20784684 20898950 20963762 
661.946 20999510 21044650 21138216 21307208 21555682 21870082 22232276 
665.321 22635334 23087890 23611410 24224820 24904394 25546904 25991920 
668.696 26125404 25976548 25676140 25363366 25129274 25027508 25087216 
672.071 25317104 25711188 26246012 26886386 27588114 28309896 29019810 
675.446 29696078 30330482 30926704 31498418 32060896 32625496 33191372 
678.820 33745808 34267244 34736040 35145776 35506340 35841124 36174288 
682.195 36520536 36877232 37228380 37553396 37841928 38101132 38355356 
685.570 38634784 38965680 39360012 39813572 40311448 40836648 41376624 
688.945 41925380 42479024 43029828 43561588 44053808 44485828 44846968 
692.320 45142076 45391880 45626780 45877528 46171716 46526292 46945496 
695.694 47418804 47920112 48409188 48835220 49153612 49335940 49386872 
699.069 49347004 49288432 49290732 49410932 49670452 50046784 50488384 
702.444 50936320 51353576 51734732 52105908 52504212 52960480 53483076 
705.819 54060856 54674772 55315372 55992760 56732444 57558240 58475668 
709.194 59460084 60466504 61444644 62363828 63229152 64079112 64966648 
712.569 65929884 66976824 68080048 69193416 70274360 71309704 72321048 
715.943 73358184 74472328 75701032 77055976 78524720 80079360 81684264 
719.318 83298800 84864048 86299864 87506528 88374456 88823128 88819096 
722.693 88388832 87601944 86549520 85311528 83936608 82450632 80867024 
726.068 79205848 77503512 75804824 74146392 72543920 70987608 69450344 
729.443 67907912 66355780 64812480 63311024 61877324 60516816 59209196 
732.817 57920344 56620396 55303552 53993128 52734008 51567616 50516372 
736.192 49570828 48696612 47846936 46983004 46087668 45163916 44226676 
739.567 43290064 42361056 41438404 40519456 39607388 38712656 37849556 
742.942 37028108 36247684 35497784 34764900 34043284 33340898 32678402 
746.317 32078020 31551826 31090936 30665772 30234984 29765198 29242860 
749.692 28683274 28122252 27605380 27169856 26831470 26583976 26404326 
753.066 26262802 26131386 25991146 25830520 25642502 25423118 25171580 
756.441 24892044 24596314 24303692 24035394 23809262 23635094 23512552 
759.816 23433546 23384904 23353468 23326688 23290992 23232648 23136150 
763.191 22989116 22787484 22539280 22264640 21988468 21733894 21512508 
766.566 21322276 21151506 20987302 20822330 20658772 20504204 20363304 
769.940 20230886 20089552 19914410 19685870 19400244 19075438 18745930 
773.315 18450204 18217768 18056226 17951064 17872510 17790450 17684626 
776.690 17551916 17402968 17255278 17121836 17005288 16897554 16785748 
780.065 16658166 16509697 16343834 16170125 16000267 15844667 15710836 
783.440 15602496 15520004 15459193 15411779 15366259 15308558 15227873 
786.815 15120133 14990708 14852030 14720629 14608559 14518343 14442839 
790.189 14367554 14278962 14169540 14041117 13903153 13767934 13643801 
793.564 13533752 13436138 13348829 13272777 13213748 13177816 13168116 
796.939 13179217 13198514 13208693 13196055 13156640 13097491 13033058 
800.314 12979081 12944840 12931049 12931561 12940129 12955832 12985908 
803.689 13042891 13137754 13274109 13444442 13631732 13813800 13973156 
807.063 14098684 14186759 14239312 14258760 14246640 14204733 14137842 
810.438 14056346 13975825 13914990 13888100 13904111 13962549 14056963 
813.813 14176798 14311802 14453150 14592180 14719395 14824362 14897565 
817.188 14934704 14939813 14927399 14915877 14922427 14956343 15015335 
820.563 15087027 15155300 15208793 15243693 15264868 15281135 15300664 
823.938 15327265 15360354 15400209 15450575 15520416 15620219 15755877 
827.312 15922237 16101830 16270284 16402464 16484814 16519850 16525598 
830.687 16527319 16549313 16607730 16708402 16850120 17030236 17247970 
834.062 17503548 17792866 18103516 18409410 18678024 18879454 18996404 
837.437 19033098 19014716 18980170 18965320 18996888 19082224 19212390 
840.812 19367398 19525098 19668224 19785350 19871570 19926168 19953226 
844.186 19961344 19965264 19984590 20037258 20134496 20274316 20442310 
847.561 20614194 20767514 20891266 20990258 21083328 21194748 21343472 
850.936 21533538 21751902 21972610 22168356 22316088 22404938 22435048 
854.311 22413486 22349226 22250342 22125470 21984356 21839420 21704982 
857.686 21592244 21506240 21443646 21394390 21346882 21294226 21239144 
861.060 21194574 21179336 21211414 21303172 21455168 21656602 21885100 
864.435 22114488 22315530 22460798 22531324 22518688 22431456 22294706 
867.810 22150050 22043716 22013146 22077462 22226732 22424024 22612538 
871.185 22737272 22756196 22656068 22453540 22191162 21922422 21695648 
874.560 21547220 21490574 21517244 21600568 21706096 21795520 21836354 
877.935 21808862 21709404 21552618 21365954 21187024 21050876 20980870 
881.309 20985078 21054422 21167020 21296246 21421054 21530752 21626546 
884.684 21717800 21815726 21926744 22049156 22172472 22281102 22359726 
888.059 22396530 22386588 22331994 22240438 22121842 21987108 21845446 
891.434 21702754 21563378 21430766 21308286 21201568 21116928 21060336 
894.809 21035086 21040060 21068544 21109100 21149036 21176344 21183962 
898.183 21171092 21143992 21114388 21095708 21101552 21141312 21217606 
901.558 21325234 21450782 21574138 21672032 21726090 21725778 21674748 
904.933 21589528 21497884 21428468 21401214 21421436 21477762 21546908 
908.308 21601334 21622890 21605756 21562332 21515398 21491130 21509408 
911.683 21576750 21685650 21816946 21946260 22047480 22100122 22091024 
915.058 22014994 21875832 21686104 21466342 21240014 21032164 20863244 
918.432 20744818 20680596 20666938 20694914 20752880 20827508 20903294 
921.807 20961048 20981216 20945958 20846210 20686572 20488366 20286396 
925.182 20117176 20011860 19984658 20029868 20126548 20247790 20370528 
928.557 20481628 20579832 20671386 20763864 20860812 20960806 21059884 
931.932 21155992 21251148 21350884 21460252 21579778 21703346 21820432 
935.306 21921482 22003910 22075406 22152422 22253028 22391332 22571912 
938.681 22789472 23032964 23291306 23557710 23829144 24103546 24374690 
942.056 24630538 24855976 25038704 25177372 25283810 25383282 25503122 
945.431 25662396 25864596 26095144 26327504 26533254 26695478 26813778 
948.806 26904436 26991552 27099316 27241538 27418744 27618514 27822652 
952.181 28013526 28179098 28316936 28434084 28544966 28667770 28819960 
955.555 29014708 29255690 29536062 29838978 30142668 30424220 30668010 
958.930 30867896 31027870 31157394 31266372 31360708 31441350 31506970 
962.305 31558596 31601604 31646434 31703678 31779174 31869698 31963308 
965.680 32044240 32097072 32114446 32097570 32054156 31993624 31923008 
969.055 31845846 31763382 31678226 31595514 31521506 31460870 31411390 
972.429 31364128 31305332 31224074 31117702 30995628 30874726 30773952 
975.804 30704532 30665416 30644438 30626696 30603584 30580156 30574360 
979.179 30610872 30709866 30876398 31097022 31342048 31577908 31774220 
982.554 31913594 31993304 32020838 32007034 31962060 31894408 31812296 
985.929 31726596 31652354 31605170 31597648 31634570 31710520 31810370 
989.304 31914272 32004144 32065104 32090080 32078520 32035642 31970832 
992.678 31897724 31833616 31794432 31793722 31836220 31917374 32023906 
996.053 32139632 32252536 32358866 32465078 32582458 32720342 32878424 
999.428 33043932 33194982 33310130 33375136 33390380 33368912 33331416 
1002.803 33296034 33272206 33259690 33252462 33245772 33241768 33250854 
1006.178 33289272 33373490 33512738 33708100 33950800 34226768 34517400 
1009.552 34803096 35063292 35275636 35420992 35486924 35473984 35399204 
1012.927 35295688 35205020 35164024 35198340 35315060 35504580 35747212 
1016.302 36021264 36311192 36605784 36897832 37179320 37438060 37662296 
1019.677 37845292 37991472 38117952 38252072 38420544 38639056 38907400 
1023.052 39207712 39511500 39787496 40012952 40176876 40280800 40334752 
1026.427 40353912 40353880 40347984 40346244 40352820 40364964 40372420 
1029.802 40361476 40320172 40243976 40141040 40031116 39940440 39888460 
1033.177 39882428 39910728 39949300 39967864 39944108 39872516 39763388 
1036.553 39637480 39514328 39404456 39304332 39198864 39069748 38904428 
1039.928 38700924 38469308 38227248 37997188 37800392 37654672 37573592 
1043.303 37564740 37627824 37754092 37927688 38127684 38334688 38537916 
1046.678 38739176 38952048 39195096 39484280 39823560 40201916 40595412 
1050.054 40978196 41330052 41645352 41932708 42212884 42508804 42838676 
1053.429 43212500 43630240 44083992 44558188 45032936 45485176 45890636 
1056.804 46231900 46502724 46715276 46895884 47080300 47299524 47566508 
1060.179 47871052 48184776 48473088 48709288 48888132 49025580 49151832 
1063.555 49293888 49466220 49664580 49872476 50070768 50249912 50413132 
1066.930 50572876 50739756 50915044 51087684 51241600 51366592 51469164 
1070.305 51573808 51718416 51942052 52269152 52706620 53243704 53862092 
1073.680 54543676 55279468 56067476 56907380 57795192 58720220 59669116 
1077.056 60634108 61618544 62637448 63709960 64849800 66055128 67308872 
1080.431 68582584 69850520 71097528 72321760 73528168 74718464 75882864 
1083.806 77001456 78051984 79024440 79929416 80799528 81677136 82597768 
1087.181 83581432 84626640 85717432 86834728 87966184 89104944 90242896 
1090.557 91361616 92424784 93383952 94195936 94834536 95302928 95629944 
1093.932 95856800 96017264 96127720 96186016 96181552 96105968 95961264 
1097.307 95758144 95507152 95209672 94856088 94430104 93921648 93335680 
1100.682 92694432 92026976 91358752 90700608 90047536 89388160 88718448 
1104.057 88050944 87417368 86858232 86406176 86079728 85876656 85784080 
1107.433 85789968 85893816 86108736 86455144 86945016 87573400 88313504 
1110.808 89126704 89971352 90819440 91661040 92498952 93338888 94179464 
1114.183 95006832 95800896 96542056 97217936 97824488 98357192 98802272 
1117.558 99133392 99312448 99305440 99095848 98691888 98122920 97426304 
1120.934 96632936 95755376 94791960 93736832 92594240 91388600 90163464 
1124.309 88969048 87857256 86868520 86031736 85372904 84916184 84688928 
1127.684 84717848 85019584 85596312 86433752 87509280 88800440 90298048 
1131.059 92008264 93949000 96135032 98565936 101217024 104046000 107001520 
1134.435 110038384 113130856 116266672 119437560 122624424 125787008 
1137.328 128870232 131819952 134596864 137188976 139605376 141858688 
1140.221 143946976 145844416 147509184 148908192 150036560 150931872 
1143.114 151660688 152303760 152923728 153550736 154185904 154815024 
1146.007 155427456 156028224 156635024 157267824 157934160 158624096 
1148.900 159316240 159992704 160652976 161318160 162021232 162789680 
1151.793 163631952 164532416 165459952 166382272 167282736 168161104 
1154.686 169024592 169873024 170686016 171424608 172047648 172527056 
1157.579 172864528 173088400 173240208 173348752 173417296 173421712 
1160.472 173326128 173100592 172737360 172250416 171664976 170998704 
1163.365 170252064 169410912 168460368 167400160 166251264 165047424 
1166.258 163819520 162577968 161308064 159976720 158553504 157028864 
1169.151 155420352 153763312 152090144 150415248 148726912 146999072 
1172.045 145210096 143362448 141488896 139642256 137869600 136195776 
1174.938 134610320 133076952 131549688 129997432 128415032 126821296 
1177.831 125243904 123703576 122202856 120728704 119261440 117789440 
1180.724 116317040 114863040 113450032 112092848 110793736 109543008 
1183.617 108327504 107138384 105974496 104840088 103738248 102664960 
1186.510 101608728 100555896 99498560 98438976 97388360 96358064 95351864 
1189.885 94359568 93360408 92332032 91264872 90168800 89073904 88017512 
1193.260 87032616 86134512 85317048 84556512 83822376 83090128 82344288 
1196.636 81580736 80801848 80012192 79216224 78420760 77638272 76886112 
1200.011 76185664 75553776 74996744 74507224 74067120 73655152 73253960 
1203.386 72856592 72466080 72090512 71736336 71405176 71093592 70798408 
1206.761 70521008 70268872 70052928 69880952 69751024 69650728 69559024 
1210.137 69456904 69334376 69194432 69050488 68918944 68810608 68725832 
1213.512 68656560 68593424 68533432 68483272 68457704 68471200 68530096 
1216.887 68628224 68748544 68870248 68979952 69076512 69171856 69284392 
1220.262 69430744 69619888 69850048 70113400 70401024 70708480 71034696 
1223.638 71379592 71740360 72107376 72467880 72809728 73126784 73421592 
1227.013 73703640 73983472 74266480 74551984 74833512 75104544 75362816 
1230.388 75611704 75858240 76107608 76358776 76603728 76830344 77028680 
1233.763 77193528 77324840 77424736 77490792 77515744 77487624 77398240 
1237.139 77248512 77053048 76836232 76620840 76419816 76228600 76028536 
1240.514 75792984 75501736 75148392 74741640 74298792 73835032 73355792 
1243.889 72854280 72315336 71724104 71075016 70372224 69627472 68853088 
1247.264 68057712 67245624 66419712 65588860 64769328 63984276 63259124 
1250.640 62611036 62046464 61558368 61132416 60751348 60402644 60081644 
1254.015 59788112 59523656 59286860 59070804 58865976 58661696 58449740 
1257.390 58225348 57986340 57731572 57459896 57172136 56873572 56574800 
1260.765 56290944 56036412 55818348 55634404 55472900 55316952 55151652 
1264.141 54969156 54769216 54556676 54335712 54106192 53863704 53603092 
1267.516 53321660 53023632 52718220 52417060 52128136 51853856 51592352 
1270.891 51342016 51106432 50896604 50727544 50613268 50557984 50553592 
1274.266 50579504 50611444 50627604 50615916 50574664 50508964 50423140 
1277.641 50314716 50173812 49987184 49745908 49450364 49111944 48748060 
1281.017 48375852 48003224 47627876 47238636 46822876 46372712 45888204 
1284.392 45376504 44849424 44318144 43791464 43277068 42783900 42323176 
1287.767 41909356 41555028 41268720 41051208 40896168 40792168 40726620 
1291.142 40689284 40671420 40665092 40661452 40648568 40615312 40553868 
1294.518 40463336 40351076 40231508 40120688 40029956 39963436 39917264 
1297.893 39883412 39853300 39821852 39788188 39753620 39718292 39679736 
1301.268 39633448 39575048 39503296 39421144 39333604 39244956 39155204 
1304.643 39058764 38947448 38814492 38659740 38491828 38325420 38176884 
1308.019 38058308 37972888 37914996 37873088 37835856 37795512 37750512 
1311.394 37704504 37663812 37634292 37619188 37618936 37630644 37649544 
1314.769 37669056 37681376 37677836 37651996 37601232 37528868 37443876 
1318.144 37356840 37275272 37198596 37116160 37010536 36865368 36671900 
1321.520 36432896 36162188 35879696 35604876 35348596 35113336 34892632 
1324.895 34676532 34455268 34222932 33978140 33722168 33458014 33190512 
1328.270 32927286 32680008 32463972 32295686 32186340 32139350 32146734 
1331.645 32191624 32253180 32316032 32373932 32433442 32509212 32619246 
1335.021 32777510 32989916 33253498 33559304 33897060 34256240 34627264 
1338.396 34998892 35354956 35676164 35944264 36149800 36296604 36401580 
1341.771 36488932 36581308 36697172 36846936 37034168 37257364 37512324 
1345.146 37792948 38090864 38394552 38689548 38958576 39187188 39366036 
1348.522 39494116 39578640 39631236 39662892 39679808 39683836 39674504 
1351.897 39653304 39626332 39603760 39596716 39613120 39654068 39713828 
1355.272 39782776 39852940 39919624 39983200 40045832 40108404 40168700 
1358.647 40221400 40262076 40290796 40314612 40346496 40400128 40484356 
1362.023 40596832 40724000 40845312 40944516 41015848 41064940 41103220 
1365.398 41141612 41186128 41237752 41293464 41349984 41406220 41464432 
1368.773 41527648 41598492 41677008 41763164 41859692 41976800 42132992 
1372.148 42355028 42673524 43111900 43677060 44350328 45089656 45837832 
1375.524 46538392 47143672 47608100 47887148 47935060 47709268 47190212 
1378.899 46390628 45359804 44164976 42877808 41554700 40230232 38928640 
1382.274 37668620 36468748 35346904 34311028 33356462 32465148 31613224 
1385.649 30779822 29958064 29159650 28410028 27733638 27140332 26620472 
1389.025 26152992 25717832 25302950 24906606 24535340 24197494 23898734 
1392.400 23640658 23422740 23244848 23110464 23025208 22993310 23012872 
1395.775 23074892 23167568 23280154 23407248 23546728 23696572 23850600 
1399.150 23997434 24122320 24215046 24271630 24295422 24292126 24265076 
1402.526 24211472 24122076 23983428 23785706 23529936 23233836 22926692 
1405.901 22642384 22407696 22235938 22131188 22092556 22121320 22225858 
1409.276 22420428 22721002 23138910 23674352 24313466 25032104 25802846 
1412.651 26598172 27394074 28171144 28908948 29589266 30195946 30716410 
1416.026 31144044 31475830 31707808 31829942 31825520 31679474 31394224 
1419.402 31002318 30558436 30113086 29698278 29322010 28977482 28655488 
1422.777 28352480 28077500 27854058 27709482 27665266 27725586 27880238 
1426.152 28112988 28413816 28783634 29234000 29780776 30434064 31188436 
1429.527 32021516 32898332 33783660 34652600 35493004 36303300 37086640 
1432.903 37845868 38582924 39301320 40006524 40710792 41432028 42188272 
1436.278 42981940 43793080 44583300 45314124 45965036 46535140 47036652 
1439.653 47487028 47904424 48305668 48702800 49102296 49504836 49906672 
1443.028 50303704 50693620 51078108 51463120 51857736 52273152 52722148 
1446.404 53218684 53776280 54404472 55107676 55883688 56729952 57650404 
1449.779 58657408 59771496 61012168 62387888 63884080 65462252 67073444 
1453.154 68666992 70212816 71704920 73148192 74545848 75873864 77061712 
1456.529 77999720 78604168 78892232 78971464 78973096 78975712 79003776 
1459.905 79057912 79134312 79234952 79365248 79530040 79725224 79933120 
1463.280 80122240 80242160 80228840 80012752 79515984 78660992 77378600 
1466.655 75607008 73320136 70538392 67337080 63815840 60085184 56228788 
1470.030 52257308 48134504 43804328 39271868 34691644 30379124 26677264 
1473.406 23763062 21586464 19951458 18636968 17494236 16451983 15503521 
1476.781 14668669 13960872 13368716 12861214 12402033 11965510 11543002 
1480.156 11139839 10767312 10432369 10132344 9856389 9592633 9335469 9086985 
1484.014 8853758 8640631 8445446 8259197 8070531 7872802 7671049 7481896 
1487.871 7327836 7226518 7179355 7166318 7154495 7116534 7041465 6937722 
1491.728 6820441 6701508 6583314 6461083 6327354 6177534 6013689 5847655 
1495.586 5696289 5577059 5497759 5452930 5428672 5414044 5406529 5411260 
1499.443 5434108 5476217 5530880 5587799 5635596 5668258 5685647 5692462 
1503.301 5694610 5696759 5699076 5697464 5683800 5650265 5595754 5531853 
1507.158 5475981 5434879 5402235 5367279 5325013 5276043 5223893 5171179 
1511.016 5117399 5058195 4987535 4901942 4804103 4703741 4615826 4554949 
1514.873 4532014 4548487 4593992 4646436 4682707 4691047 4676712 4655344 
1518.730 4643790 4652129 4680128 4716603 4741491 4735161 4688836 4611473 
1522.588 4520295 4429438 4344155 4263808 4187858 4119114 4064193 4031451 
1526.445 4024862 4041684 4072588 4107607 4139117 4165143 4187390 4208266 
1530.303 4228442 4245070 4251562 4239550 4202914 4143533 4073658 4015131 
1534.160 3986740 3994498 4033391 4094729 4172269 4264678 4373708 4502015 
1538.017 4647206 4796800 4922149 4984385 4956098 4845615 4693057 4540954 
1541.875 4414007 4316211 4240855 4180465 4131925 4096870 4078875 4079377 
1545.732 4094663 4117475 4139987 4156077 4162768 4159556 4147848 4129082 
1549.590 4103894 4071651 4030681 3979751 3918996 3850227 3776890 3704334 
1553.447 3638439 3585015 3547799 3527522 3521844 3526353 3535272 3539014 
1557.305 3521877 3463324 3349080 3199082 3077933 3041028 3087944 3186799 
1561.162 3305441 3423046 3525852 3605595 3656950 3677233 3668077 3635331 
1565.019 3589859 3542187 3501267 3470872 3451167 3438977 3429492 3417302 
1568.877 3397966 3369950 3337393 3308112 3289582 3286477 3300099 3329547 
1572.734 3373022 3428757 3495990 3573322 3657651 3742632 3815897 3863499 
1576.592 3877005 3859654 3823317 3782037 3745908 3720842 3708477 3708077 
1580.449 3717333 3733274 3752191 3770105 3782305 3783274 3767297 3729933 
1584.307 3670583 3594570 3513125 3440413 3389484 3367812 3374491 3400872 
1588.164 3433032 3457579 3464994 3453638 3428456 3398935 3373255 3356927 
1592.021 3351484 3355324 3366009 3382004 3403410 3431162 3465128 3504207 
1595.879 3545561 3586485 3626009 3665303 3706372 3750954 3798415 3845246 
1599.736 3885396 3913112 3924379 3918829 3898836 3868212 3830571 3788388 
1603.594 3743301 3697349 3653976 3617757 3593768 3585850 3595372 3620697 
1607.451 3657718 3701460 3747746 3794872 3841837 3887803 3930130 3963700 
1611.308 3983295 3985101 3969886 3941799 3908364 3878342 3859153 3857481 
1615.166 3877105 3918495 3977243 4045029 4112457 4173372 4226334 4273445 
1619.023 4317985 4362931 4409789 4458728 4507907 4552003 4584449 4598279 
1622.881 4591481 4568209 4539112 4514671 4499571 4491201 4482229 4462980 
1626.738 4426191 4371265 4304967 4241758 4196055 4177053 4185684 4216062 
1630.596 4259157 4307009 4356204 4406442 4461239 4524815 4600690 4689506 
1634.453 4787051 4884517 4971012 5040864 5098155 5151665 5210647 5278793 
1638.310 5355336 5436490 5516954 5591256 5653521 5700989 5734462 5759844 
1642.168 5786371 5826633 5893566 5998302 6147892 6343627 6579411 6837068 
1646.025 7089253 7305528 7466525 7574237 7646498 7705281 7763363 7826580 
1649.883 7895712 7971807 8056286 8154219 8271930 8412609 8565737 8702760 
1653.740 8797863 8849362 8869821 8869144 8849023 8805234 8733016 8630559 
1657.598 8501161 8354305 8202298 8058109 7929827 7818889 7720121 7624815 
1661.455 7525013 7417077 7305663 7200409 7111516 7042542 6991156 6951526 
1665.312 6919138 6893317 6878000 6880626 6910553 6974186 7070056 7184004 
1669.170 7292050 7367163 7393383 7372184 7318636 7251921 7187641 7137181 
1673.027 7107070 7101142 7121317 7166588 7230460 7301586 7369219 7427020 
1676.885 7477480 7526024 7580104 7643598 7716411 7792171 7860824 7911875 
1680.742 7938736 7943190 7934618 7930738 7955777 8037721 8194398 8410650 
1684.599 8636169 8822546 8954982 9045404 9113410 9175877 9243702 9322741 
1688.457 9414865 9519369 9632877 9752514 9874794 9998464 10123085 10250593 
1692.314 10384686 10532027 10702442 10909584 11168667 11491386 11873559 
1695.690 12287186 12690461 13052623 13370902 13664762 13963165 14292865 
1699.065 14670382 15089634 15512690 15885083 16175903 16394343 16573135 
1702.440 16741907 16918292 17112256 17328580 17567546 17824624 18088110 
1705.815 18340936 18565654 18751570 18897104 19010562 19106460 19204320 
1709.191 19324786 19485034 19697310 19965682 20287646 20655576 21061624 
1712.566 21497746 21955532 22427756 22907516 23392248 23887392 24414084 
1715.941 25008940 25715020 26569112 27570178 28666390 29777796 30838442 
1719.316 31828410 32772508 33716192 34709984 35799740 37021396 38399184 
1722.692 39943276 41652756 43517596 45525464 47665296 49928080 52309032 
1726.067 54811316 57455092 60288500 63386856 66840492 70722016 75040616 
1729.442 79713440 84582480 89464048 94265040 99060552 104151440 110047224 
1732.817 117402848 126734960 137905696 149842480 161036096 170543984 
1735.710 178381216 185115008 191373520 197640128 204210064 211203680 
1738.603 218556560 226058592 233377104 240153296 246093424 250990816 
1741.496 254723728 257252608 258631168 259013232 258609024 257614016 
1744.390 256104208 254012432 251169984 247415472 242683152 237060208 
1747.283 230738080 223950992 216841408 209400896 201485280 192946832 
1750.176 183779648 174199312 164622848 155503136 147152448 139648000 
1753.069 132874608 126610664 120611720 114663264 108600960 102331432 
1755.962 95873904 89371472 83062440 77197208 71933064 67298272 63206964 
1759.337 59507964 56025404 52598600 49128304 45608300 42144680 38909612 
1762.712 36061728 33673292 31718288 30101792 28707804 27430498 26194766 
1766.088 24964824 23744200 22566188 21474420 20503440 19661566 18930918 
1769.463 18276894 17664574 17064696 16456215 15828861 15185117 14543217 
1772.838 13932850 13381870 12906472 12508487 12177992 11897600 11648190 
1776.213 11412564 11182233 10958717 10752164 10573342 10427515 10308540 
1779.589 10198554 10073470 9915064 9720696 9503892 9286215 9085665 8911419 
1783.446 8761617 8627449 8500418 8378220 8265716 8171370 8100675 8051561 
1787.303 8014703 7978691 7933471 7875029 7805361 7728655 7646161 7551344 
1791.161 7429514 7266914 7060223 6825287 6590042 6381453 6212657 6080282 
1795.018 5970420 5866060 5754271 5631366 5502423 5379054 5272890 5190493 
1798.876 5131413 5089472 5057256 5029333 5005166 4987100 4977614 4975570 
1802.733 4977213 4977045 4971582 4960388 4945206 4928315 4910320 4888572 
1806.590 4858616 4815997 4759380 4690477 4613616 4532616 4448318 4358346 
1810.448 4259458 4151528 4039845 3934777 3848388 3788521 3756402 3745974 
1814.305 3747010 3749350 3744905 3730367 3705771 3673189 3633427 3587019 
1818.163 3534905 3480725 3432230 3399469 3390553 3408052 3447059 3496758 
1822.020 3544559 3582142 3607934 3628315 3652439 3687291 3730534 3770606 
1825.878 3791329 3779764 3732639 3656215 3563166 3469536 3391855 3341267 
1829.735 3321734 3328278 3350649 3377463 3400571 3415332 3419640 3413796 
1833.592 3398868 3377864 3353154 3324572 3287078 3232028 3148049 3027715 
1837.450 2873158 2698452 2527182 2383098 2283960 2233500 2223575 2237996 
1841.307 2260944 2282794 2303813 2331961 2378334 2447803 2532681 2614175 
1845.165 2673014 2699252 2695218 2671647 2640443 2610042 2583342 2558478 
1849.022 2532581 2505053 2477660 2453568 2433575 2414250 2388962 2351349 
1852.880 2300348 2242992 2193336 2166429 2169560 2198165 2235032 2257147 
1856.737 2242992 2183213 2084586 1966843 1854489 1766717 1713489 1693930 
1860.594 1701448 1729058 1774834 1840813 1929200 2038311 2157938 2271170 
1864.452 2360977 2414217 2428811 2412451 2380333 2346319 2318269 2293953 
1868.309 2264208 2217881 2149613 2063279 1967875 1872991 1784316 1705173 
1872.167 1636953 1582645 1547396 1537586 1557438 1606389 1678263 1760629 
1876.024 1838983 1901378 1940583 1955693 1951366 1935224 1914623 1896153 
1879.881 1884572 1882043 1888066 1899481 1910663 1915156 1908466 1890263 
1883.739 1867001 1850031 1851362 1879514 1934791 2008950 2087216 2155207 
1887.596 2202062 2224375 2226240 2216349 2202761 2188907 2173822 2154974 
1891.454 2132665 2112687 2103298 2113220 2146250 2198298 2256481 2303213 
1895.311 2323300 2308742 2261411 2189940 2105462 2016074 1925805 1834791 
1899.169 1742098 1647397 1552916 1462876 1382861 1318946 1276740 1260689 
1903.026 1273450 1314193 1377543 1453534 1529939 1593685 1636155 1655612 
1906.883 1658273 1654814 1657042 1672176 1699951 1734048 1766417 1792135 
1910.741 1812564 1833360 1860313 1895121 1933161 1964613 1979159 1972602 
1914.598 1947838 1914124 1881943 1857651 1839649 1820550 1791636 1751879 
1918.456 1711660 1690570 1705672 1766151 1867135 1991940 2115117 2210587 
1922.313 2259279 2253917 2200263 2110156 1996301 1867501 1729923 1593752 
1926.171 1472518 1386119 1352614 1381930 1469659 1596845 1735378 1853092 
1930.028 1925939 1941514 1899814 1809569 1684650 1541377 1396091 1267535 
1933.885 1173302 1124665 1122772 1155129 1197390 1218854 1194499 1112906 
1937.743 982308 827282 680144 569881 513815 517364 575555 681206 825988 
1942.082 1003662 1209052 1431926 1658173 1869630 2047898 2178750 2254050 
1945.940 2272302 2235099 2147316 2016573 1854423 1682621 1529407 1426407 
1949.797 1400445 1464107 1609249 1809270 2028058 2228504 2382998 2481259 
1953.655 2524249 2521350 2480859 2411052 2319935 2222210 2138359 2088681 
1957.512 2083787 2114052 2147815 2140556 2053425 1876519 1641576 1418496 
1961.370 1285746 1308045 1505001 1845405 2256015 2656312 2978570 3192540 
1965.227 3310616 3371219 3417736 3476049 3548167 3615418 3654377 3647661 
1969.084 3589893 3487339 3347377 3176852 2986576 2794417 2628576 2523549 
1972.942 2505386 2578876 2718523 2871924 2978036 2984208 2872258 2663279 
1976.799 2412151 2179949 2014609 1936555 1937987 1989943 2057353 2111954 
1980.657 2132365 2107293 2035348 1924707 1795595 1680525 1616898 1630900 
1984.514 1726563 1876219 2030521 2127370 2121011 2002226 1805577 1598640 
1988.371 1453036 1422385 1520861 1723569 1979858 2239728 2466997 2651044 
1992.229 2802854 2934868 3048469 3131028 3161432 3126222 3029817 2895072 
1996.086 2751233 2621342 2510119 2405121 2286824 2146983 1999030 1879647 
1999.944 1832328 1882009 2021633 2204126 2357812 2408819 2319469 2099868 
2003.801 1811233 1538052 1366208 1350786 1498617 1771973 2104629 2430343 
2007.659 2697752 2885366 2996352 3052340 3081804 3116510 3184529 3301167 
2011.516 3466530 3660492 3845179 3969886 3991588 3888070 3668478 3372487 
2015.373 3053541 2763704 2534281 2367206 2240195 2123974 1992806 1842244 
2019.231 1687244 1555775 1478802 1480032 1574165 1760928 2032319 2370271 
2023.088 2749533 3134866 3481928 3745840 3888739 3897131 3785714 3598479 
2026.946 3392623 3220612 3120949 3106465 3167240 3277830 3413796 3553411 
2030.803 3687491 3814526 3938355 4063490 4192107 4322402 4445640 4544469 
2034.661 4588434 4542628 4371600 4056567 3605695 3062717 2496189 1978293 
2038.518 1572169 1311103 1193569 1188652 1254675 1351152 1457590 1576659 
2042.375 1724168 1914923 2149247 2402888 2632443 2792683 2846743 2784579 
2046.233 2625576 2413617 2202395 2042006 1966643 1984684 2081457 2228305 
2050.090 2396225 2563877 2723325 2878862 3040494 3216707 3405747 3592298 
2053.948 3749450 3844945 3850294 3753628 3563600 3309247 3028883 2765938 
2057.805 2554378 2415383 2358511 2380366 2471829 2617242 2797451 2989346 
2061.662 3165371 3299398 3367445 3358830 3276729 3141073 2981505 2825798 
2065.520 2695118 2597575 2530715 2487957 2467130 2472595 2515817 2606675 
2069.377 2746999 2922859 3106599 3259068 3343470 3336192 3231728 3044064 
2073.235 2802954 2546846 2311441 2126904 2011613 1969706 1993505 2065776 
2077.092 2164798 2268372 2361277 2436741 2499321 2560244 2631343 2718157 
2080.949 2813192 2896340 2938070 2911617 2800453 2607009 2354547 2082555 
2084.807 1836122 1655612 1569409 1585338 1692367 1862143 2058785 2242226 
2088.664 2377967 2443705 2431343 2351282 2228171 2097637 1995435 1948803 
2092.522 1970405 2055189 2181914 2320401 2443138 2529882 2573643 2580576 
2096.379 2563444 2534714 2501921 2465464 2420348 2360410 2282228 2188008 
2100.237 2086817 1992107 1917352 1874622 1870063 1901777 1961252 2034616 
2104.094 2104962 2155607 2174921 2157738 2107293 2033617 1950468 1872392 
2107.951 1809403 1767881 1748253 1747720 1761460 1785215 1814327 1844673 
2111.809 1872126 1891860 1898815 1890329 1865604 1827703 1780890 1730022 
2115.666 1678596 1627508 1575827 1523920 1473482 1430596 1403570 1401077 
2119.524 1429931 1491037 1579053 1682986 1789673 1885936 1961052 2009882 
2123.381 2030454 2023830 1993971 1946873 1890396 1834524 1790505 1766617 
2127.239 1766983 1788875 1821282 1848134 1853624 1827570 1771574 1699252 
2131.096 1633794 1601800 1623384 1705439 1837319 1996834 2155008 2287624 
2134.953 2384464 2449836 2499021 2548945 2609142 2675448 2731427 2755735 
2138.811 2733328 2664579 2568710 2474628 2415483 2410485 2458100 2535114 
2142.668 2607775 2644144 2628976 2571543 2502787 2463798 2486658 2581376 
2146.526 2727659 2883832 2992882 3010098 2918289 2736528 2514851 2324932 
2150.383 2240761 2312840 2555811 2937203 3384008 3792900 4052922 4080481 
2154.240 3833713 3336525 2680915 2019769 1521925 1340549 1569542 2208256 
2158.098 3146614 4186520 5114046 5748563 6007373 5912678 5560245 5072911 
2161.955 4561646 4107941 3745974 3479189 3292553 3170978 3107466 3101092 
2165.813 3149150 3235801 3327377 3381003 3354088 3226654 3010765 2756135 
2169.670 2534081 2420048 2467663 2687883 3043097 3457913 3847586 4134100 
2173.528 4276055 4278498 4187290 4067805 3984299 3977945 4055263 4192575 
2177.385 4344925 4466227 4516746 4471416 4321733 4070146 3728596 3314522 
2181.242 2855981 2388929 1954761 1597676 1349855 1227194 1219618 1294286 
2185.100 1397154 1466666 1454532 1334733 1118154 848994 601799 453012 465849 
2189.439 668330 1042188 1527245 2037978 2494989 2837738 3047301 3143743 
2193.297 3177353 3203588 3262307 3363238 3486537 3589492 3626176 3568745 
2197.154 3411458 3174182 2890603 2597608 2323766 2087516 1900180 1771441 
2201.012 1713822 1741167 1862376 2074898 2357778 2674014 2973932 3207861 
2204.869 3340666 3355725 3260404 3077366 2840206 2582109 2331294 2109324 
2208.727 1929733 1798490 1717781 1685215 1697123 1748885 1837885 1962350 
2212.584 2120378 2307810 2513185 2717857 2896006 3018339 3061415 3015303 
2216.441 2887567 2700919 2489957 2288323 2118714 1990975 1901045 1836022 
2220.299 1782553 1733582 1690238 1659803 1650623 1665092 1698021 1736709 
2224.156 1766451 1776964 1769578 1757435 1760662 1800819 1890196 2025394 
2228.014 2186809 2340888 2454834 2499988 2466097 2361743 2213684 2058285 
2231.871 1930465 1858150 1853192 1913125 2021799 2157572 2294119 2405654 
2235.729 2472095 2478793 2421980 2309942 2164731 2018404 1905005 1853957 
2239.586 1875720 1958689 2069904 2165730 2204326 2161767 2039576 1865837 
2243.443 1684517 1537819 1455529 1444293 1487479 1554678 1615768 1649592 
2247.301 1650690 1628439 1600137 1583709 1590692 1625712 1688209 1775533 
2251.158 1885437 2015974 2163732 2320335 2472795 2603675 2695485 2736195 
2255.016 2720724 2653178 2543113 2403588 2247955 2087583 1933760 1796560 
2258.873 1684749 1605392 1561295 1548327 1556873 1573400 1583077 1573998 
2262.730 1541044 1485551 1414340 1337558 1266837 1211744 1180545 1178784 
2266.588 1208753 1269163 1354974 1457092 1564089 1663961 1746789 1807107 
2270.445 1844440 1862076 1865138 1858017 1842643 1818220 1783485 1737940 
2274.303 1684616 1629936 1583576 1556374 1557405 1591524 1657342 1748153 
2278.160 1850430 1949236 2029323 2078294 2090313 2065643 2010515 1934891 
2282.018 1849698 1764454 1684783 1614903 1557737 1516705 1496922 1503538 
2285.875 1539748 1604394 1691069 1787244 1878415 1952132 2000495 2022964 
2289.732 2024629 2014809 2001294 1988512 1976263 1961218 1938919 1907301 
2293.590 1867467 1824243 1783352 1749251 1723403 1704342 1688209 1671644 
2297.447 1653184 1634326 1619227 1612575 1617630 1634958 1661533 1691568 
2301.305 1718512 1737142 1744993 1742664 1733515 1721806 1711028 1701747 
2305.162 1691934 1677498 1653750 1618462 1573566 1526081 1486781 1466168 
2309.020 1472451 1507661 1566549 1637685 1708267 1766617 1806309 1827304 
2312.877 1834691 1835057 1833759 1831729 1826139 1811632 1783585 1740468 
2316.734 1685148 1625246 1569609 1527844 1508293 1515508 1552084 1618129 
2320.592 1711494 1828402 1962916 2106327 2248288 2378234 2486558 2566877 
2324.449 2616442 2635110 2624242 2585409 2519350 2426878 2310308 2174588 
2328.307 2028956 1886535 1763157 1673407 1627375 1626743 1663828 1722172 
2332.164 1780989 1821415 1830498 1805610 1753443 1689972 1633295 1599738 
2336.021 1599239 1632497 1692400 1766584 1843043 1912693 1970904 2017871 
2339.879 2055555 2086018 2110856 2131599 2150812 2172923 2203727 2246256 
2343.736 2299249 2354913 2401156 2425312 2419981 2387096 2336091 2279630 
2347.594 2227705 2185311 2151378 2120511 2085951 2043504 1994503 1947838 
2351.451 1917319 1917785 1956492 2028457 2112754 2179949 2202494 2163066 
2355.309 2063212 1924175 1781555 1670946 1622220 1648993 1748652 1902243 
2359.166 2081623 2256181 2395792 2478393 2493989 2445604 2349850 2233234 
2363.023 2126804 2055522 2031287 2048165 2084853 2110722 2096605 2027159 
2366.881 1904606 1748785 1591923 1469758 1408058 1419360 1498883 1627774 
2370.738 1777463 1917385 2022865 2077262 2075963 2025528 1941282 1841945 
2374.596 1746789 1670746 1621455 1598973 1596944 1605591 1613905 1613473 
2378.453 1600337 1574231 1538451 1498318 1459618 1427272 1404733 1393664 
2382.311 1394030 1403769 1419327 1436247 1449844 1456261 1453501 1441699 
2386.168 1423116 1401642 1380967 1363981 1351418 1342178 1334201 1325560 
2390.025 1315456 1304987 1296413 1292824 1296513 1308577 1327255 1349290 
2393.883 1369499 1382761 1384723 1373022 1348592 1315955 1282688 1257067 
2397.740 1247763 1259792 1292891 1340383 1390373 1428502 1441533 1422651 
2401.598 1373454 1305087 1234438 1180645 1158584 1174133 1222110 1288304 
2405.455 1354675 1403005 1422551 1411980 1378872 1335497 1295317 1267601 
2409.313 1254774 1253511 1256602 1257433 1251750 1239921 1225333 1212641 
2413.170 1205065 1203071 1205132 1208753 1213305 1220914 1236398 1265508 
2417.027 1311900 1374618 1446852 1517337 1573267 1604095 1604726 1577922 
2420.885 1533397 1483789 1442730 1420490 1420989 1442464 1478635 1520595 
2424.742 1559732 1589262 1605525 1608119 1598807 1580450 1556174 1528775 
2428.600 1499748 1470157 1440935 1413576 1390606 1376047 1374684 1390606 
2432.457 1425609 1476973 1537254 1594151 1632829 1640213 1608285 1537221 
2436.314 1436081 1322236 1216661 1137588 1097824 1099718 1135994 1191575 
2440.172 1249823 1295881 1321438 1326490 1317251 1302960 1291628 1287474 
2444.029 1288770 1290631 1286111 1271057 1246267 1218190 1195895 1189449 
2447.887 1205431 1244672 1301299 1364846 1423116 1465237 1484287 1478469 
2451.744 1450276 1404933 1348592 1287108 1224868 1165594 1112241 1067597 
2455.602 1034350 1014721 1010005 1019869 1042985 1076433 1115995 1156458 
2459.459 1192240 1217525 1228091 1221944 1200546 1168817 1134532 1106096 
2463.316 1089686 1087859 1098489 1115397 1131243 1141076 1143933 1143734 
2467.174 1147089 1161076 1189183 1230152 1277571 1323233 1359893 1383825 
2471.031 1396191 1401243 1404468 1408556 1413144 1414506 1407559 1389110 
2474.889 1359228 1321073 1280096 1241084 1206294 1174731 1143867 1111477 
2478.746 1077794 1046572 1023655 1015120 1024386 1051089 1090716 1137223 
2482.604 1184399 1229055 1270592 1310571 1350620 1390440 1426806 1455197 
2486.461 1471088 1472618 1461646 1444392 1428502 1420690 1424180 1437378 
2490.318 1453368 1463010 1458056 1433887 1391869 1339053 1286610 1246301 
2494.176 1226530 1230451 1254043 1289401 1325294 1353146 1368701 1373521 
2498.033 1373255 1375050 1384025 1400412 1419460 1433455 1435051 1420523 
2501.891 1391670 1355107 1320840 1297776 1290730 1300966 1325626 1360691 
2505.748 1402340 1448647 1498318 1549125 1596712 1633827 1652386 1646432 
2509.605 1614770 1561927 1498650 1438009 1391171 1365178 1361223 1375283 
2513.463 1400612 1430729 1461480 1491203 1520329 1549823 1580017 1610713 
2517.320 1641211 1670946 1699252 1725365 1746889 1760030 1759664 1741366 
2521.178 1704275 1651288 1590393 1531801 1486049 1459618 1453534 1462777 
2525.035 1478768 1491402 1492932 1479068 1450742 1412047 1369200 1329216 
2528.893 1298474 1281990 1282522 1300833 1334234 1377510 1423017 1462411 
2532.750 1488244 1496556 1487147 1463641 1432657 1402373 1380003 1372125 
2536.607 1383426 1416368 1471786 1547462 1638051 1734547 1825174 1898283 
2540.465 1943412 1955227 1934425 1887600 1824409 1755505 1689074 1629437 
2544.322 1576625 1528442 1482492 1437610 1395226 1358298 1331044 1316520 
2548.180 1316653 1331409 1359095 1396955 1441533 1488909 1534527 1573333 
2552.037 1600835 1613240 1609083 1589262 1557804 1520429 1483423 1452138 
2555.895 1429532 1415404 1406695 1399448 1389775 1376213 1361489 1351850 
2559.752 1356204 1383526 1440070 1526181 1635689 1755671 1870362 1963814 
2563.609 2023663 2044503 2027891 1981122 1914823 1840580 1768380 1705506 
2567.467 1657076 1626244 1613972 1619260 1638982 1667054 1695161 1715419 
2571.324 1721506 1711028 1687011 1656477 1629104 1613573 1616233 1638417 
2575.182 1677798 1728958 1785681 1842311 1894256 1938586 1972602 1993738 
2579.039 1999097 1986348 1954695 1905671 1843841 1776465 1711893 1659105 
2582.896 1624781 1612941 1623517 1653284 1695693 1743562 1790006 1829533 
2586.754 1858782 1877118 1884772 1883207 1873723 1857850 1836820 1813130 
2590.611 1789540 1769112 1754374 1746124 1743063 1741799 1739171 1733316 
2594.469 1725565 1720276 1723669 1741899 1778028 1830931 1895121 1963182 
2598.326 2027358 2082356 2126305 2160069 2185044 2202494 2211619 2211020 
2602.184 2199530 2178584 2152311 2127337 2111022 2107859 2119180 2142354 
2606.041 2171791 2201196 2226373 2244891 2256548 2262143 2262010 2255282 
2609.898 2241327 2219712 2192637 2164331 2140989 2128203 2129934 2146150 
2613.756 2174122 2208422 2243159 2274234 2299016 2317437 2329695 2336924 
2617.613 2339523 2337757 2332294 2324266 2316237 2310841 2311074 2318069 
2621.471 2331894 2350749 2371937 2392660 2411151 2427045 2441306 2456067 
2625.328 2473695 2495655 2522016 2551178 2579942 2604542 2621475 2628909 
2629.186 2627476 2620375 2611642 2605975 2606209 2612575 2623009 2634609 
2633.043 2644577 2652245 2659645 2670580 2689350 2718523 2757636 2802987 
2636.900 2849311 2890769 2923893 2947411 2962823 2972865 2979671 2984241 
2640.758 2985409 2981572 2971463 2955050 2934267 2911984 2891303 2874126 
2644.615 2861218 2851812 2845242 2841206 2840406 2844241 2854114 2869856 
2648.473 2889802 2910717 2928896 2941606 2948311 2951214 2954750 2964057 
2652.330 2983741 3015470 3057745 3106098 3154423 3196712 3228857 3250322 
2656.188 3264009 3275327 3290050 3312719 3344639 3383373 3422980 3457145 
2660.045 3479957 3488742 3484567 3472075 3457813 3447693 3445923 3453304 
2663.902 3467967 3486003 3503906 3519071 3531364 3541953 3553512 3568578 
2667.760 3588389 3613012 3640944 3669380 3694709 3713423 3722513 3720341 
2671.617 3707575 3686723 3663031 3642214 3630152 3630687 3644687 3669614 
2675.475 3700691 3732205 3758975 3778227 3789791 3795741 3798649 3801423 
2679.332 3805200 3809913 3814593 3817802 3818604 3816432 3811418 3803763 
2683.189 3793936 3782171 3769269 3756068 3743969 3734344 3727727 3724051 
2687.047 3721711 3718436 3711719 3699354 3680006 3653475 3620530 3582776 
2690.904 3542721 3503539 3468802 3441949 3425751 3420942 3425384 3434334 
2694.762 3441415 3439979 3425952 3399169 3363772 3327009 3297027 3280401 
2698.619 3279733 3292787 3313888 3335590 3351217 3356459 3351083 3337627 
2702.477 3320799 3305608 3296326 3295057 3302035 3315090 3330649 3343971 
2706.334 3350749 3347878 3335357 3316258 3296360 3283606 3284574 3303404 
2710.191 3338929 3386145 3436472 3480959 3513159 3530762 3535873 3533602 
2714.049 3530362 3530863 3537410 3549202 3563901 3578500 3590795 3599648 
2717.906 3604827 3606464 3604259 3598211 3588389 3575460 3561162 3547799 
2721.764 3537109 3530462 3528224 3529994 3535506 3545260 3560393 3582242 
2725.621 3611308 3646224 3683648 3719171 3748247 3768100 3778762 3782505 
2729.479 3782773 3782572 3783107 3783374 3780834 3772912 3758608 3738822 
2733.336 3716632 3695211 3677934 3666105 3659723 3657952 3659790 3664835 
2737.193 3673457 3685620 3700624 3716030 3728963 3735881 3734879 3725989 
2741.051 3711518 3694810 3679772 3668879 3662831 3661060 3661728 3663265 
2744.908 3664735 3665972 3667108 3668244 3668879 3668545 3666607 3663131 
2748.766 3659122 3656114 3655780 3659422 3667208 3679070 3693707 3709781 
2752.623 3725956 3741162 3754463 3765192 3773080 3778594 3782873 3787819 
2756.480 3795407 3807206 3823585 3843408 3864501 3884126 3900474 3912844 
2760.338 3922039 3929829 3937854 3946814 3956444 3965105 3971257 3974267 
2764.195 3974635 3974668 3977477 3985904 4001821 4025030 4053925 4085866 
2768.053 4118077 4148350 4176149 4202479 4228943 4257919 4291046 4328627 
2771.910 4369089 4409856 4447816 4480087 4505196 4523878 4538643 4552438 
2775.768 4568343 4587563 4609832 4633274 4656214 4678018 4700492 4727188 
2779.625 4763031 4811776 4875269 4952043 5037881 5127356 5215207 5297408 
2783.482 5372244 5439207 5498833 5551419 5597097 5636368 5670070 5700989 
2787.340 5732783 5769615 5814577 5869183 5932428 6001023 6071142 6138583 
2791.197 6200422 6255110 6302509 6343728 6380780 6416592 6454592 6498582 
2795.055 6551929 6616921 6693937 6781432 6876081 6973950 7071505 7166723 
2798.912 7259131 7349571 7439525 7530340 7622792 7717355 7814098 7913090 
2802.770 8013826 8115225 8215029 8310160 8397238 8474706 8543737 8608556 
2806.627 8676900 8757662 8858458 8983734 9133815 9304596 9489296 9680274 
2810.484 9871235 10057667 10237735 10411463 10580269 10746356 10912642 
2813.860 11082629 11260197 11449201 11652512 11871550 12105791 12352839 
2817.235 12609715 12873023 13140145 13410165 13682952 13959949 14243182 
2820.610 14535747 14840819 15161956 15503350 15867556 16256491 16669873 
2823.985 17106190 17562506 18036678 18527548 19036284 19565372 20118636 
2827.361 20699186 21308286 21944936 22606326 23288616 23989486 24708954 
2830.736 25451014 26223344 27034956 27895536 28812454 29789114 30825066 
2834.111 31917338 33063206 34262760 35521952 36852672 38273168 39804928 
2837.486 41469464 43287684 45277608 47455832 49839660 52447380 55300280 
2840.862 58420440 61827276 65535104 69549216 73866016 78471016 83343880 
2844.237 88458776 93784240 99286832 104927200 110657296 116424416 122164576 
2847.612 127804992 133270208 138475440 143335344 147766736 151685984 
2850.505 155018368 157697600 159667936 160890320 161342608 161023920 
2853.398 159954208 158176832 155754544 152761248 149283904 145410544 
2856.291 141225904 136814464 132249880 127598912 122921552 118265520 
2859.184 113672960 109180464 104818232 100616464 96602720 92799656 89227200 
2862.560 85897576 82816312 79983432 77395912 75049880 72943120 71074352 
2865.935 69442528 68043456 66867776 65897876 65107664 64464576 63928648 
2869.310 63459060 63016220 62562660 62068672 61511524 60875448 60153376 
2872.685 59344900 58457208 57503240 56503468 55483972 54474108 53506800 
2876.061 52612324 51815884 51135504 50579616 50148112 49835088 49632152 
2879.436 49530496 49523108 49604852 49771396 50017596 50338008 50726796 
2882.811 51179716 51695204 52275580 52925036 53649276 54451608 55331932 
2886.186 56285284 57302700 58372984 59484024 60625000 61787660 62966428 
2889.562 64159460 65368264 66598052 67855616 69149240 70484768 71863816 
2892.937 73281968 74728856 76191744 77658128 79120680 80580560 82046960 
2896.312 83534320 85058064 86630208 88254952 89929080 91644432 93391512 
2899.687 95162984 96956528 98775152 100625360 102515200 104452368 106443208 
2903.063 108492432 110604336 112782272 115029128 117346968 119737304 
2905.956 122202072 124745104 127373352 130096496 132927072 135876720 
2908.849 138953872 142162464 145501072 148965152 152549344 156250000 
2911.742 160064752 163991072 168023456 172149440 176349440 180598112 
2914.635 184863696 189114224 193315488 197429440 201415088 205223472 
2917.528 208798672 212086544 215033488 217595904 219743056 221453600 
2920.421 222713056 223511056 223838480 223690320 223069184 221989184 
2923.314 220473904 218556992 216275520 213664480 210758336 207589744 
2926.207 204191408 200600272 196853792 192987296 189031520 185008304 
2929.100 180932544 176815184 172666976 168501488 164335744 160186336 
2931.993 156068432 151991728 147961312 143979616 140049360 136176416 
2934.886 132370440 128642080 125002056 121458448 118015520 114675264 
2937.779 111439000 108308848 105288824 102384280 99600408 96942448 94413384 
2941.155 92015432 89750072 87618320 85620896 83758280 82030240 80435944 
2944.530 78974008 77643464 76443240 75372040 74428160 73608672 72908552 
2947.905 72321640 71840232 71456736 71162440 70948040 70802544 70711016 
2951.280 70655496 70615648 70568792 70494544 70375384 70197592 69951440 
2954.656 69629920 69227144 68737752 68157640 67484048 66717608 65862088 
2958.031 64923704 63909180 62825144 61676016 60465588 59197692 57877300 
2961.406 56512188 55112944 53690032 52254316 50814172 49374920 47939020 
2964.781 46507336 45080208 43658488 42245020 40844256 39463124 38109344 
2968.156 36791180 35516264 34290624 33118200 32000508 30937486 29927570 
2971.532 28968414 28057670 27192220 26369224 25585774 24839274 24127996 
2974.907 23451590 22810598 22205250 21635324 21098458 20590150 20103954 
2978.282 19633452 19173568 18721712 18278414 17846132 17428490 17028030 
2981.657 16645703 16281052 15933167 15601877 15288685 14996710 14730020 
2985.033 14492031 14284476 14106316 13954987 13826012 13715165 13618945 
2988.408 13535804 13465700 13410199 13371961 13354193 13360275 13393284 
2991.783 13455960 13549853 13676318 13835863 14028694 14254926 14514539 
2995.158 14806774 15129396 15479073 15850510 16237779 16635409 17038712 
2998.534 17444874 17852244 18259132 18662804 19058440 19438808 19795892 
3001.909 20122000 20411054 20660510 20869608 21039226 21170290 21262248 
3005.284 21313680 21322172 21285736 21203934 21077100 20906424 20692480 
3008.659 20434984 20132100 19781676 19382574 18935726 18445156 17917810 
3012.035 17362446 16789364 16208885 15630282 15061847 14509846 13977981 
3015.410 13467067 12975325 12498905 12032988 11574239 11120802 10673610 
3018.785 10235122 9808159 9394549 8995201 8609401 8237180 7879989 7541330 
3022.643 7226788 6941594 6689495 6470264 6280255 6112405 5958931 5813402 
3026.500 5672286 5535410 5404617 5282382 5170441 5067882 4972386 4880295 
3030.357 4787956 4693224 4595801 4497261 4400451 4308782 4225732 4153133 
3034.215 4091886 4040414 3996471 3956243 3915853 3872859 3826460 3778026 
3038.072 3730400 3687157 3650501 3621131 3597744 3577431 3557487 3536207 
3041.930 3513526 3490646 3469336 3450432 3432832 3414497 3392390 3364206 
3045.787 3329781 3290984 3251591 3216006 3187567 3167841 3155959 3149617 
3049.645 3145445 3140206 3131395 3117311 3097121 3070559 3038125 3001457 
3053.502 2963190 2927228 2897774 2878762 2871724 2875993 2887801 2901110 
3057.359 2909215 2906247 2888701 2855981 2810624 2757602 2703120 2653545 
3061.217 2614442 2589509 2580109 2585342 2602242 2626876 2654645 2682015 
3065.074 2706787 2728660 2748099 2766505 2784846 2802654 2817794 2827699 
3068.932 2829300 2820496 2800953 2771807 2736395 2698785 2663579 2635110 
3072.789 2615842 2606508 2604942 2606775 2605609 2594175 2566944 2520950 
3076.646 2457567 2382832 2306577 2239395 2190472 2165330 2163266 2178317 
3080.504 2200763 2220412 2228471 2220178 2195767 2159470 2117481 2076296 
3084.361 2040941 2013244 1992174 1973900 1954395 1928734 1894888 1852826 
3088.219 1805943 1759065 1718745 1690404 1677664 1681390 1699385 1727528 
3092.076 1760529 1793466 1822047 1843575 1856453 1859980 1854123 1840048 
3095.934 1819485 1795529 1771607 1751446 1737740 1731885 1733582 1741300 
3099.791 1752777 1765452 1777696 1787544 1793433 1793765 1787278 1773304 
3103.648 1752544 1727295 1701048 1677332 1658472 1644736 1634392 1624116 
3107.506 1610912 1593885 1573932 1553980 1537054 1524818 1516805 1510387 
3111.363 1503039 1493198 1481860 1472052 1467996 1472152 1484520 1501643 
3115.221 1518101 1528941 1531435 1526148 1516472 1506730 1500280 1497686 
3119.078 1496888 1494594 1488044 1475776 1458854 1439339 1419393 1400279 
3122.936 1382163 1364979 1349556 1338123 1333736 1339352 1355572 1379803 
3126.793 1406395 1427338 1436447 1429998 1409387 1379304 1347628 1321206 
3130.650 1304921 1300135 1304655 1314227 1323499 1328052 1325892 1316919 
3134.508 1303492 1289501 1279731 1277903 1286576 1305619 1332439 1362319 
3138.365 1389476 1409819 1421055 1423814 1421188 1417764 1417066 1421421 
3142.223 1431194 1445290 1462345 1481528 1501942 1523588 1545534 1566217 
3146.080 1582911 1593552 1596845 1593186 1585072 1575728 1568478 1565219 
3149.938 1566017 1569875 1574397 1577390 1576492 1570074 1556374 1534095 
3153.795 1503405 1465736 1424645 1385620 1354575 1336228 1332539 1341646 
3157.652 1359262 1379437 1397587 1411614 1422252 1432690 1445622 1462245 
3161.510 1481162 1498750 1510520 1513812 1507561 1493663 1475710 1457258 
3165.367 1441201 1428701 1419593 1413144 1408290 1404501 1401110 1397620 
3169.225 1393199 1387049 1378739 1369133 1359561 1352282 1349390 1352149 
3173.082 1360458 1373488 1389177 1405199 1418728 1426840 1426241 1414606 
3176.939 1390506 1354841 1311734 1267967 1231348 1208355 1202606 1212840 
3180.797 1234338 1260390 1284948 1305386 1322768 1340782 1364380 1396523 
3184.654 1436779 1480597 1522391 1555908 1577390 1586602 1585737 1578288 
3188.512 1567214 1554046 1538118 1517835 1491635 1458721 1419925 1377543 
3192.369 1334301 1293223 1257300 1228291 1207590 1195064 1189449 1188153 
3196.227 1188187 1187057 1183568 1179183 1176890 1180611 1193702 1216993 
3200.084 1248062 1281990 1311834 1331177 1336361 1326324 1303592 1272519 
3203.941 1238891 1207358 1182173 1165561 1158319 1159913 1168684 1181774 
3207.799 1195230 1205032 1207889 1202008 1187921 1168551 1148119 1131409 
3211.656 1121543 1120513 1128054 1142804 1162837 1186824 1214136 1245071 
3215.514 1279731 1317949 1358464 1399149 1437245 1469858 1494561 1509922 
3219.371 1515375 1511651 1499814 1481062 1456460 1426341 1390805 1349390 
3223.229 1302096 1250654 1197822 1148651 1108753 1084106 1078791 1093838 
3227.086 1126260 1170079 1216528 1257067 1284749 1295981 1291129 1273749 
3230.943 1249424 1223140 1199882 1182372 1171741 1168285 1172206 1183336 
3234.801 1201410 1225400 1252548 1278302 1297610 1305619 1299936 1281326 
3238.658 1254375 1226463 1205264 1196526 1202340 1220416 1244971 1268864 
3242.516 1286875 1296081 1297277 1293389 1288172 1283087 1277006 1266305 
3246.373 1246566 1215100 1172837 1123835 1076333 1038302 1016182 1012164 
3250.230 1024419 1047004 1072081 1093240 1106229 1110547 1109451 1107790 
3254.088 1111045 1123735 1148020 1183701 1228989 1280395 1334699 1388578 
3257.945 1439173 1484188 1521692 1549557 1566749 1571803 1564454 1544968 
3261.803 1514876 1476408 1431759 1383592 1334301 1285945 1240918 1201643 
3265.660 1171143 1152637 1147820 1157255 1178950 1209119 1242047 1272420 
3269.518 1295749 1309474 1313795 1310704 1303226 1294419 1286975 1282456 
3273.375 1281525 1283785 1288371 1293456 1296945 1297610 1294552 1288869 
3277.232 1283519 1282422 1289268 1305652 1330478 1359428 1386717 1406894 
3281.090 1417664 1420291 1419593 1421587 1430629 1446786 1465403 1478669 
3284.947 1477970 1458887 1421853 1373521 1324064 1284450 1262151 1259725 
3288.805 1273981 1298042 1323831 1344305 1356303 1359428 1356303 1350022 
3292.662 1343873 1339718 1338289 1338621 1338887 1337292 1332207 1322801 
3296.520 1310105 1296480 1285314 1280428 1284516 1298141 1319976 1346266 
3300.377 1373388 1397587 1417764 1433821 1446620 1456992 1464173 1466101 
3304.234 1459951 1443794 1417332 1383127 1345368 1309241 1278900 1257034 
3308.092 1243742 1238060 1237993 1241582 1247331 1253678 1258695 1260423 
3311.949 1256934 1247630 1233773 1218622 1206693 1202241 1207557 1222011 
3315.807 1242446 1264045 1282156 1293888 1298873 1298773 1296147 1293522 
3319.664 1292625 1294087 1298573 1306981 1320707 1341114 1368867 1402506 
3323.521 1438807 1473116 1501410 1520994 1532200 1537553 1541277 1546864 
3327.379 1555942 1567580 1578787 1585704 1584740 1575195 1557305 1533696 
3331.236 1507495 1481727 1459120 1441733 1430962 1427970 1432757 1443761 
3335.094 1457790 1470024 1475144 1469692 1453534 1430264 1407127 1392900 
3338.951 1395160 1416900 1456460 1506896 1558469 1601234 1628672 1638384 
3342.809 1632264 1615069 1591723 1565518 1537852 1507694 1474413 1438375 
3346.666 1402672 1371261 1349390 1340383 1344371 1358796 1378706 1398318 
3350.523 1413243 1420457 1419493 1410551 1394595 1372391 1344770 1313728 
3354.381 1282888 1257399 1243410 1245802 1266770 1304589 1353279 1404634 
3358.238 1450742 1485584 1507096 1517170 1520263 1521759 1525915 1534594 
3362.096 1547495 1561894 1574564 1582245 1582545 1574464 1558103 1534826 
3365.953 1507362 1479300 1454698 1437378 1430031 1433322 1445855 1464439 
3369.811 1484653 1502740 1516339 1525084 1530338 1534627 1539714 1546132 
3373.668 1552683 1556241 1552783 1538950 1513313 1477172 1434652 1392035 
3377.525 1356270 1333536 1327321 1337325 1360226 1389642 1418063 1439505 
3381.383 1450476 1451241 1445556 1440170 1442298 1458322 1491735 1542308 
3385.240 1606289 1676234 1744161 1801983 1843209 1864938 1867401 1854523 
3389.098 1831563 1805044 1780158 1758699 1740136 1721340 1698520 1669382 
3392.955 1634492 1598042 1566849 1547662 1545434 1561129 1591324 1628339 
3396.813 1662896 1687144 1695793 1688109 1668118 1642408 1617564 1599472 
3400.670 1591324 1592954 1601634 1613673 1625213 1633561 1638184 1639847 
3404.527 1640712 1643073 1648761 1658406 1671311 1686479 1702379 1718080 
3408.385 1733050 1747022 1759497 1769678 1776099 1777430 1773071 1763656 
3412.242 1751280 1739171 1729424 1723236 1719145 1713855 1703111 1683386 
3416.100 1653883 1616666 1575861 1537620 1507428 1488942 1483157 1488610 
3419.957 1502341 1520030 1537021 1549358 1553747 1547229 1529407 1501344 
3423.814 1466700 1430762 1399980 1379836 1373587 1381964 1402839 1432790 
3427.672 1469027 1509589 1554645 1604826 1660036 1718080 1774402 1822679 
3431.529 1856353 1871926 1868798 1850363 1822346 1792035 1765419 1746523 
3435.387 1736709 1735345 1740302 1748519 1756902 1762059 1761194 1752644 
3439.244 1736310 1714022 1689406 1667819 1654182 1652220 1663063 1684749 
3443.102 1713157 1742331 1767083 1783718 1790239 1787011 1776298 1761859 
3446.959 1747953 1738805 1737374 1745126 1761959 1786446 1816690 1850663 
3450.816 1886868 1924541 1963315 2002892 2042073 2078527 2109490 2131299 
3454.674 2140789 2137226 2121643 2097637 2070403 2046167 2031054 2029822 
3458.531 2045568 2079226 2128436 2188208 2251185 2308176 2350016 2370638 
3462.389 2367540 2344020 2307810 2270104 2241393 2230469 2240794 2270770 
3466.246 2313972 2361110 2402855 2431210 2441672 2433975 2410985 2377534 
3470.104 2339623 2302980 2271669 2247922 2231802 2222310 2216681 2212186 
3473.961 2207190 2200230 2191871 2183113 2175320 2169593 2167095 2168194 
3477.818 2173123 2181881 2193869 2207623 2221178 2231702 2235865 2231002 
3481.676 2215150 2187775 2149713 2102632 2048664 1990309 1930132 1871061 
3485.533 1816623 1770077 1734414 1710861 1697988 1691968 1687011 1677798 
3489.391 1659936 1632364 1596346 1555609 1514544 1477438 1447816 1427405 
3493.248 1416734 1415736 1423548 1438541 1459186 1483323 1508924 1534062 
3497.105 1557305 1577291 1592754 1602033 1603396 1595481 1578853 1556108 
3500.963 1532964 1516472 1513014 1526115 1553680 1588630 1620457 1639414 
3504.820 1640013 1622486 1591391 1554179 1518002 1487047 1462278 1441866 
3508.678 1422917 1403769 1384324 1366674 1353079 1344238 1339220 1334766 
3512.535 1328052 1316719 1301930 1285646 1272121 1265208 1266837 1277537 
3516.393 1296014 1320541 1349290 1380833 1413842 1446686 1476807 1501776 
3520.250 1519232 1527844 1527578 1519199 1503804 1481827 1452172 1414307 
3524.107 1367970 1315157 1260589 1211910 1176492 1160810 1166823 1192207 
3527.965 1229055 1266804 1295649 1308411 1302728 1281392 1251086 1220815 
3531.822 1198918 1193071 1206826 1239422 1285746 1337358 1382529 1410085 
3535.680 1411747 1384124 1330711 1260324 1185296 1117457 1065870 1035545 
3539.537 1026644 1036243 1058363 1086962 1115829 1139814 1155760 1162172 
3543.395 1159614 1150146 1137223 1124632 1115231 1111178 1112806 1119882 
3547.252 1131608 1148086 1170545 1199716 1236664 1280694 1328983 1377111 
3551.109 1418629 1446985 1457391 1448548 1422152 1383327 1338655 1294087 
3554.967 1254575 1223572 1202141 1189881 1184997 1183602 1181741 1175495 
3558.824 1161907 1140080 1111045 1077296 1042587 1010171 982839 962117 
3562.682 948702 942658 944020 952952 969124 991507 1018175 1045377 1068394 
3567.021 1082279 1083840 1072513 1051089 1023456 994297 968427 950063 942326 
3571.361 947473 965936 994861 1029268 1062549 1087461 1097957 1090450 
3575.218 1064840 1023722 971814 915629 861444 815796 784493 771681 779182 
3579.558 806734 850422 904539 961918 1016481 1063777 1101977 1131608 1154664 
3583.897 1174133 1191974 1209085 1225134 1238259 1245736 1244174 1230251 
3587.755 1201975 1159946 1106827 1047735 988651 936117 896205 873429 870375 
3592.094 886046 915629 951126 983537 1004592 1010835 1003595 989581 977094 
3596.434 973541 983470 1007548 1042620 1082279 1118752 1143967 1151142 
3600.292 1137223 1103903 1057134 1005190 957435 920743 898530 891192 896537 
3604.631 911446 932497 957136 982806 1006751 1025349 1033951 1028969 1009108 
3608.971 977592 941031 907395 883755 873628 876583 887938 900920 908158 
3613.310 905071 892055 873861 857061 847102 846039 852978 863635 871703 
3617.650 871271 858223 832362 798203 763017 734108 715588 708054 709282 
3621.990 715621 723520 730523 735801 739949 744895 753392 768063 791033 
3626.329 823166 863336 909155 954745 992603 1015684 1021264 1012828 996289 
3630.669 976596 955841 934489 912674 890561 869478 850820 835847 824428 
3635.008 815298 806435 796311 784759 773108 764279 761457 767299 782634 
3639.348 805705 832262 856962 874425 880036 872533 853741 828876 805306 
3643.688 790236 789705 806369 839566 884452 933095 974670 998880 999909 
3648.027 979485 946510 912940 887739 873329 866125 860083 852214 842255 
3652.367 831996 823797 819348 818518 820942 825623 832063 841225 855169 
3656.706 875189 900821 928745 954181 971515 976629 967663 945879 915198 
3661.046 880302 846637 817323 793024 773008 755616 739916 726275 715953 
3665.385 710311 710278 715356 723919 733510 741609 746488 747484 745592 
3669.725 742771 741144 742007 745758 752728 763515 779514 802418 833291 
3674.065 871968 913604 948834 967929 966700 949299 923897 897069 872466 
3678.404 850953 832262 816261 803547 795414 793821 799995 814734 837507 
3682.744 866225 898463 931036 961818 990112 1015950 1040727 1065272 1089287 
3687.083 1111012 1127456 1134299 1129084 1111411 1083707 1049163 1010703 
3690.941 970253 929974 892287 860481 837574 826154 826685 837142 852911 
3695.281 866523 870009 857028 824693 774237 711771 644869 580929 526852 
3699.620 487177 465020 461736 477160 509104 554288 608435 667335 727105 
3703.960 785190 839200 887174 927583 959295 980980 992370 992835 982773 
3708.299 962848 934722 900688 864664 831996 808228 798933 806701 830237 
3712.639 863735 899227 928546 944518 943322 922801 884286 831333 770751 
3716.979 710544 659403 623599 605482 603060 610194 620314 628045 630998 
3721.318 630766 631662 639095 656715 685421 722956 765241 807033 844213 
3725.658 873296 892852 903311 906266 904074 899194 893815 889266 886942 
3729.997 888104 893350 903211 917621 935585 956040 978124 1000739 1023921 
3734.337 1046938 1067498 1081747 1085833 1077031 1055507 1023921 985961 
3738.194 945348 905436 869312 839931 819448 809091 809058 818950 837972 
3742.534 864897 897965 932929 963446 982872 988584 983935 975899 971017 
3746.874 974404 991042 1024818 1078525 1151608 1237561 1323399 1390373 
3750.731 1422053 1409387 1354209 1268930 1171275 1077794 999610 941396 
3754.588 902946 880468 869345 864863 863071 861942 861278 862108 865428 
3758.928 870939 877148 881065 880634 875322 867254 858954 853642 852812 
3763.268 855866 860415 863004 859817 849426 833424 815597 800128 789373 
3767.607 783199 778718 772909 763051 749077 733809 722292 718044 721828 
3771.947 731884 744563 757109 767598 776859 786717 799398 815398 832694 
3776.286 847002 852447 843715 818618 779182 733975 693917 670454 669956 
3780.626 692257 731951 781639 834918 885979 930339 964973 986725 994297 
3784.966 988385 971847 949067 925126 903942 888004 877446 871105 866490 
3789.305 861909 856763 852081 850189 852911 861676 874857 889665 901518 
3793.645 905934 900356 884585 861245 836611 818286 812643 822237 845342 
3797.984 877513 913205 947041 974869 992935 998083 988618 966567 937046 
3802.324 906863 881729 864100 854804 853575 859850 872566 889532 907129 
3806.664 921042 927583 926188 918352 906830 893914 880069 865162 848064 
3811.003 828610 807265 786286 768594 757209 754288 760130 772809 787813 
3815.343 800360 807132 809622 813340 825058 849392 887540 935917 986758 
3819.682 1027707 1043018 1021231 963678 888137 817788 770453 752529 761491 
3824.022 790336 830104 871736 906531 927682 932099 920975 899160 872234 
3828.362 845375 821838 802817 788477 778950 773539 771913 773506 777390 
3832.701 782203 786651 790435 793987 798833 807730 823465 848164 881829 
3837.041 920975 959527 989747 1006120 1006618 993865 972943 949333 926387 
3841.380 904274 880833 852911 817888 775199 727868 681040 640721 611654 
3845.720 596125 594135 604155 624495 653862 692290 740613 799929 870242 
3850.060 950296 1036907 1123868 1202241 1260623 1287208 1276873 1236299 
3853.917 1182738 1131409 1087859 1049794 1012994 975068 936880 901817 874857 
3858.257 859319 856597 865129 880102 895907 906133 906033 893383 868549 
3862.596 833723 793024 751666 715289 690133 680907 689204 712734 746554 
3866.936 784626 819846 847334 862639 864498 855634 842753 833026 830237 
3871.275 832627 836080 836080 829573 816527 800228 785755 778452 780709 
3875.615 792294 811049 834022 859153 884219 906764 922901 927616 915862 
3879.955 885315 839831 789240 745857 720235 718310 740348 783132 839034 
3884.294 899559 953351 991739 1011035 1015485 1013160 1012131 1017013 
3888.152 1028305 1043317 1057168 1064375 1059758 1040561 1007913 967331 
3892.009 925491 888403 859087 837640 822535 811879 804842 801589 803481 
3896.349 811946 827946 850820 878575 906996 931634 949200 958730 962018 
3900.688 962748 964508 968493 974305 979186 980083 974670 962848 946178 
3905.028 927284 908490 890760 874491 860381 849160 842587 841790 847367 
3909.367 858190 871537 883356 889897 889432 883024 874159 868084 869843 
3913.707 882327 905569 936747 970353 999544 1017743 1020301 1005987 977094 
3918.047 938839 898297 862340 836943 825921 830005 845807 867154 886477 
3922.386 896305 891557 872134 843151 814535 797439 801223 828544 875853 
3926.726 934058 992636 1040826 1070354 1077097 1060921 1025947 978555 926554 
3931.065 877280 835648 804045 783365 772577 770386 775498 787315 804609 
3935.405 826187 849459 871072 887706 896338 896272 889432 879936 872599 
3939.745 871337 877978 891092 905901 916160 916592 905037 884087 860581 
3944.084 842919 838105 849824 877646 917655 963047 1006086 1040361 1061552 
3948.424 1068959 1064907 1053846 1040129 1027342 1017245 1009607 1003396 
3952.281 996787 988352 977061 962848 945912 927815 910317 895541 886178 
3956.621 884850 893649 914201 947307 991739 1044380 1100449 1154000 1197755 
3960.960 1226098 1235235 1224636 1197490 1160345 1120878 1086564 1062681 
3964.818 1051156 1050957 1057965 1067498 1074805 1076798 1073244 1066036 
3968.675 1058496 1054079 1055175 1062582 1074805 1089121 1102342 1110979 
3972.533 1112507 1105265 1088424 1062117 1027674 987887 946410 908125 878575 
3976.872 861809 861178 877114 908092 950395 999477 1050126 1097957 1138518 
3981.212 1168020 1183203 1181675 1162837 1128984 1084903 1038302 998315 
3985.069 972677 966567 980249 1009906 1047635 1084637 1113039 1127954 
3988.927 1127854 1114733 1093207 1067963 1044181 1025947 1015983 1016182 
3992.784 1027143 1048133 1077064 1110514 1144930 1176525 1203204 1224303 
3996.642 1240353 1252681 1261885 1267701 1268631 1262683 1248195 1225367 
4000.499 1195895 
##END=
