##TITLE=ad18_2 Oct 08 10:00:04 2026 (GMT+02:00)
##JCAMP-DX=5.01  $$ Nicolet v. 1
##DATATYPE=INFRARED SPECTRUM
##ORIGIN=Vojna akademija
##OWNER=Nicolet
##LONGDATE=2026/10/08
##TIME=10:00:38
##SPECTROMETER/DATA SYSTEM=Nicolet iS20
##DATA PROCESSING=
Ratio against background
%Transmittance->Absorbance
Truncated
ElementMultiply or ElementDivide
##COMMENTS=
Number of sample scans: 8
Collection length: 11,90 sec
Sample gain: 8,0
Background collected on: Thu Oct 08 09:59:22 2026 (GMT+02:00);
Number of background scans: 8
Background gain: 8,0
Sample spacing:  1,000
Number of scan points: 12415
Resolution points: 8286
Number of FFT points: 65536
Apodization: N-B strong;
Phase correction: Mertz;
Laser frequency: 15798,00 cm-1
Number of rejected sample scans: 0
Number of rejected background scans: 0
Bench serial number: BER2010005;
##RESOLUTION= 4,000
##XUNITS=1/CM
##YUNITS=ABSORBANCE
##FIRSTX=400.156891
##LASTX=4000.123047
##FIRSTY=0.017421
##MAXX=4000.123047
##MINX=400.156891
##MAXY=0.265150
##MINY=-0.000588
##XFACTOR=1.000000
##YFACTOR=1.000000E-009
##NPOINTS=7468
##DELTAX=0.482117
##ZPD=6100
##XYDATA=(X++(Y..Y))
400.157 17421316 19269606 20071438 19696340 18283840 16225981 14007512 
403.532 12114274 10886039 10462610 10800532 11701594 12912207 14205897 
406.907 15468498 16688226 17909558 19164668 20432898 21624702 22615262 
410.281 23270016 23491568 23227826 22469732 21253896 19669748 17874582 
413.656 16065728 14458254 13242578 12547332 12459213 13032682 14308651 
417.031 16282531 18848586 21716058 24336946 26097746 26622410 25997126 
420.406 24651402 23107388 21776254 20873326 20471554 20503060 20802410 
423.781 21136094 21288728 21131434 20650224 19928352 19083574 18217630 
427.155 17384584 16607249 15900241 15290951 14828373 14564116 14524372 
430.530 14690947 14996745 15352047 15682666 15973419 16284319 16733747 
433.905 17440908 18487438 19863176 21455238 23060950 24459650 25492792 
437.280 26099400 26321026 26253510 26005570 25655928 25250974 24812400 
440.655 24350228 23878324 23421096 23009800 22675162 22432328 22274616 
444.030 22167902 22061252 21899354 21634244 21245198 20749024 20206134 
447.404 19702788 19335040 19168720 19219940 19457554 19820932 20247964 
450.779 20690812 21132720 21577864 22036816 22504730 22954812 23346686 
454.154 23653430 23875208 24045164 24211892 24408932 24617844 24754412 
457.529 24686578 24316902 23656684 22852822 22117972 21663986 21623134 
460.904 22009312 22721176 23562678 24304672 24735788 24745222 24332214 
464.278 23582198 22613692 21548614 20504136 19586482 18906068 18559360 
467.653 18598128 19006304 19690480 20510910 21307312 21964802 22440980 
471.028 22775890 23059098 23382700 23773702 24168874 24434484 24437884 
474.403 24116086 23495484 22677886 21792244 20964666 20273690 19749634 
477.778 19384410 19158020 19059132 19091262 19258384 19538822 19866506 
481.152 20139284 20234078 20060716 19596844 18901636 18092772 17311684 
484.527 16675485 16231861 15953550 15750827 15516845 15155094 14617024 
487.902 13908935 13091516 12260771 11522858 10974010 10665664 10597652 
491.277 10718031 10946824 11193690 11393855 11529766 11631276 11758443 
494.652 11966974 12279415 12667569 13054057 13332463 13414607 13259454 
498.027 12893741 12396374 11878122 11444030 11162990 11063969 11128383 
501.401 11300631 11501594 11654997 11701356 11609256 11382018 11056661 
504.776 10701559 10400603 10246759 10310644 10614459 11114106 11701322 
508.151 12237323 12586555 12673369 12498462 12139215 11714393 11356747 
511.526 11166934 11177915 11352903 11598775 11809034 11887555 11787517 
514.901 11515748 11130966 10718743 10365344 10130581 10027150 10025759 
518.276 10074216 10127868 10165889 10200589 10265859 10397718 10611165 
521.650 10889946 11187774 11446275 11612523 11658640 11591560 11452943 
525.025 11301515 11187910 11138377 11142524 11165097 11162956 11110604 
528.400 11008400 10881588 10766598 10697518 10691473 10742960 10825975 
531.775 10905371 10954130 10963474 10950800 10954266 11024611 11203686 
535.150 11510712 11928046 12404761 12864763 13228539 13440854 13483576 
538.524 13385869 13209103 13031350 12911695 12870429 12885003 12905449 
541.899 12876948 12768527 12588533 12382225 12210946 12121089 12127528 
545.274 12203856 12297889 12351645 12329930 12232483 12089607 11943100 
548.649 11827897 11761575 11742988 11764026 11821053 11919294 12067053 
552.024 12261351 12477183 12661838 12752046 12694350 12468862 12101770 
555.398 11658027 11219020 10847717 10574429 10390048 10263857 10164498 
558.773 10085747 10052649 10114844 10318821 10684036 11185020 11756197 
562.148 12306581 12750477 13039818 13172864 13193938 13172522 13188643 
565.523 13305096 13554092 13935929 14422459 14967146 15514921 16019691 
568.898 16445961 16778172 17019380 17187330 17305928 17396450 17473918 
572.273 17543844 17605912 17656292 17691630 17709578 17709266 17691044 
575.647 17658362 17621612 17599358 17619508 17711614 17896782 18179900 
579.022 18544734 18954764 19359776 19715860 19993090 20186072 20308478 
582.397 20381918 20423070 20438074 20426162 20389800 20341880 20307956 
585.772 20313686 20371152 20464192 20549120 20564198 20452764 20189196 
589.147 19790900 19318066 18850974 18474302 18246656 18187294 18277516 
592.521 18474576 18728252 18994120 19242174 19448996 19594244 19661116 
595.896 19638270 19529708 19358044 19162592 18985882 18859592 18794816 
599.271 18778556 18782844 18777794 18749492 18705940 18674566 18686464 
602.646 18765164 18912748 19107742 19309270 19470620 19552444 19528424 
606.021 19392620 19155422 18841390 18482322 18115606 17777262 17494718 
609.396 17285722 17153824 17089578 17072966 17079824 17086270 17072278 
612.770 17025100 16939376 16817640 16669219 16512623 16372219 16271729 
616.145 16228525 16243590 16297804 16352504 16364891 16299490 16142579 
619.520 15906805 15625851 15342951 15091623 14890810 14739378 14624598 
622.895 14529957 14446813 14377487 14332416 14322725 14352657 14417080 
626.270 14504810 14603488 14705856 14809654 14913853 15011973 15088639 
629.644 15121882 15091967 14992183 14835881 14654686 14490969 14383994 
633.019 14355499 14406874 14519678 14669937 14835916 15010327 15200146 
636.394 15419538 15680090 15982494 16312148 16643466 16945198 17186846 
639.769 17347926 17418454 17402380 17315616 17186364 17048396 16931626 
643.144 16856356 16823564 16813852 16793186 16729236 16603805 16425967 
646.519 16231105 16073223 16004669 16054828 16220476 16465988 16739910 
649.893 16991712 17194912 17350894 17483438 17622062 17788654 17987150 
653.268 18204294 18417500 18606360 18761222 18884438 18987058 19082952 
656.643 19185620 19305422 19450486 19628356 19842956 20092016 20363514 
660.018 20637960 20892240 21109066 21284728 21430906 21570028 21724766 
663.393 21909774 22124528 22358086 22595192 22827606 23057734 23302354 
666.767 23587200 23936404 24345568 24764376 25120496 25376222 25548768 
670.142 25684964 25829114 26014822 26263646 26586794 26984674 27447650 
673.517 27957796 28489028 29012974 29504394 29943650 30325186 30660900 
676.892 30980540 31321534 31719110 32192800 32739170 33334494 33943672 
680.267 34536700 35095732 35620808 36123152 36614940 37100820 37576588 
683.642 38035376 38476260 38909540 39354032 39827044 40334100 40862860 
687.016 41387740 41880128 42323688 42722696 43100516 43484672 43893288 
690.391 44324272 44757040 45162224 45517188 45816512 46072228 46304252 
693.766 46527472 46744680 46946456 47119816 47259068 47372092 47479044 
697.141 47603884 47764228 47967364 48214620 48508544 48860988 49291996 
700.516 49821080 50453772 51169388 51920688 52641536 53272960 53780816 
703.890 54170484 54481204 54774032 55106996 55516464 56016056 56598804 
707.265 57249884 57955144 58705576 59493600 60306200 61125856 61932384 
710.640 62714420 63477276 64245044 65051200 65923132 66872380 67888896 
714.015 68950752 70038360 71151432 72313336 73565296 74944104 76468136 
717.390 78122064 79862952 81624320 83336856 84940192 86379416 87604288 
720.765 88561144 89191112 89446864 89304160 88776288 87911000 86782288 
724.139 85472576 84051512 82576728 81088368 79610664 78157168 76726872 
727.514 75304376 73859968 72360616 70782032 69123248 67412224 65701284 
730.889 64047932 62490420 61036804 59662192 58324056 56981420 55617644 
734.264 54247704 52912012 51655084 50508256 49474496 48529848 47631096 
737.639 46735308 45816252 44868276 43904104 42945212 42011728 41114220 
741.013 40252084 39417700 38600780 37793816 36994444 36205868 35436808 
744.388 34700292 34009528 33376068 32803952 32286442 31804520 31332538 
747.763 30843742 30319786 29758882 29178290 28610080 28089234 27645246 
751.138 27290364 27018172 26804686 26618110 26427848 26210780 25958608 
754.513 25676140 25380752 25095464 24846326 24655892 24535970 24484120 
757.888 24482332 24500702 24500948 24450398 24329692 24137698 23892536 
761.262 23623164 23360602 23125454 22925050 22752810 22595470 22437526 
764.637 22267920 22081784 21878306 21658624 21424918 21181562 20935840 
768.012 20699882 20488262 20310664 20168716 20051380 19938240 19803592 
771.387 19627974 19403916 19139008 18852358 18566486 18301466 18069458 
774.762 17875756 17723106 17613918 17551916 17538220 17567476 17621130 
778.136 17670130 17679552 17615816 17459498 17209840 16885084 16514653 
781.511 16134841 15778657 15470318 15226775 15055707 14955314 14914436 
784.886 14913237 14924415 14917592 14868660 14766048 14615379 14437461 
788.261 14261534 14113265 14005356 13933979 13882113 13830356 13764754 
791.636 13684833 13603150 13537787 13501451 13494411 13501691 13499777 
795.010 13464778 13384331 13261811 13116785 12976691 12865923 12800843 
798.385 12783472 12803197 12842170 12882853 12911968 12924120 12921628 
801.760 12913573 12913163 12933200 12983724 13068364 13181812 13308956 
805.135 13429508 13521686 13569373 13568894 13531634 13482687 13451926 
808.510 13471476 13564587 13740608 13993893 14304371 14642177 14970644 
811.885 15255361 15466953 15586216 15608541 15544764 15418199 15257283 
815.259 15090663 14938818 14811642 14711032 14634946 14584675 14566173 
818.634 14589439 14664351 14792821 14965294 15159280 15345286 15497890 
822.009 15602564 15662845 15697507 15735298 15803294 15917735 16080616 
825.384 16280156 16495621 16704753 16892626 17050326 17176194 17271550 
828.759 17337168 17371066 17369826 17330856 17256760 17157684 17052532 
832.133 16963976 16915398 16923702 16993538 17116806 17275480 17448874 
835.508 17618714 17777262 17927512 18081650 18253120 18451102 18674496 
838.883 18912124 19144792 19352674 19522290 19649188 19738260 19800540 
842.258 19849442 19895538 19947364 20011340 20092816 20196312 20323060 
845.633 20468880 20623400 20770676 20895438 20987164 21045310 21078632 
849.008 21101830 21127188 21158114 21188590 21206508 21201254 21172692 
852.382 21134842 21114562 21142460 21240466 21414476 21649776 21915768 
855.757 22171844 22382192 22522284 22583184 22570794 22501486 22396880 
859.132 22277720 22162638 22064562 21989096 21936154 21901340 21879770 
862.507 21870466 21879562 21919356 22004920 22145832 22338412 22561720 
865.882 22781652 22955546 23047602 23041242 22944926 22790382 22622034 
869.256 22486376 22414010 22415162 22476814 22570236 22659314 22712484 
872.631 22711610 22654706 22555752 22438782 22333494 22265164 22248598 
876.006 22285392 22364576 22466834 22570306 22659420 22726168 22770756 
879.381 22798098 22811194 22806550 22773794 22697890 22566048 22374308 
882.756 22131328 21856808 21578560 21326906 21126702 20997840 20951764 
886.131 20990050 21103952 21275052 21475534 21671232 21829978 21928174 
889.505 21956716 21923330 21849700 21762354 21682236 21619896 21573650 
892.880 21536114 21500566 21466936 21443122 21440686 21466066 21516930 
896.255 21579640 21636718 21672414 21680844 21666494 21641210 21614672 
899.630 21587962 21551990 21492662 21399194 21273140 21130146 20996136 
903.005 20898428 20853336 20862446 20913170 20987478 21068196 21147434 
906.379 21226062 21308600 21396306 21483332 21558330 21610876 21639572 
909.754 21657230 21686068 21752252 21872068 22043438 22242878 22432396 
913.129 22572540 22632854 22604230 22499740 22350342 22192522 22060484 
916.504 21976338 21944972 21955426 21984528 22006522 21996834 21941278 
919.879 21838932 21702754 21553348 21413606 21300734 21220634 21167924 
923.254 21130388 21096440 21060892 21028164 21008552 21012654 21042808 
926.628 21089378 21130876 21142356 21103154 21005664 20859004 20687232 
930.003 20523380 20398934 20341360 20367262 20481386 20676704 20935076 
933.378 21229646 21525424 21788656 21991360 22119542 22177946 22190290 
936.753 22191790 22216270 22289508 22420848 22604894 22827816 23076254 
940.128 23343434 23628694 23933708 24254706 24577588 24880430 25137980 
943.502 25332594 25462082 25541284 25596458 25654136 25733794 25840120 
946.877 25966558 26099858 26229998 26354366 26478982 26613214 26765320 
950.252 26938278 27127848 27326744 27528202 27728976 27928996 28129040 
953.627 28327298 28518358 28695344 28853280 28993456 29124358 29260970 
957.002 29418724 29607960 29830742 30079492 30340856 30598286 30839152 
960.377 31055878 31246826 31414420 31563334 31697224 31817288 31921618 
963.751 32004822 32059506 32078270 32057580 31999364 31913664 31814542 
967.126 31717434 31633180 31563372 31500056 31429130 31337950 31220336 
970.501 31081468 30935600 30802728 30698806 30632028 30599496 30590998 
973.876 30592528 30592206 30584494 30569420 30550934 30533586 30521110 
977.251 30515776 30518336 30529676 30549760 30576814 30606606 30633094 
980.625 30650020 30653576 30645610 30633592 30628722 30641840 30681062 
984.000 30749128 30844026 30960650 31093178 31235468 31379942 31517230 
987.375 31634924 31720464 31765308 31769014 31741746 31700860 31667642 
990.750 31657842 31676054 31715366 31761278 31797428 31812400 31804628 
994.125 31780850 31753078 31732832 31729590 31748980 31794112 31866986 
997.500 31967588 32092504 32232408 32373644 32500286 32598962 32665328 
1000.874 32705158 32732420 32761964 32804344 32860808 32925286 32988484 
1004.249 33046256 33101320 33163402 33242088 33340648 33452288 33563100 
1007.624 33658400 33733056 33796264 33870844 33982724 34149332 34371844 
1010.999 34632932 34903948 35155544 35371488 35552372 35713936 35876172 
1014.374 36055820 36257300 36473504 36689964 36892420 37071912 37226176 
1017.748 37358360 37475948 37590576 37717404 37877032 38090572 38371204 
1021.123 38715772 39097992 39473032 39783612 39982872 40049428 39996492 
1024.498 39865144 39712084 39589020 39524308 39521840 39566736 39638752 
1027.873 39723992 39820252 39932700 40064616 40209008 40347076 40453552 
1031.249 40509928 40511564 40471704 40412968 40359588 40323992 40304684 
1034.624 40287852 40257608 40203880 40125740 40028868 39920168 39802168 
1037.999 39671312 39522348 39352940 39168040 38979016 38797572 38629100 
1041.374 38469592 38308340 38134668 37946704 37755208 37583204 37458716 
1044.750 37403604 37429464 37535692 37713828 37952852 38242988 38575936 
1048.125 38938856 39312892 39673744 39997036 40270984 40504400 40728732 
1051.500 40985700 41315328 41736536 42238412 42781524 43313016 43785968 
1054.875 44171976 44470964 44704884 44907552 45109616 45332480 45586040 
1058.251 45871596 46184688 46516924 46856908 47186960 47488028 47744736 
1061.626 47951972 48119772 48271492 48434228 48625116 48843600 49069168 
1065.001 49272324 49426488 49523700 49578480 49624388 49699132 49830072 
1068.376 50027972 50286180 50589404 50923800 51284068 51672472 52092868 
1071.752 52545120 53022696 53518232 54032528 54581284 55194920 55908976 
1075.127 56752348 57732256 58832660 60017992 61250100 62498376 63747452 
1078.502 64994468 66236824 67463080 68651624 69776856 70825360 71806232 
1081.877 72753624 73712824 74722592 75798000 76925032 78065864 79178168 
1085.253 80236056 81236080 82197088 83145216 84103184 85080472 86077752 
1088.628 87095216 88139544 89224072 90358384 91533840 92713880 93836384 
1092.003 94833672 95649600 96263384 96691968 96980464 97177280 97316008 
1095.378 97404200 97427960 97363896 97193568 96913824 96534184 96070832 
1098.754 95539272 94952192 94321280 93661472 92993592 92338712 91713424 
1102.129 91122864 90559808 90010360 89462872 88917616 88389160 87902768 
1105.504 87484192 87153488 86921696 86792240 86769816 86863336 87088048 
1108.879 87457936 87976936 88630264 89384216 90196080 91023152 91839856 
1112.255 92643376 93450512 94285376 95166480 96095064 97053136 98005064 
1115.630 98904488 99705104 100359176 100823032 101061984 101051072 100785592 
1119.005 100283000 99583360 98734976 97782936 96758824 95675992 94538344 
1122.380 93351704 92134496 90922160 89761200 88695408 87759912 86973472 
1125.755 86343320 85873344 85571176 85452200 85537648 85845648 86388880 
1129.131 87171872 88194024 89456360 90964688 92727864 94750784 97025048 
1132.506 99523984 102201608 105008128 107901488 110858952 113880792 
1135.399 116978288 120154520 123389464 126630056 129802648 132837312 
1138.292 135681808 138319104 140758432 143017712 145102224 146998768 
1141.185 148680368 150129488 151354576 152396496 153312032 154156176 
1144.078 154956256 155707104 156383632 156965696 157459376 157904976 
1146.971 158360304 158879200 159486224 160168384 160885296 161594368 
1149.864 162277152 162947936 163645712 164410720 165262416 166185808 
1152.757 167139280 168071024 168945856 169752912 170503904 171216272 
1155.651 171898272 172539984 173121488 173623344 174040592 174382544 
1158.544 174662032 174879968 175013904 175022416 174865296 174522272 
1161.437 174010672 173377888 172687200 171987728 171294336 170586288 
1164.330 169820800 168955680 167965264 166850224 165627792 164318432 
1167.223 162934240 161478432 159953360 158369904 156752832 155134288 
1170.116 153539888 151978560 150438016 148892128 147314928 145695904 
1173.009 144042848 142376528 140714688 139061792 137404336 135721296 
1175.902 133996304 132231864 130450440 128687752 126974048 125323880 
1178.795 123731376 122179944 120653144 119148656 117678944 116264160 
1181.688 114917208 113633656 112389888 111154160 109901544 108625600 
1184.581 107341168 106075928 104857000 103695504 102584008 101500768 
1187.474 100423720 99340304 98252728 97173464 96115568 95083368 94070088 
1190.849 93061984 92049336 91033248 90028504 89055400 88130984 87259600 
1194.225 86429920 85619360 84804760 83971824 83119216 82256704 81399064 
1197.600 80559584 79745248 78959624 78204808 77485008 76806416 76174456 
1200.975 75589576 75046728 74537272 74054112 73596496 73171328 72789552 
1204.350 72460128 72181784 71942168 71719056 71491032 71243832 70976440 
1207.726 70700488 70434024 70193040 69985504 69811608 69665984 69543856 
1211.101 69443456 69365664 69310624 69273352 69243896 69208968 69158416 
1214.476 69090848 69014400 68943912 68893976 68874832 68889008 68935448 
1217.851 69013744 69128728 69289952 69506600 69779656 70096960 70434224 
1221.227 70764168 71064592 71330320 71572992 71816464 72083352 72385008 
1224.602 72716520 73061112 73398872 73717896 74020248 74318408 74626976 
1227.977 74951936 75286200 75612720 75912616 76175008 76402504 76608744 
1231.352 76810736 77017200 77225120 77419464 77583208 77705040 77786120 
1234.728 77838992 77881608 77927672 77981160 78035208 78076848 78092120 
1238.103 78070032 78003328 77884696 77703608 77448616 77109280 76683336 
1241.478 76179896 75619552 75026440 74421000 73813584 73203016 72580144 
1244.853 71935448 71265616 70574408 69870632 69160936 68447816 67727152 
1248.229 66993868 66246620 65493068 64750016 64040296 63384556 62797384 
1251.604 62283356 61839192 61456400 61125436 60837368 60583324 60353140 
1254.979 60135224 59916464 59686640 59440632 59179424 58907868 58631204 
1258.354 58350132 58060868 57756888 57435160 57100176 56765940 56450264 
1261.730 56167692 55922768 55708116 55506600 55299000 55073784 54829436 
1265.105 54575384 54325012 54091632 53881636 53694308 53523628 53362720 
1268.480 53205916 53048944 52888768 52721476 52542388 52348236 52139192 
1271.855 51921624 51705916 51505500 51331164 51187728 51074900 50987996 
1275.231 50920860 50867992 50825008 50786420 50743592 50684980 50596964 
1278.606 50468544 50295224 50079836 49829812 49551960 49246492 48905004 
1281.981 48513212 48056440 47529020 46938888 46308084 45664724 45039000 
1285.356 44453120 43918660 43438860 43011024 42631892 42299036 42011652 
1288.732 41768344 41565164 41396852 41257320 41142160 41050156 40981764 
1292.107 40936544 40910368 40893580 40873560 40838104 40780120 40701696 
1295.482 40612296 40527132 40459588 40417584 40400712 40401036 40405328 
1298.857 40400128 40374240 40320100 40235068 40120324 39981564 39827696 
1302.233 39670076 39520024 39385736 39269948 39169168 39075328 38979596 
1305.608 38875692 38763628 38648584 38538316 38439436 38354448 38281888 
1308.983 38218060 38160568 38110504 38071832 38048976 38042140 38045832 
1312.358 38049120 38039932 38010100 37960304 37899700 37842724 37801332 
1315.734 37780948 37777548 37779936 37773972 37747912 37696880 37621648 
1319.109 37526268 37414008 37284192 37133520 36956704 36751152 36517152 
1322.484 36259608 35984796 35699044 35406968 35111540 34814728 34518512 
1325.859 34225760 33939588 33663520 33401080 33156000 32933432 32739528 
1329.234 32581102 32464042 32390960 32360152 32366150 32401562 32459472 
1332.610 32536068 32631676 32749106 32891150 33058058 33246704 33451610 
1335.985 33667492 33892048 34127540 34380308 34655504 34954648 35271644 
1339.360 35593764 35906220 36197620 36464136 36708384 36935748 37149868 
1342.735 37350160 37533708 37698648 37847892 37990352 38139692 38309248 
1346.111 38505872 38727144 38960712 39189944 39397052 39570144 39704824 
1349.486 39803292 39871568 39916172 39943344 39959040 39969172 39980652 
1352.861 39998344 40022652 40049032 40068540 40071740 40054260 40019964 
1356.236 39982068 39957004 39958312 39992788 40056408 40138716 40226744 
1359.612 40311556 40390676 40467848 40548956 40637144 40729388 40817648 
1362.987 40894784 40959412 41018324 41082896 41161904 41258340 41366092 
1366.362 41474604 41570892 41645648 41697288 41731976 41760900 41794280 
1369.737 41840868 41906072 41996764 42125984 42313024 42583720 42964384 
1373.113 43471196 44100788 44823928 45591704 46345612 47033772 47614792 
1376.488 48049372 48296636 48311264 48049776 47490760 46646652 45568336 
1379.863 44326400 42996904 41640828 40295268 38985032 37726368 36533656 
1383.238 35418944 34385724 33425950 32520392 31646222 30784660 29931368 
1386.614 29099700 28314920 27600190 26964614 26399502 25888228 25417604 
1389.989 24984092 24594664 24260628 23991866 23789976 23647272 23548160 
1393.364 23475234 23412388 23351476 23292602 23241702 23205734 23189832 
1396.739 23197800 23232928 23298614 23396688 23523676 23669278 23817066 
1400.115 23951634 24061834 24142882 24193394 24209580 24183866 24103828 
1403.490 23956502 23736710 23454460 23138106 22825580 22554390 22349192 
1406.865 22217594 22155558 22155176 22213200 22334960 22533730 22826034 
1410.240 23224714 23732126 24339188 25027964 25778128 26569358 27382604 
1413.616 28198720 28993526 29739826 30411888 30987622 31454564 31808086 
1416.991 32047022 32166396 32154832 32000080 31704600 31298600 30835666 
1420.366 30368996 29935346 29547376 29202104 28891418 28611000 28367334 
1423.741 28179948 28073188 28066506 28164356 28356476 28626254 28960444 
1427.117 29355686 29818534 30361464 30995096 31719894 32522566 33377464 
1430.492 34254340 35127308 35977524 36793992 37572652 38313300 39020160 
1433.867 39702536 40375260 41059296 41777460 42545272 43353508 44165852 
1437.242 44932792 45618352 46216160 46744864 47232872 47709600 48196844 
1440.618 48704804 49229944 49758056 50268772 50743144 51171848 51556088 
1443.993 51906648 52237648 52564416 52900148 53258388 53655764 54113696 
1447.368 54655608 55302576 56064080 56940052 57927388 59027228 60248984 
1450.743 61604684 63099436 64717332 66418132 68149464 69854368 71497128 
1454.119 73065816 74561152 75984568 77312680 78480496 79389552 79970008 
1457.494 80248776 80333800 80351184 80374184 80423744 80497640 80588616 
1460.869 80695176 80820288 80966384 81131384 81302312 81455416 81550472 
1464.244 81530528 81326496 80851056 80012032 78727048 76926296 74584320 
1467.620 71727584 68441104 64835952 61033408 57126552 53133184 49021016 
1470.995 44733312 40266440 35755164 31488016 27787750 24829170 22576622 
1474.370 20852746 19449898 18222916 17098298 16065521 15142022 14343512 
1477.745 13664932 13082569 12567420 12098432 11666603 11274275 10925859 
1481.120 10620028 10346306 10090257 9839136 9589144 9344780 9114053 8901915 
1484.978 8706275 8518529 8327757 8127818 7922100 7722684 7545208 7399719 
1488.835 7285345 7190539 7101883 7013987 6932740 6868979 6828249 6806708 
1492.693 6792404 6770090 6726375 6654233 6554788 6438215 6318680 6209632 
1496.550 6115430 6032268 5952817 5875027 5805343 5753834 5726538 5721703 
1500.408 5728150 5731776 5721166 5692428 5649694 5602333 5560715 5531350 
1504.265 5515577 5508598 5501282 5484370 5455614 5423371 5399115 5384220 
1508.122 5368084 5339034 5293115 5232880 5165714 5099999 5042976 4997859 
1511.980 4964577 4941419 4928047 4926372 4939508 4968867 5010294 5051255 
1515.837 5072911 5056485 4995647 4902512 4802998 4721561 4671621 4652832 
1519.695 4652865 4650588 4622892 4557092 4458595 4348975 4249454 4170161 
1523.552 4110551 4066668 4037036 4024795 4035062 4069477 4121422 4176484 
1527.410 4217568 4233360 4222452 4192910 4156646 4124432 4101118 4083959 
1531.267 4063992 4030983 3979182 3913413 3851364 3815997 3820577 3860356 
1535.124 3918027 3975437 4021217 4049912 4062052 4060982 4052353 4040447 
1538.982 4028040 4015666 4004463 3999380 4008242 4034862 4077705 4129717 
1542.839 4181536 4224426 4253134 4266285 4266117 4257049 4242829 4224995 
1546.697 4202914 4174109 4135538 4084294 4019411 3943036 3861593 3785146 
1550.554 3724285 3686856 3676765 3693740 3732740 3783508 3832176 3863097 
1554.411 3865906 3840433 3797446 3752792 3721811 3716632 3742298 3792466 
1558.269 3843541 3863198 3836522 3784912 3738254 3710182 3698185 3694342 
1562.126 3690599 3681443 3664401 3639474 3608635 3575460 3544091 3517869 
1565.984 3499664 3492316 3498061 3518303 3551875 3592632 3629083 3647828 
1569.841 3641212 3612678 3574224 3539180 3515864 3506344 3507747 3514461 
1573.699 3520975 3522745 3517134 3504407 3486003 3463424 3437440 3407918 
1577.556 3376328 3345140 3317393 3295024 3278431 3266112 3255096 3243412 
1581.413 3231828 3224518 3228790 3251223 3294790 3356125 3426119 3491815 
1585.271 3540984 3566574 3567609 3548534 3515831 3475248 3430995 3385177 
1589.128 3340432 3300466 3271154 3258334 3265979 3293622 3335857 3383273 
1592.986 3425150 3452436 3460619 3449129 3421710 3383874 3342068 3301968 
1596.843 3268583 3246216 3237336 3242911 3261038 3287879 3316993 3342035 
1600.701 3358363 3365041 3364039 3359631 3356393 3357461 3363739 3374424 
1604.558 3388015 3403343 3419740 3436372 3451167 3460953 3461287 3448963 
1608.415 3423247 3387848 3350215 3319130 3303237 3307978 3334288 3378331 
1612.273 3432999 3490311 3543423 3587253 3619861 3641446 3655713 3669012 
1616.130 3690131 3724452 3771275 3823785 3873193 3912911 3940997 3959353 
1619.988 3971458 3980888 3989849 3998209 4004229 4004965 4000985 3996604 
1623.845 4000116 4019646 4058841 4115702 4183543 4254105 4318387 4370461 
1627.703 4409254 4438075 4461842 4483970 4503522 4516680 4518822 4508042 
1631.560 4486314 4460436 4440753 4437673 4461172 4516713 4601929 4702234 
1635.417 4795058 4858314 4885724 4887767 4882272 4884115 4901306 4936995 
1639.275 4991055 5061480 5144355 5235295 5330145 5425820 5522121 5621364 
1643.132 5727914 5847320 5985369 6147153 6335221 6547354 6773489 6995231 
1646.990 7190808 7345292 7456614 7532868 7585060 7622387 7651287 7675636 
1650.847 7699142 7725012 7757932 7802291 7859306 7921424 7975452 8013387 
1654.704 8034448 8040557 8032557 8009877 7971774 7918725 7852559 7776856 
1658.562 7695331 7610686 7523631 7432244 7333295 7223284 7100098 6965061 
1662.419 6823167 6682866 6553274 6442115 6354655 6294105 6262640 6261867 
1666.277 6291920 6349880 6427756 6512339 6585601 6629672 6634752 6605012 
1670.134 6556436 6506722 6468044 6443629 6430783 6425402 6425200 6431052 
1673.992 6446958 6477663 6526365 6590546 6663351 6736370 6804217 6864872 
1677.849 6917590 6961122 6993749 7012976 7018532 7013347 7004221 7000517 
1681.706 7013145 7055070 7140887 7284907 7489986 7733916 7973630 8174342 
1685.564 8328027 8445616 8540730 8624475 8705498 8791303 8890078 9009883 
1689.421 9154524 9322775 9506534 9694708 9876557 10046680 10206967 10366463 
1693.279 10540378 10748530 11012275 11346101 11744384 12171790 12576357 
1696.654 12918146 13189737 13408388 13603252 13804018 14039577 14331081 
1700.029 14675900 15039894 15374703 15651373 15868312 16039528 16183401 
1703.404 16319409 16468536 16651247 16883222 17165544 17482024 17804808 
1706.780 18109526 18383900 18629116 18854364 19070454 19284362 19498516 
1710.155 19711700 19923948 20138902 20365632 20616590 20903538 21233438 
1713.530 21605860 22013356 22446492 22903814 23398996 23963924 24637902 
1716.905 25451786 26398378 27423790 28452550 29429148 30344552 31230518 
1720.281 32132890 33099964 34172024 35380080 36745672 38281092 39991228 
1723.656 41875020 43926648 46136452 48489868 50972832 53578200 56318932 
1727.031 59240980 62424804 65969488 69956848 74404376 79230184 84272072 
1730.406 89336384 94318640 99283536 104521992 110534152 117966392 127336920 
1733.782 138533296 150539216 161896976 171669152 179841664 186948064 
1736.675 193595712 200255744 207217184 214593936 222315152 230166640 
1739.568 237816112 244907536 251147712 256326848 260315360 263066384 
1742.461 264626928 265149648 264847664 263920640 262448256 260365600 
1745.354 257506288 253714176 248933712 243265824 236913536 230115200 
1748.247 223005344 215556992 207602544 198975104 189660208 179878512 
1751.140 170061008 160678160 152056464 144281504 137240240 130710392 
1754.033 124446816 118234848 111911072 105383080 98670464 91915800 85358024 
1757.408 79251576 73761160 68925424 64667836 60842556 57275292 53801740 
1760.784 50313156 46788996 43319496 40065636 37181776 34742792 32728490 
1764.159 31048724 29589834 28245466 26938878 25631850 24324962 23048582 
1767.534 21844228 20747356 19770474 18904476 18127352 17418384 16764155 
1770.909 16157711 15594973 15070458 14577514 14116106 13692185 13317225 
1774.285 12999496 12738602 12522504 12329351 12133389 11915752 11669463 
1777.660 11402291 11129436 10866810 10622778 10395817 10177218 9959170 
1781.035 9742009 9533933 9346371 9186503 9052373 8933268 8813484 8680077 
1784.892 8529545 8369167 8212328 8069012 7942515 7827728 7715905 7600402 
1788.750 7480480 7361266 7250877 7153686 7066554 6977048 6870662 6739129 
1792.607 6588730 6436836 6301265 6189499 6097654 6013992 5926919 5831099 
1796.465 5731205 5638650 5567528 5526450 5513631 5516584 5517054 5499101 
1800.322 5454843 5388413 5310422 5232075 5157700 5084275 5004730 4913637 
1804.180 4810101 4698684 4586994 4483033 4393422 4322335 4273010 4248183 
1808.037 4249420 4274181 4313233 4349477 4360187 4325849 4238111 4106236 
1811.894 3954605 3815663 3716297 3669581 3673958 3716732 3780834 3849960 
1815.752 3913547 3964770 3998744 4009546 3989214 3931233 3835552 3712521 
1819.609 3581941 3466764 3387347 3351985 3356426 3385444 3421176 3448628 
1823.467 3460385 3457112 3444821 3428590 3409020 3382472 3345274 3296092 
1827.324 3239372 3182994 3136501 3108234 3101827 3115409 3143042 3178454 
1831.182 3216406 3253159 3284441 3303237 3301267 3272289 3214069 3131395 
1835.039 3035089 2938303 2849544 2770874 2697752 2623609 2544979 2464997 
1838.896 2392194 2336924 2305878 2299149 2310674 2331861 2354181 2373003 
1842.754 2388296 2402822 2417882 2431276 2436841 2429111 2407853 2377901 
1846.611 2345719 2317137 2292887 2269871 2242726 2208989 2170659 2135562 
1850.469 2112387 2105129 2109457 2112421 2097138 2050095 1970039 1870429 
1854.326 1777762 1720276 1719377 1782121 1898549 2043171 2183912 2293387 
1858.183 2352315 2354980 2306377 2219113 2109191 1994104 1891294 1814660 
1862.041 1773637 1770975 1802948 1860978 1934858 2015841 2099069 2183912 
1865.898 2271103 2359578 2442539 2506153 2532048 2505820 2424646 2301148 
1869.756 2157472 2017572 1898782 1809902 1756004 1739869 1764055 1829201 
1873.613 1931230 2058718 2192071 2308942 2388362 2418981 2402522 2353747 
1877.471 2294319 2242859 2211619 2201995 2206091 2212652 2212818 2202761 
1881.328 2183612 2159969 2135595 2112820 2092144 2073067 2055455 2039609 
1885.185 2024895 2009782 1991341 1967342 1938086 1907801 1883374 1871294 
1889.043 1872692 1881011 1883241 1865570 1820816 1751313 1668617 1587300 
1892.900 1519963 1473382 1447584 1439040 1445090 1467764 1513679 1588431 
1896.758 1691169 1809403 1920347 1998664 2023297 1988845 1908866 1813030 
1900.615 1733183 1696159 1713456 1778261 1871194 1968408 2050695 2107426 
1904.473 2138925 2151411 2154974 2159703 2173889 2203960 2252185 2314539 
1908.330 2379633 2431276 2451002 2427378 2363142 2276233 2193570 2140456 
1912.187 2131466 2162234 2212785 2252984 2257380 2211220 2117049 1990076 
1916.045 1853092 1727328 1628372 1566450 1547695 1575462 1651022 1770942 
1919.902 1923809 2086684 2231036 2322700 2335359 2261744 2119646 1946241 
1923.760 1782520 1658606 1581846 1541277 1515840 1487280 1446054 1393232 
1927.617 1334965 1276540 1217425 1151076 1071085 979186 888801 825822 817689 
1931.957 883755 1025980 1225633 1443960 1634426 1757368 1787244 1719344 
1935.814 1567747 1360491 1130446 909487 723885 587034 500479 456064 441403 
1940.154 446047 465517 504957 577578 700023 883190 1127522 1423349 1749317 
1944.493 2080824 2394426 2668180 2881297 3018039 3064352 3015003 2878028 
1948.351 2680615 2464631 2280030 2172923 2165830 2254982 2407187 2575276 
1952.208 2710455 2779877 2773475 2702020 2583176 2427511 2232334 1984984 
1956.066 1673108 1300567 893350 498787 172165 -43270 -128673 -94984 25182 
1960.405 189667 367877 552198 756645 1005057 1315988 1687011 2092077 2485058 
1964.745 2813826 3036390 3130594 3097488 2956485 2743764 2498455 2254616 
1968.602 2038477 1865737 1745026 1687244 1707103 1822945 2047566 2379400 
1972.460 2787680 3212734 3577866 3796176 3799886 3561696 3109736 2522949 
1976.317 1912693 1389642 1020268 821340 761225 782402 826253 856962 864365 
1980.657 858057 853277 857194 869113 883356 898297 924794 984732 1103173 
1984.996 1296247 1560896 1867634 2168094 2411951 2559677 2600942 2555911 
1988.854 2466364 2376102 2320701 2315405 2355746 2422746 2494989 2556844 
1992.711 2605209 2644010 2679048 2708888 2722058 2699119 2617042 2461265 
1996.568 2229404 1937021 1612542 1291495 1002466 759731 556610 372486 186750 
2000.908 -11066 -210085 -377100 -465813 -437248 -273667 10337 370861 742107 
2005.248 1056304 1263879 1344537 1314592 1214069 1096330 1007747 977692 
2009.105 1020666 1133668 1306018 1520362 1761394 2013910 2267173 2518684 
2012.963 2771507 3035756 3321868 3633092 3957715 4267255 4514604 4649416 
2016.820 4629322 4437405 4088274 3626611 3111471 2598175 2135928 1758599 
2020.677 1488344 1337292 1305785 1378706 1524419 1705173 1875221 1997266 
2024.535 2053625 2046800 1998864 1938020 1888266 1855388 1832827 1804878 
2028.392 1760961 1707003 1666089 1666256 1734147 1875786 2071302 2278198 
2032.250 2444271 2524982 2496288 2365108 2162633 1934791 1726363 1571803 
2036.107 1489341 1479400 1524419 1597942 1671877 1719477 1724068 1680292 
2039.964 1594583 1483456 1370097 1279863 1234903 1254940 1355572 1543638 
2043.822 1816889 2158171 2534514 2897507 3196145 3385076 3437206 3351985 
2047.679 3156292 2896040 2621209 2371271 2168560 2017405 1913824 1853059 
2051.537 1833726 1855854 1913991 1993738 2070803 2117748 2116383 2066408 
2055.394 1987879 1917319 1889530 1921912 2006587 2112221 2197666 2227439 
2059.251 2190339 2102166 2000162 1922178 1892559 1910995 1954561 1989211 
2063.109 1985783 1934958 1848633 1754507 1682487 1652918 1668950 1717914 
2066.966 1778794 1833759 1871394 1890063 1892426 1882209 1860912 1828003 
2070.824 1784350 1734281 1685714 1647663 1624548 1612675 1598574 1564887 
2074.681 1494860 1381332 1231846 1069590 927516 839499 833424 919780 1090284 
2079.021 1316021 1557338 1770276 1916454 1974865 1943245 1841312 1701814 
2082.878 1566616 1472252 1439971 1473682 1559666 1670447 1774668 1846903 
2086.736 1871793 1848400 1788242 1710662 1637020 1584141 1562027 1571172 
2090.593 1603828 1648328 1692600 1729889 1759730 1787643 1822479 1871560 
2094.450 1934825 2004023 2062813 2093076 2078460 2011014 1891893 1730056 
2098.308 1537985 1328783 1114268 906830 720334 571872 478055 451022 490495 
2102.647 583252 702910 819714 910682 965969 993101 1012297 1046904 1110547 
2106.987 1202407 1305652 1396689 1451872 1458754 1418994 1346000 1257599 
2110.844 1169481 1091447 1026877 976264 940500 922768 925624 949598 991009 
2115.184 1040859 1089985 1132705 1169548 1206693 1252747 1313927 1390041 
2119.042 1474646 1558835 1634858 1700450 1757202 1807141 1847036 1865537 
2122.899 1845439 1769245 1630268 1438076 1220748 1015585 858389 771515 
2126.756 755416 789340 838138 867586 850720 778087 657611 511227 364461 
2131.096 245559 179855 185988 275862 451652 702612 1002267 1311169 1583675 
2135.436 1775267 1857750 1826871 1705340 1536323 1371859 1261752 1236266 
2139.293 1301498 1434519 1592787 1719477 1761926 1687111 1485650 1177887 
2143.150 805804 423327 76281 -203991 -406000 -532369 -588260 -570557 -467302 
2147.490 -262342 49902 450425 891557 1306583 1625379 1796094 1805643 1681323 
2151.830 1483755 1276972 1113304 1013758 971083 958265 948602 929044 902182 
2156.169 880932 876284 888502 905369 912707 904672 889000 887141 921241 
2160.509 1000905 1124732 1286477 1482027 1717149 2004023 2346552 2727659 
2164.366 3103395 3402241 3546296 3482529 3198415 2737396 2184378 1645767 
2168.224 1212940 943057 851949 916559 1088457 1309740 1529806 1709830 
2172.081 1827836 1878449 1872692 1835955 1802283 1810568 1887101 2037212 
2175.938 2235798 2437740 2585109 2626909 2539847 2331761 2039542 1715153 
2179.796 1413642 1176226 1030563 988452 1050027 1207491 1442597 1727927 
2183.653 2023530 2281529 2458500 2523016 2468963 2315305 2102399 1875953 
2187.511 1671810 1510421 1393930 1309640 1240087 1172671 1099386 1020168 
2191.368 938740 860979 793057 742671 717181 721064 756213 817191 894114 
2195.708 976596 1059227 1144332 1243177 1367039 1517835 1679926 1819684 
2199.565 1893058 1859082 1698986 1425044 1082079 729163 425881 212209 99347 
2203.905 72867 101368 156586 217513 278183 343901 421968 515009 619385 
2208.244 726308 826950 917289 996655 1064508 1118952 1152073 1153933 1118586 
2212.584 1049063 958863 871271 809091 787448 809688 866789 942824 1021895 
2216.924 1096562 1166491 1235933 1307347 1374352 1421753 1429898 1381099 
2220.781 1268299 1099618 896969 688607 503597 362538 272215 227325 212341 
2225.121 208860 200109 177966 142632 105312 84433 100639 172496 309980 
2229.460 511028 759964 1031626 1292591 1511219 1664759 1741632 1744227 
2233.318 1686279 1589495 1475843 1366873 1280894 1229288 1219552 1252747 
2237.175 1323366 1419692 1524519 1617231 1676101 1685847 1639215 1540346 
2241.032 1403769 1251385 1108488 994928 923532 895475 902348 928811 958564 
2245.372 979983 987821 985430 982042 989282 1015850 1065405 1134565 1214302 
2249.712 1290365 1347828 1373122 1356037 1293622 1190745 1062482 931667 
2253.569 826353 774834 795879 894479 1056902 1256369 1456493 1624016 1738206 
2257.909 1794830 1805710 1792734 1779093 1779226 1795961 1820882 1840647 
2261.766 1842544 1821115 1779126 1726130 1673839 1630368 1599671 1581082 
2265.624 1570340 1563756 1558968 1554512 1549823 1543605 1534361 1521094 
2269.481 1505965 1492832 1487446 1494927 1517636 1552783 1594417 1634991 
2273.338 1668551 1693664 1712392 1729424 1748153 1768347 1784849 1789540 
2277.196 1774102 1734147 1670946 1591224 1507096 1431427 1375316 1346365 
2281.053 1347296 1375681 1424446 1482691 1538484 1579519 1596379 1585405 
2284.911 1549225 1496955 1441500 1395858 1368801 1362818 1374086 1394994 
2288.768 1416900 1434984 1448116 1458887 1470390 1483024 1493298 1495359 
2292.625 1483223 1454698 1413675 1370164 1336328 1321970 1330312 1356004 
2296.483 1387880 1411914 1417864 1403537 1375582 1345069 1325194 1325393 
2300.340 1347562 1387481 1437743 1490937 1543372 1595149 1648727 1706038 
2304.198 1765053 1819718 1860812 1880712 1875221 1847102 1804911 1760629 
2308.055 1725731 1706836 1704841 1714421 1726929 1732983 1725631 1702080 
2311.913 1664792 1619093 1574065 1539249 1522258 1527744 1555576 1600536 
2315.770 1652785 1701614 1737607 1756403 1760495 1757069 1756437 1766550 
2319.627 1788475 1815692 1836920 1839382 1815825 1768513 1709198 1654481 
2323.485 1620623 1618096 1648162 1704641 1776365 1852659 1924141 1984784 
2327.342 2030554 2058485 2066142 2051960 2016673 1965479 1907401 1854756 
2331.200 1818021 1803580 1810867 1834691 1866402 1899181 1930864 1963615 
2335.057 2002326 2052393 2114651 2184844 2253783 2309042 2339456 2337590 
2338.915 2302047 2237563 2154475 2066708 1987547 1928801 1897018 1892026 
2342.772 1907468 1933627 1959255 1976163 1981855 1978326 1970272 1961584 
2346.629 1952365 1939418 1918184 1884638 1838384 1782653 1724933 1674006 
2350.487 1638217 1621688 1621388 1627109 1624880 1603729 1562160 1510687 
2354.344 1469160 1461081 1503305 1599838 1739038 1898549 2050861 2170692 
2358.202 2243458 2265141 2242592 2189107 2121610 2054390 1996601 1951233 
2362.059 1914557 1880878 1842843 1797192 1745857 1696026 1656943 1638051 
2365.917 1644736 1676434 1728592 1793566 1862642 1927869 1981522 2015708 
2369.774 2022132 1994936 1931863 1837685 1724833 1611178 1515508 1450842 
2373.631 1421587 1421587 1437610 1453801 1458156 1445689 1418263 1382063 
2377.489 1344371 1309507 1277836 1247896 1218024 1188685 1163468 1147488 
2381.346 1144598 1156093 1179150 1207756 1235069 1255738 1267435 1271024 
2385.204 1269861 1266505 1262517 1257200 1248926 1235834 1218057 1197822 
2389.061 1178286 1163169 1154897 1153667 1158518 1167488 1178784 1191742 
2392.918 1205896 1220881 1235966 1249690 1260058 1265009 1263613 1256137 
2396.776 1244174 1230318 1218123 1211245 1213139 1226197 1250886 1285679 
2400.633 1326058 1366208 1400146 1423116 1434020 1434818 1430097 1424346 
2404.491 1420424 1418030 1413576 1402805 1382961 1354974 1324131 1298407 
2408.348 1285879 1291661 1315822 1352747 1392833 1425842 1442497 1437477 
2412.206 1409886 1363250 1303658 1239024 1177588 1125961 1088723 1067564 
2416.063 1061087 1064774 1073344 1081648 1086763 1088258 1088756 1092111 
2419.920 1102176 1120513 1146458 1177389 1209185 1237960 1261620 1279797 
2423.778 1293622 1305852 1319444 1337525 1362353 1394728 1433255 1473515 
2427.635 1509190 1532665 1537952 1521958 1486748 1439106 1388811 1345302 
2431.493 1314858 1299005 1294054 1293389 1291096 1283087 1269861 1254409 
2435.350 1241050 1232345 1228025 1224436 1216296 1199417 1171375 1133901 
2439.208 1091580 1051289 1019803 1003097 1005023 1026711 1067099 1122506 
2443.065 1187389 1253678 1313329 1358464 1383825 1387947 1373587 1347761 
2446.922 1319079 1296081 1285812 1291661 1313562 1349058 1394229 1444159 
2450.780 1493996 1539016 1573932 1593586 1593186 1569542 1522756 1456892 
2454.637 1380867 1305752 1244240 1206593 1197789 1216628 1255937 1304024 
2458.495 1347861 1377177 1386119 1374452 1346598 1309906 1271456 1236299 
2462.352 1206859 1183103 1164265 1149747 1139947 1136459 1140711 1152637 
2466.209 1170345 1189648 1205464 1212674 1208155 1191310 1164498 1132073 
2470.067 1098456 1067597 1040893 1017046 992470 962549 923598 874624 818518 
2474.406 762619 717048 691693 694116 725678 781771 851052 919680 974570 
2478.746 1006452 1013227 1000009 977659 957867 951591 965438 999212 1047170 
2483.086 1100083 1147555 1180312 1194134 1189217 1171541 1150146 1135728 
2486.943 1137090 1158750 1199915 1254342 1312000 1361555 1393099 1400346 
2490.801 1381465 1338621 1277438 1205763 1130944 1061087 1002998 960723 
2494.658 937113 932066 943289 967995 1003894 1050458 1108620 1180445 1265873 
2498.998 1361289 1459253 1548493 1617198 1658007 1669183 1656543 1630701 
2502.855 1604593 1587733 1584573 1593852 1611345 1631998 1652752 1672775 
2506.712 1692367 1710229 1722405 1722604 1704508 1665125 1607254 1539382 
2510.570 1473183 1419859 1385354 1369399 1365743 1365876 1361754 1349423 
2514.427 1329415 1305253 1281359 1260988 1245869 1236266 1232311 1234272 
2518.285 1242247 1255273 1270725 1284416 1292060 1291761 1284549 1275111 
2522.142 1268797 1269263 1276009 1284117 1286610 1277637 1256336 1227992 
2526.000 1202606 1190147 1197390 1223805 1262351 1301232 1329847 1341446 
2529.857 1335630 1317351 1294187 1273284 1259094 1253146 1255439 1265242 
2533.714 1282422 1307048 1337624 1371028 1402207 1425809 1437145 1434353 
2537.572 1418728 1393365 1362020 1327687 1291694 1255040 1219485 1187655 
2541.429 1163402 1150412 1150179 1161275 1179415 1199151 1216229 1229121 
2545.287 1238425 1246666 1255705 1264477 1270359 1270093 1262052 1248427 
2549.144 1235302 1230451 1241150 1270060 1314459 1366574 1416933 1456128 
2553.001 1478835 1484287 1475444 1456859 1433455 1409720 1388811 1374551 
2556.859 1370529 1380003 1404966 1444027 1492134 1540745 1580682 1604361 
2560.716 1608285 1593818 1566250 1532366 1497686 1464572 1431926 1396456 
2564.574 1355406 1308544 1259825 1216960 1189150 1184665 1207823 1257399 
2568.431 1326922 1405565 1482426 1547928 1597077 1630135 1651987 1670047 
2572.289 1691535 1721373 1760795 1806508 1852227 1890828 1915621 1922444 
2576.146 1911262 1885237 1850696 1814893 1785181 1766883 1761992 1769278 
2580.003 1784882 1803580 1820383 1832328 1838883 1842144 1844740 1848833 
2583.861 1855022 1861178 1863707 1859414 1846703 1826805 1803647 1782054 
2587.718 1766750 1760096 1761494 1768314 1776764 1783618 1787178 1787677 
2591.576 1786213 1784117 1782054 1779758 1776831 1772173 1765087 1755206 
2595.433 1742364 1726995 1710063 1693797 1682487 1681456 1696325 1730788 
2599.291 1785381 1855454 1933394 2008750 2071735 2116316 2140856 2148315 
2603.148 2144452 2136627 2131066 2131966 2141755 2160569 2186776 2216515 
2607.005 2244924 2265241 2271236 2259079 2229570 2189107 2147582 2116782 
2610.863 2105562 2116749 2145218 2180316 2209521 2222476 2215982 2194302 
2614.720 2167761 2147615 2143054 2157305 2187775 2227405 2268438 2305345 
2618.578 2335492 2358678 2376235 2388062 2392760 2388262 2373470 2350183 
2622.435 2323866 2302747 2294352 2304745 2335292 2382765 2439873 2498555 
2626.292 2551445 2593975 2624142 2643077 2652845 2656211 2655478 2652711 
2630.150 2649211 2645577 2642377 2639143 2634843 2628776 2620375 2610342 
2634.007 2600675 2594575 2595142 2605042 2625009 2653578 2687850 2723725 
2637.865 2757769 2787414 2812058 2832168 2849244 2864720 2879596 2893805 
2641.722 2906747 2917021 2923526 2924960 2921024 2912184 2899475 2885066 
2645.580 2871991 2863252 2861918 2870390 2889502 2918522 2955083 2995852 
2649.437 3036457 3073195 3103262 3124854 3137769 3142909 3142241 3137869 
2653.294 3132096 3127190 3125254 3128057 3136968 3152588 3174750 3201719 
2657.152 3231261 3260003 3284942 3303738 3315624 3321567 3324205 3327276 
2661.009 3334054 3347410 3368514 3396798 3430427 3466998 3503973 3539147 
2664.867 3571284 3599214 3622167 3639708 3651369 3657384 3658387 3656047 
2668.724 3652238 3648763 3646692 3646023 3645856 3644687 3641680 3637236 
2672.582 3633427 3632992 3639508 3655379 3680608 3713056 3748848 3782873 
2676.439 3810682 3829334 3837892 3837190 3828800 3814359 3794805 3770606 
2680.296 3741563 3708210 3672287 3637002 3606430 3584781 3575427 3579536 
2684.154 3595739 3620296 3648028 3672822 3689597 3694843 3687391 3668110 
2688.011 3639976 3606597 3572119 3540149 3513560 3494253 3483364 3481059 
2691.869 3486804 3499063 3514962 3531330 3543957 3549536 3546062 3533669 
2695.726 3514762 3493251 3473912 3459951 3453071 3452336 3454740 3456277 
2699.583 3453638 3444955 3430394 3411491 3390319 3368213 3345674 3322034 
2703.441 3296393 3268683 3240073 3213068 3191205 3177854 3174983 3183127 
2707.298 3200617 3224551 3251691 3279199 3305407 3329614 3352152 3373890 
2711.156 3395161 3416200 3436605 3455342 3471774 3485268 3496123 3505109 
2715.013 3513860 3523982 3536475 3551073 3566407 3579870 3588556 3589959 
2718.871 3583278 3569513 3551708 3533569 3518603 3509017 3505008 3505008 
2722.728 3506645 3507714 3507246 3506378 3507681 3515263 3532132 3560727 
2726.585 3601118 3650935 3705202 3758307 3803864 3836655 3854005 3856211 
2730.443 3846851 3831240 3815830 3805501 3802493 3805334 3809345 3808710 
2734.300 3797847 3774450 3739925 3699288 3659690 3627914 3608569 3602488 
2738.158 3607199 3617857 3629618 3638472 3642749 3642916 3640610 3637470 
2742.015 3634496 3631823 3629016 3625775 3622568 3620596 3621632 3627045 
2745.873 3637336 3651369 3666607 3680106 3688928 3691434 3687859 3680474 
2749.730 3672955 3669714 3674626 3690031 3715830 3749517 3787118 3823050 
2753.587 3852467 3872525 3882086 3882521 3876971 3868747 3860891 3854907 
2757.445 3850695 3847519 3844043 3839965 3836120 3834315 3836889 3846082 
2761.302 3862964 3887201 3917124 3949991 3982861 4012656 4037136 4054661 
2765.160 4064928 4068674 4067537 4063992 4061216 4061785 4067403 4078440 
2769.017 4093926 4111755 4129951 4146911 4162400 4177621 4194315 4213921 
2772.875 4237442 4264177 4292653 4321331 4349309 4377055 4406309 4439313 
2776.732 4478045 4522672 4571691 4622223 4670382 4713187 4748962 4778073 
2780.589 4802529 4825277 4849937 4879591 4916754 4963471 5020383 5087293 
2784.447 5162193 5242002 5322329 5398511 5467526 5528263 5582262 5633649 
2788.304 5687225 5747253 5815518 5891182 5970923 6050310 6125410 6194541 
2792.162 6257766 6317100 6374761 6432330 6490376 6548296 6605382 6661837 
2796.019 6719174 6779918 6846695 6920855 7001932 7087502 7173998 7257818 
2799.876 7337440 7413302 7488234 7566111 7651085 7745756 7850804 7964889 
2803.734 8085519 8209187 8332587 8453690 8571111 8684945 8796848 8909491 
2807.591 9026628 9152121 9289532 9440396 9604421 9778337 9957847 10137364 
2811.449 10312680 10481685 10645766 10808514 10976014 11154525 11348856 
2814.824 11561818 11793577 12041742 12302695 12572195 12846402 13122045 
2818.199 13397419 13671429 13944449 14218290 14495868 14781713 15080611 
2821.574 15397738 15736980 16100731 16488841 16899622 17330342 17778436 
2824.950 18242372 18723028 19223266 19747692 20301534 20889980 21517068 
2828.325 22184676 22892776 23638804 24418116 25225058 26053872 26900276 
2831.700 27763062 28645720 29556280 30506072 31508892 32578386 33724640 
2835.075 34954900 36272900 37680944 39183344 40788528 42510704 44371352 
2838.451 46395384 48609996 51042032 53713844 56644104 59847168 63333952 
2841.826 67113424 71192376 75574552 80259016 85237656 90493448 95996480 
2845.201 101708808 107581144 113553640 119564992 125544280 131415280 
2848.094 137101328 142516160 147572752 152186192 156271520 159753792 
2850.987 162568336 164661232 165994208 166544096 166306896 165297664 
2853.880 163554960 161137744 158117712 154581152 150616224 146308224 
2856.773 141743504 136999520 132149208 127262208 122396720 117605088 
2859.667 112931488 108408312 104062920 99916328 95983824 92279048 88811744 
2863.042 85588816 82615120 79892584 77422120 75203576 73235960 71516656 
2866.417 70039880 68795944 67767848 66931396 66256160 65702788 65228784 
2869.792 64790100 64342520 63849652 63282432 62622824 61865520 61016136 
2873.167 60090132 59108388 58095868 57077464 56075732 55112980 54208136 
2876.543 53378792 52641688 52010396 51495724 51104644 50838456 50694212 
2879.918 50664724 50740540 50911020 51167116 51502292 51912960 52398480 
2883.293 52959884 53597356 54310144 55093796 55941200 56844376 57795080 
2886.668 58787968 59821956 60899312 62024260 63200296 64427636 65702208 
2890.044 67016104 68359648 69724992 71108184 72509776 73933696 75384144 
2893.419 76862464 78365872 79886848 81416728 82948920 84481392 86018856 
2896.794 87571256 89150992 90769448 92434456 94149336 95913576 97725000 
2900.169 99580944 101480168 103422424 105408712 107440664 109520840 
2903.063 111652752 113841304 116092792 118412896 120807416 123279728 
2905.956 125832720 128468648 131192016 134009392 136930608 139966512 
2908.849 143126976 146419248 149847248 153411920 157112752 160948928 
2911.742 164918512 169016080 173232208 177548320 181938928 186374016 
2914.635 190818640 195239648 199604016 203875232 208014912 211976208 
2917.528 215705664 219150320 222258016 224985584 227300592 229177696 
2920.421 230595744 231535040 231977120 231909680 231332032 230260304 
2923.314 228725008 226768800 224438720 221775632 218816656 215592720 
2926.207 212132064 208466448 204629168 200653888 196572688 192410192 
2929.100 188185632 183913568 179606512 175277984 170942816 166614704 
2931.993 162305744 158025552 153781440 149582576 145440048 141368016 
2934.886 137382656 133497280 129720360 126054656 122498504 119048616 
2937.779 115704328 112468608 109347888 106349360 103477632 100733896 
2940.672 98115984 95620200 93244616 90990632 88862880 86867344 85008624 
2944.048 83289048 81707976 80264080 78957152 77790008 76767632 75895848 
2947.423 75177656 74610056 74182512 73878584 73676672 73552896 73485592 
2950.798 73452704 73434024 73410440 73361952 73270000 73118712 72895352 
2954.173 72592280 72205696 71735088 71180904 70543928 69824840 69024768 
2957.549 68145744 67191280 66165352 65072484 63916132 62698996 61423308 
2960.924 60092112 58709712 57282812 55819292 54327940 52817520 51295516 
2964.299 49768684 48242608 46722616 45213552 43720152 42247100 40799996 
2967.674 39384284 38006444 36673736 35392804 34170124 33010184 31914342 
2971.050 30880916 29905136 28980244 28098460 27252756 26437780 25650374 
2974.425 24889728 24156614 23452990 22781058 22143250 21541336 20976732 
2977.800 20449742 19959574 19504094 19079038 18679096 18297456 17927582 
2981.175 17564024 17203738 16846744 16495585 16155509 15832502 15531611 
2984.551 15256768 15009504 14789736 14595333 14424239 14273724 14141778 
2987.926 14026744 13926828 13841268 13770260 13715439 13680559 13670985 
2991.301 13693552 13754767 13859877 14011174 14207643 14444929 14716413 
2994.676 15015609 15336086 15673632 16026394 16394343 16778654 17180158 
2998.052 17598460 18032188 18477378 18928184 19377792 19817672 20239356 
3001.427 20634554 20996170 21318100 21596528 21828862 22013738 22150818 
3004.802 22239600 22279848 22271128 22213340 22106782 21952360 21751170 
3008.177 21504186 21211658 20873536 20489130 20058078 19581974 19064394 
3011.552 18512058 17933798 17340548 16743148 16150730 15569902 15003364 
3014.928 14451197 13910953 13379753 12856094 12340771 11837125 11349978 
3018.303 10884713 10444554 10030134 9639110 9267022 8908882 8561074 8222356 
3022.160 7894329 7580475 7284873 7010990 6760600 6534034 6330010 6147321 
3026.018 5983890 5837715 5706864 5587934 5476820 5369593 5262024 5151732 
3029.875 5038484 4924260 4812010 4705316 4606383 4515775 4431982 4352589 
3033.733 4274850 4196825 4118211 4039711 3963399 3891681 3826694 3770239 
3037.590 3723883 3687826 3661862 3644085 3630887 3617222 3597810 3567476 
3041.448 3523380 3465729 3398668 3328645 3263175 3209496 3171412 3149951 
3045.305 3142275 3143643 3148649 3152588 3152454 3146747 3134799 3116811 
3049.162 3093050 3064052 3030785 2995318 2960321 2928663 2902878 2883865 
3053.020 2871290 2863219 2857416 2851545 2844442 2835437 2824497 2811425 
3056.877 2795517 2776209 2753401 2728693 2705120 2687450 2680148 2686883 
3060.735 2708088 2741430 2781978 2823731 2861118 2889936 2908682 2916921 
3064.592 2915053 2903545 2882464 2851879 2812692 2767272 2719157 2673447 
3068.449 2634176 2604242 2583909 2570910 2561544 2550712 2534014 2508686 
3072.307 2473095 2427978 2375969 2320701 2267006 2219546 2182081 2156539 
3076.164 2142354 2136694 2134896 2132398 2125672 2113886 2098337 2081956 
3080.022 2067807 2057819 2051427 2046400 2039742 2028757 2012545 1991907 
3083.879 1968973 1946707 1927203 1911661 1900313 1892459 1887467 1885171 
3087.737 1884871 1886169 1888133 1889397 1888565 1884638 1876818 1864539 
3091.594 1847169 1823644 1792268 1752012 1702978 1647563 1590925 1540446 
3095.451 1503039 1483556 1483223 1498285 1521925 1545600 1562792 1570241 
3099.309 1568279 1560763 1552982 1548959 1550222 1555276 1560663 1562027 
3103.166 1555875 1541178 1519431 1494195 1469758 1450409 1439140 1437012 
3107.024 1442597 1452870 1463176 1468961 1466301 1454133 1433222 1407459 
3110.881 1381964 1362353 1352980 1355805 1370928 1395592 1425975 1457923 
3114.739 1487014 1509656 1523122 1525682 1517303 1500014 1477904 1456992 
3118.596 1442963 1440802 1451839 1473715 1500080 1522923 1534727 1530570 
3122.453 1510321 1478004 1441201 1407027 1381731 1368535 1367305 1375881 
3126.311 1390606 1408058 1424978 1438807 1447118 1448082 1441068 1426906 
3130.168 1408324 1389775 1375981 1370696 1374983 1386385 1399747 1408922 
3134.026 1408357 1395094 1370064 1336461 1298773 1261188 1226463 1195230 
3137.883 1167421 1142870 1122307 1107557 1101146 1104767 1118653 1141608 
3141.740 1170079 1200114 1228457 1252780 1272951 1290099 1306250 1323898 
3145.598 1344704 1370197 1400678 1436048 1474546 1513180 1547628 1572269 
3149.455 1581946 1572735 1543605 1496988 1439505 1380135 1328219 1292292 
3153.313 1277371 1284483 1310272 1348792 1392235 1432724 1463974 1481195 
3157.170 1482160 1466467 1436181 1394961 1348326 1303525 1267501 1246766 
3161.028 1245204 1263481 1297842 1341081 1384290 1417930 1435150 1432557 
3164.885 1411481 1376812 1335497 1295416 1262118 1238957 1225566 1219054 
3168.742 1214202 1205331 1188153 1160378 1122506 1078426 1034582 998647 
3172.600 977459 976031 995658 1033154 1082179 1134798 1182738 1219785 
3176.457 1243111 1253046 1252282 1244971 1234770 1224303 1214568 1205331 
3180.315 1195596 1184200 1170212 1153833 1135329 1116261 1098622 1084936 
3184.172 1077894 1079190 1089287 1106827 1128785 1150777 1168618 1179216 
3188.030 1181243 1174997 1162970 1147853 1132671 1120015 1112706 1112573 
3191.887 1121875 1142139 1172937 1211710 1254176 1293489 1323067 1338256 
3195.744 1337392 1322336 1297776 1268864 1239655 1210979 1181243 1147654 
3199.602 1108454 1065173 1022592 988485 970718 974139 999145 1040461 1089254 
3203.941 1134698 1168119 1184200 1182439 1165694 1139249 1108288 1076831 
3207.799 1047137 1020101 995857 974471 955841 939836 925823 912508 898563 
3212.138 882991 865992 849226 835482 827847 828478 838204 856364 879903 
3216.478 906498 933261 958199 980249 998315 1010503 1014821 1008311 988352 
3220.818 953815 905801 848596 787813 731519 686781 659702 653463 667932 
3225.157 699326 741111 785323 823365 848629 857659 851583 835715 817689 
3229.497 806601 808692 826021 855335 889465 919315 936980 939072 926919 
3233.836 906033 884087 867486 859219 858024 859518 858622 851683 838204 
3238.176 820743 803713 790999 784527 783564 785058 785622 782502 775033 
3242.516 764843 754753 747749 745957 750205 759765 773539 790037 808228 
3246.855 827880 849193 872499 898264 926221 955376 983869 1008644 1026379 
3251.195 1033752 1028637 1011466 984799 953118 921706 894844 874558 859983 
3255.534 848596 837408 823863 807630 790070 773672 760760 752728 750106 
3259.874 753259 762619 779216 803846 835316 870175 901219 919780 918053 
3264.214 892188 845010 785024 725777 680708 658209 659868 679016 704005 
3268.553 721761 723089 705831 674967 640356 613910 605117 618091 651174 
3272.893 697965 750371 800294 842421 874591 897035 911147 918252 918817 
3277.232 912276 897666 874790 844745 809987 774668 742837 718575 704138 
3281.572 700123 704935 715887 729395 742173 752031 757839 759997 760196 
3285.912 760694 764577 773905 790103 813074 840794 869511 894877 912807 
3290.251 920875 919647 912242 904108 900488 905535 919448 939603 960357 
3294.591 975699 980847 973607 955144 928911 898862 868416 839134 811315 
3298.930 785091 760926 741011 728532 726175 735601 755450 782070 810585 
3303.270 836213 856331 870806 882360 894180 908291 924561 940201 950528 
3307.610 951624 941463 921573 896504 871968 853044 842122 838337 838105 
3311.949 837142 832760 825125 816859 812377 815298 826585 843649 860979 
3316.289 872499 873197 861776 840263 813904 788443 768229 755118 748811 
3320.628 747285 749376 755815 768660 790734 824062 867553 917688 968593 
3324.968 1013957 1049063 1071982 1083674 1086697 1084239 1078791 1071284 
3328.825 1062349 1051920 1040195 1028238 1016282 1003728 988518 967597 
3332.683 937876 898198 850322 799564 753956 721794 709714 721064 753989 
3337.022 802784 858555 912276 955808 983968 995326 991905 977725 958332 
3341.362 938507 921772 909619 901418 895641 890694 886311 883389 884087 
3345.702 890694 904008 923266 945879 967929 986260 999112 1006286 1009175 
3350.041 1009042 1006186 999012 985430 963180 931999 894412 855733 822369 
3354.381 799896 791265 795680 808626 823631 834320 835914 826984 809224 
3358.720 787116 766370 752330 749741 760395 783995 816825 853974 889200 
3363.060 916891 934124 940334 938009 931069 923465 917522 913139 908158 
3367.400 900190 888004 873329 860481 855634 864299 889000 927616 974139 
3371.739 1019637 1054411 1071417 1067331 1043085 1003529 955310 905569 
3375.597 860381 824394 800493 789771 792360 807033 831698 863071 897301 
3379.936 930140 957335 975832 983703 980913 968991 951491 932730 917489 
3384.276 910051 912674 925225 944219 964143 977791 978456 962250 928679 
3388.615 882094 829706 781174 745393 728067 731154 751998 784792 821838 
3392.955 856397 883755 901983 911512 914102 911711 905336 895641 882792 
3397.295 867221 849127 830137 810551 791132 772179 754421 739684 730822 
3401.634 732116 747451 779282 827083 886942 952753 1017279 1074606 1121443 
3405.974 1157388 1183734 1202208 1213039 1214800 1205331 1183136 1148750 
3409.831 1106295 1062083 1022792 994164 978389 974570 979219 988120 998083 
3414.171 1007647 1016415 1024552 1031759 1036508 1037239 1033287 1026179 
3418.028 1019072 1016515 1022559 1039232 1065073 1095931 1125994 1150146 
3421.886 1165295 1170711 1168252 1160378 1149647 1138120 1127124 1117988 
3425.743 1111976 1110414 1114467 1124300 1138950 1157355 1177090 1196759 
3429.601 1214800 1230284 1242346 1249690 1251219 1246301 1235368 1220748 
3433.458 1205132 1191974 1183502 1179714 1179349 1179781 1179216 1177023 
3437.315 1174631 1174697 1179448 1189815 1204965 1222642 1240220 1255738 
3441.173 1268565 1279299 1287872 1293622 1295084 1290431 1279731 1265906 
3445.030 1254940 1254342 1270592 1306151 1357234 1414041 1464539 1498916 
3448.888 1512283 1506264 1487978 1467065 1452105 1448016 1456061 1473715 
3452.745 1496622 1520728 1543306 1562758 1578055 1587832 1590326 1584074 
3456.603 1569010 1547828 1525117 1507295 1499980 1506497 1526214 1555642 
3460.460 1588398 1618462 1641743 1656643 1664859 1669515 1674039 1680824 
3464.317 1690903 1703643 1717548 1731320 1744261 1755805 1765652 1773703 
3468.175 1779226 1781488 1780058 1774801 1766850 1758000 1750216 1745924 
3472.032 1746656 1752910 1765220 1783784 1808604 1840447 1879281 1923542 
3475.890 1969706 2012246 2043437 2055322 2042306 2002060 1937388 1855754 
3479.747 1768280 1686413 1619725 1572735 1544669 1530205 1521293 1511152 
3483.604 1495558 1474014 1449013 1424911 1405565 1393199 1388013 1388944 
3487.462 1393465 1400046 1408357 1418196 1430064 1443561 1455995 1463076 
3491.319 1460283 1442963 1409287 1360890 1303691 1245603 1195662 1161275 
3495.177 1145229 1146392 1158817 1175129 1187888 1192971 1189250 1179050 
3499.034 1166059 1153634 1143967 1136724 1130944 1124765 1117257 1108919 
3502.892 1100748 1094602 1091214 1090218 1090151 1089454 1086896 1082644 
3506.749 1077529 1072812 1069723 1068560 1069026 1070421 1072314 1074705 
3510.606 1078226 1084139 1092775 1104368 1117789 1131376 1143136 1151674 
3514.464 1155760 1155295 1150644 1142305 1130811 1117357 1102774 1088922 
3518.321 1077695 1070819 1069391 1073609 1082777 1094602 1107192 1117922 
3522.179 1125197 1128320 1126991 1121377 1111809 1098123 1080518 1059061 
3526.036 1035412 1011832 992337 980481 979153 988120 1005256 1024950 1041192 
3530.376 1049694 1047901 1037206 1021397 1006153 996488 995758 1004691 
3534.233 1021463 1042553 1063445 1080518 1090683 1092277 1084903 1069358 
3538.091 1047569 1022260 997950 978854 968892 969689 979917 994994 1008345 
3542.430 1014157 1008677 992238 969855 948934 936548 936648 947639 964375 
3546.770 979983 989182 991241 989016 987655 991208 1001835 1017743 1034615 
3551.109 1046871 1050259 1043218 1027707 1007846 988286 971781 958929 948204 
3555.449 937511 925358 911080 895442 879970 866424 856032 849492 847002 
3559.789 848064 852214 858887 867719 877845 888834 899559 908291 912774 
3564.128 910018 897268 872898 837507 796609 759433 737095 737858 762951 
3568.468 806004 856497 904506 941961 964874 972810 967995 953882 934523 
3572.807 913139 892819 875454 863934 860083 865328 879339 899028 918584 
3577.147 931401 931368 915032 882858 839698 791862 745957 705997 673407 
3581.487 647258 625623 607705 594433 587930 590949 605548 632492 669989 
3585.826 715323 764179 812078 855036 890229 916160 932232 938773 936050 
3590.166 925026 907229 884585 860249 837375 819813 811049 813340 827614 
3594.505 851484 880302 907295 925557 930140 919248 894612 861245 826253 
3598.845 795746 774436 762984 759599 760096 761391 762354 765241 774336 
3603.185 793555 825423 869179 920743 972910 1017079 1043716 1045210 1017046 
3607.524 960723 883854 799398 722359 664580 632425 625656 638564 661892 
3611.864 684790 697534 694680 677091 651240 627647 615337 619584 641451 
3616.203 678053 724184 772245 815464 846670 860846 855833 833557 798867 
3620.543 758802 720732 690863 672910 668164 674735 688673 704603 717148 
3624.883 723255 722823 719272 718343 727636 751898 791597 838005 875322 
3629.222 887340 868549 825025 768029 707590 650178 599941 558833 527847 
3633.562 507280 495935 491423 490362 489533 486182 479349 469597 459149 
3637.901 451652 451387 461371 482102 512123 546989 582157 612749 636009 
3642.241 652601 665609 680476 702479 735767 782103 840329 906299 974271 
3646.581 1036309 1084670 1113470 1119616 1102143 1061784 999876 919647 
3650.438 828146 736066 654525 593006 556876 547885 565502 606743 665941 
3654.778 733411 796941 842354 859751 847799 814336 772046 732349 703640 
3659.117 689536 690299 703143 723321 745924 766104 780676 787481 785921 
3663.457 776560 760694 740879 719471 699724 684226 675365 674370 681107 
3667.796 693585 708154 720500 726043 722890 712900 700886 691759 688773 
3672.136 693120 705001 724848 752927 788775 829706 867553 891192 892686 
3676.476 871205 832229 783166 730922 681040 638664 607738 589523 582887 
3680.815 584712 590087 594135 593305 585010 568156 543240 511725 476264 
3685.155 440740 409796 389897 387974 410857 462134 538629 627548 710444 
3689.494 769092 792128 778950 737195 679713 618589 564208 522606 495338 
3693.834 481571 478520 483263 492817 505090 518459 531331 542245 548947 
3698.174 549544 542378 526952 504493 478818 456362 444389 448966 472118 
3702.513 510929 558833 608103 652468 687677 712137 725711 729727 726541 
3706.853 718409 708187 698430 691527 689569 693950 705300 722657 744430 
3711.192 766901 784991 793987 789041 767399 728333 673839 608302 538463 
3715.532 473909 423958 399448 408204 453046 530070 629605 738024 840927 
3719.872 927018 988219 1020168 1022127 996057 947672 884219 815896 752827 
3724.211 704570 678784 678784 703309 745094 793290 836810 867785 883921 
3728.551 887540 884219 880069 881165 892387 915994 951591 995625 1042520 
3732.890 1085600 1119749 1140279 1143867 1128021 1092244 1039000 973707 
3736.748 903344 833424 767698 708254 656550 613844 581759 560426 549312 
3741.087 546193 548217 552397 555051 552828 541747 519919 488537 453609 
3745.427 422730 402102 396530 409331 443825 501806 582422 679016 778552 
3749.767 865361 925258 952886 952554 935220 911877 890959 876517 869345 
3754.106 868980 874591 884917 897832 910615 919514 920709 912010 893582 
3758.446 867719 838072 807564 777390 747417 716418 683894 651439 621741 
3762.785 598747 586172 586769 601003 626552 658607 691826 722193 748380 
3767.125 770618 789672 805373 815896 818884 812211 795813 771647 743036 
3771.465 712502 681737 651506 622537 596258 574360 558734 549776 546591 
3775.804 545695 544136 539293 531496 523999 522108 530999 551999 581062 
3780.144 610426 632259 642380 641584 634449 627946 628045 637668 656185 
3784.483 679314 701052 716484 723487 722558 715323 702711 684790 660764 
3788.823 630766 597220 564407 538928 526620 530402 549477 578408 610260 
3793.163 638100 657645 668098 671516 672014 673308 677821 685553 695012 
3797.502 704404 714128 725578 741244 763482 792858 826652 858555 879206 
3801.842 881431 864465 832793 792526 749077 706495 667633 635843 614408 
3806.181 605814 609796 622305 636805 647689 652700 653364 653231 656616 
3810.521 666970 685255 710378 738920 766702 790667 809058 821506 829208 
3814.861 833623 835715 835549 832992 827614 820909 814834 811680 813705 
3819.200 822237 836744 853775 867420 871537 863635 846902 827316 810286 
3823.540 798999 793755 792261 791033 784858 770287 746156 715754 685288 
3827.879 661759 651207 655786 674303 702413 733145 758536 772212 771050 
3832.219 756412 733344 707457 684060 666837 657313 656715 665742 685421 
3836.559 715920 755947 800327 840860 868117 874259 855966 816095 761823 
3840.898 701881 645433 600439 571971 562284 570312 591779 620447 649979 
3845.238 675299 693253 703076 705864 703806 699658 695841 694713 697932 
3849.577 706992 723155 748579 785323 835017 896637 961752 1014123 1035612 
3853.917 1018640 971283 910383 851749 804775 774237 761125 763515 777888 
3858.257 799829 824660 848230 867752 881829 889930 893350 893948 894412 
3862.596 897301 903776 913106 922270 927151 923731 911645 893649 874956 
3866.936 862141 861709 878011 912574 960158 1008810 1041291 1043849 1013160 
3871.275 955044 879936 797738 717181 645732 589224 550937 530335 523004 
3875.615 522971 525492 528113 530800 535743 545729 563478 590054 623765 
3879.955 659569 691726 715754 730855 740846 751201 767000 791730 826121 
3884.294 866623 906033 934888 945779 937345 914666 885780 858821 838702 
3888.634 828876 830735 844844 869976 902946 938906 971150 993367 1001902 
3892.973 995160 974504 942791 904340 863701 825589 794983 775830 771581 
3897.313 784261 813439 855401 903842 949864 984566 1001869 1000075 982109 
3901.653 954446 925092 901817 890627 894412 912541 941064 973939 1004758 
3905.992 1028338 1040295 1038269 1021961 992636 953915 911147 870673 837839 
3910.332 816560 807597 809091 817357 828411 839499 849392 858522 867785 
3914.671 878077 889067 899393 907494 912508 914832 915729 917123 919448 
3919.011 921672 922038 918518 910649 899725 888967 882128 882460 891291 
3923.351 907195 926653 944883 957800 963446 962582 958066 953351 950495 
3927.690 950993 954513 959992 965969 970486 972212 969589 960988 945547 
3932.030 922768 893649 860713 827946 799530 779581 771116 775332 791497 
3936.369 816759 846371 874392 894877 903344 898231 881231 857294 834022 
3940.709 819016 819348 838570 875720 924428 975002 1017312 1042919 1047768 
3945.049 1031593 997717 951225 899459 849924 810352 786219 780245 791232 
3949.388 813971 841458 866789 884153 891557 889930 882659 873595 866225 
3953.728 861577 858954 855999 850355 841192 830005 819680 814502 817755 
3958.067 830735 852214 878409 904705 926952 942094 949133 949067 943953 
3962.407 936150 927483 918850 910084 899858 887307 871039 850587 826851 
3966.747 802418 781074 767366 765706 778684 806535 845807 891026 934888 
3971.086 970984 994728 1004691 1002400 990843 973873 954280 933460 911379 
3975.426 888104 864033 841126 822502 811547 810684 820377 838835 862207 
3979.765 885979 905668 918452 923200 920975 914069 905469 898530 895774 
3984.105 899194 909719 926852 948668 971515 991308 1004227 1007415 1000972 
3988.445 987256 971150 957568 950694 952454 961852 975533 990212 1002666 
3992.784 1011765 1017777 1022028 1025814 1029501 1032523 1034084 1033885 
3996.642 1032822 1033088 1036542 1044912 1057334 1071284 1083242 1089620 
4000.499 1089055 
##END=
