##TITLE=ad18_0 Oct 07 10:04:14 2026 (GMT+02:00)
##JCAMP-DX=5.01  $$ Nicolet v. 1
##DATATYPE=INFRARED SPECTRUM
##ORIGIN=Vojna akademija
##OWNER=Nicolet
##LONGDATE=2026/10/07
##TIME=10:04:51
##SPECTROMETER/DATA SYSTEM=Nicolet iS20
##DATA PROCESSING=
Ratio against background
%Transmittance->Absorbance
Truncated
ElementMultiply or ElementDivide
##COMMENTS=
Number of sample scans: 8
Collection length: 11,90 sec
Sample gain: 8,0
Background collected on: Wed Oct 07 10:01:30 2026 (GMT+02:00);
Number of background scans: 8
Background gain: 8,0
Sample spacing:  1,000
Number of scan points: 12415
Resolution points: 8286
Number of FFT points: 65536
Apodization: N-B strong;
Phase correction: Mertz;
Laser frequency: 15798,00 cm-1
Number of rejected sample scans: 0
Number of rejected background scans: 0
Bench serial number: BER2010005;
##RESOLUTION= 4,000
##XUNITS=1/CM
##YUNITS=ABSORBANCE
##FIRSTX=400.156891
##LASTX=4000.123047
##FIRSTY=0.023519
##MAXX=4000.123047
##MINX=400.156891
##MAXY=0.176186
##MINY=-0.000455
##XFACTOR=1.000000
##YFACTOR=1.000000E-009
##NPOINTS=7468
##DELTAX=0.482117
##ZPD=6100
##XYDATA=(X++(Y..Y))
400.157 23519304 22547376 21767302 21147540 20719898 20559994 20739952 
403.532 21281386 22119054 23097814 23990746 24598698 24832012 24774548 
406.907 24643688 24707974 25153568 25986434 27015492 27905996 28330446 
410.281 28069370 27118536 25662748 24010146 22459926 21219588 20362992 
413.656 19828944 19482262 19187212 18872532 18535710 18229724 18022896 
417.031 17969366 18062064 18214970 18258302 18032222 17492130 16743286 
420.406 15962798 15322631 14944375 14891256 15194655 15842400 16770974 
423.781 17855660 18935798 19859500 20524944 20920368 21101690 21167508 
427.155 21211830 21302614 21467214 21695194 21950130 22185548 22360180 
430.530 22432502 22365342 22123586 21675654 21009872 20143968 19139806 
433.905 18095120 17153650 16482474 16228594 16490974 17266724 18444362 
437.280 19823118 21178084 22305902 23048160 23325220 23131572 22541898 
440.655 21691676 20766574 19955794 19400072 19168892 19238676 19520938 
444.030 19899076 20283342 20632366 20950026 21262178 21588624 21916708 
447.404 22202390 22382924 22414534 22295612 22074186 21829874 21637936 
450.779 21540884 21517312 21479398 21300490 20885008 20215612 19388984 
454.154 18583084 18021204 17896334 18312110 19244114 20518344 21840360 
457.529 22859806 23337456 23233208 22706966 21990804 21288312 20699744 
460.904 20226200 19820308 19440404 19095416 18857826 18832358 19100022 
464.278 19672452 20471068 21335674 22064040 22486900 22503824 22124528 
467.653 21449738 20628856 19791212 19012744 18321200 17719378 17217664 
471.028 16854048 16677655 16720938 16953260 17270862 17513898 17531422 
474.403 17244590 16665880 15897421 15092961 14431227 14056176 14047107 
477.778 14397522 15021337 15777215 16510075 17095884 17442840 17506930 
481.152 17286964 16818294 16160943 15390872 14593243 13848485 13235200 
484.527 12822990 12658359 12755561 13083286 13569031 14105187 14578165 
487.902 14898972 15023258 14972530 14828647 14708392 14708255 14863105 
491.277 15118314 15348100 15391731 15128847 14542599 13739958 12919921 
494.652 12299286 12058571 12270520 12889645 13762120 14688171 15471107 
498.027 15974898 16151486 16021891 15648074 15096255 14428179 13692288 
501.401 12928080 12177174 11480840 10874114 10382073 10013044 9763528 
504.776 9620275 9566551 9579422 9629625 9684103 9706905 9674683 9587112 
508.633 9472566 9379583 9361505 9456210 9664859 9946083 10220196 10397956 
512.490 10399313 10184579 9759901 9175877 8511197 7858328 7323489 7004356 
516.347 6986880 7325915 8025909 9026628 10201980 11390352 12411477 13122318 
520.204 13454251 13420828 13108112 12639563 12144906 11716572 11405727 
523.579 11222455 11148916 11158367 11228710 11349230 11517074 11730562 
526.954 11983426 12263259 12554528 12837153 13084378 13262187 13324912 
530.328 13223620 12925007 12425967 11769337 11035929 10335041 9768508 
533.703 9405824 9270170 9335469 9543010 9824461 10130140 10435763 10738476 
537.560 11040925 11335489 11596835 11792692 11896545 11907578 11854047 
540.935 11789798 11769474 11830484 11976887 12179049 12383793 12535838 
544.310 12599857 12565988 12453143 12297514 12143951 12028457 11972357 
547.685 11978147 12030637 12101532 12153254 12152606 12077240 11930226 
551.059 11740264 11560730 11451174 11454644 11584890 11814380 12082385 
554.434 12309581 12432344 12417682 12273825 12040687 11772435 11516870 
557.809 11299713 11127600 10997050 10910127 10883796 10947267 11130388 
561.184 11445663 11874274 12362350 12829440 13197695 13405210 13426671 
564.559 13278174 13013734 12711205 12454030 12323181 12374350 12630044 
567.934 13071164 13638057 14233355 14741195 15064523 15140135 14966048 
571.308 14600713 14154821 13757674 13525173 13539701 13825294 14351320 
574.683 15042706 15807934 16553136 17205116 17725108 18105588 18365408 
578.058 18536400 18656820 18761464 18878312 19026970 19212702 19424082 
581.433 19630366 19791768 19863420 19812054 19628146 19333138 18979202 
584.808 18636448 18380098 18262552 18301224 18472988 18725518 18988962 
588.182 19195074 19297768 19276396 19139494 18915100 18646168 18377678 
591.557 18150532 17999790 17948472 18004972 18161000 18392196 18656094 
594.932 18897864 19063632 19106946 19005578 18768384 18436202 18070666 
598.307 17738396 17500272 17391068 17415348 17544706 17729388 17907416 
601.682 18021272 18031842 17920572 17693666 17376448 17010318 16641296 
605.057 16311048 16052730 15884224 15809720 15821438 15904639 16037293 
608.431 16194578 16351473 16480340 16554993 16553340 16458005 16261546 
611.806 15968675 15596519 15171254 14726628 14298651 13919199 13615389 
615.181 13404287 13289619 13260684 13293856 13359660 13426877 13474621 
618.556 13495025 13494411 13486378 13484874 13495778 13513688 13523703 
621.931 13507741 13454421 13364308 13251733 13139940 13054637 13013221 
625.305 13020800 13071505 13152645 13251733 13360037 13474142 13590739 
628.680 13702239 13795193 13850538 13852454 13795023 13689039 13559733 
632.055 13441572 13368339 13360139 13418982 13528489 13662162 13790987 
635.430 13894737 13967476 14015177 14050426 14084788 14122917 14158620 
638.805 14178680 14167794 14116414 14027155 13918104 13818247 13763419 
642.180 13783838 13893026 14083213 14325363 14577514 14793952 14944477 
645.554 15019828 15037081 15028265 15031318 15074814 15167721 15299737 
648.929 15447313 15587486 15705889 15803156 15892198 15989371 16105304 
652.304 16239669 16381957 16515721 16625047 16700896 16742114 16756337 
655.679 16756820 16760366 16787642 16858628 16990128 17189258 17447978 
659.054 17739364 18020996 18248110 18384384 18417948 18365650 18271226 
662.428 18189472 18169568 18243616 18417432 18679684 19011256 19401560 
665.803 19849544 20361430 20939040 21550704 22114556 22524482 22732976 
669.178 22796352 22823800 22910624 23103476 23416130 23838942 24350578 
672.553 24917940 25504948 26079346 26610818 27076356 27459510 27751192 
675.928 27956206 28097718 28217886 28362984 28571118 28856644 29206888 
679.302 29588912 29970702 30340216 30715484 31137814 31649250 32271132 
682.677 32985408 33737316 34450536 35064692 35553556 35937716 36268036 
686.052 36602140 36973016 37376520 37774476 38117084 38369976 38530672 
689.427 38630512 38721100 38854388 39060104 39343656 39687396 40063164 
692.802 40441404 40799012 41121576 41400172 41633536 41828572 42004424 
696.177 42187652 42405588 42673340 42983260 43301084 43575216 43758996 
699.551 43827052 43794436 43713116 43662296 43717880 43934312 44330324 
702.926 44886792 45556524 46280364 47008520 47704532 48351368 48946876 
706.301 49499488 50022724 50532080 51042964 51565528 52102692 52650888 
709.676 53205168 53767164 54353772 54996604 55737800 56613868 57638632 
713.051 58794076 60032680 61293980 62520340 63682148 64782136 65847360 
716.425 66908940 67984320 69067504 70134072 71154712 72112696 73009328 
719.800 73857576 74660768 75396240 76005800 76413248 76545160 76355144 
723.175 75839616 75031328 73984928 72754992 71391280 69933376 68417128 
726.550 66884556 65380892 63947304 62611572 61373504 60204908 59054976 
729.925 57871204 56614020 55271152 53860776 52424832 51013784 49671528 
733.300 48429336 47296716 46265068 45311696 44408968 43528880 42649436 
736.674 41759808 40860928 39963652 39085156 38242444 37444524 36689708 
740.049 35965108 35252420 34534188 33800492 33050836 32293330 31538106 
743.424 30791522 30054708 29325200 28602260 27894052 27217972 26599370 
746.799 26064250 25628618 25291924 25035370 24828328 24635342 24427684 
750.174 24191888 23927966 23645486 23356022 23066820 22779312 22492412 
753.548 22206750 21928628 21671894 21452870 21283336 21165872 21090318 
756.923 21037242 20982886 20907572 20800568 20662040 20499586 20325178 
760.298 20149938 19981120 19819926 19661912 19498932 19319348 19111032 
763.673 18866858 18587200 18284670 17982868 17715170 17512966 17398140 
767.048 17373896 17422524 17508310 17588212 17628030 17607466 17525972 
770.423 17395104 17230592 17041332 16825148 16573340 16279193 15949048 
773.797 15608678 15297919 15062945 14939024 14936521 15034028 15185048 
777.172 15332001 15419263 15410475 15293491 15078485 14789633 14456747 
780.547 14108302 13764822 13442596 13154557 12910773 12718472 12578880 
783.922 12485333 12422558 12370736 12309512 12221374 12096728 11932644 
787.297 11733864 11510746 11279955 11062949 10884102 10769214 10737831 
790.671 10797339 10936800 11128315 11332939 11507751 11620419 11654283 
794.046 11611196 11507173 11367325 11217728 11078312 10964936 10889199 
797.421 10859233 10881384 10955863 11074574 11218647 11364535 11486113 
800.796 11564882 11594317 11581692 11543274 11496967 11457910 11432430 
804.171 11420932 11421646 11434130 11461686 11507922 11573252 11650573 
807.546 11726341 11785611 11818330 11826672 11825276 11838758 11889257 
810.920 11987650 12126404 12282244 12421843 12513501 12539795 12499894 
814.295 12410250 12294004 12175027 12068042 11978453 11904581 11843867 
817.670 11796914 11767567 11761439 11780879 11821972 11874887 11927092 
821.045 11968882 11999128 12025698 12063272 12125961 12222736 12351544 
824.420 12500200 12650239 12785213 12895823 12983928 13061671 13146805 
827.794 13255628 13396257 13565237 13749295 13928607 14082666 14197269 
831.169 14268108 14301083 14309507 14310877 14321561 14352212 14407901 
834.544 14488982 14592865 14717681 14863379 15030221 15217715 15421804 
837.919 15632721 15835425 16013641 16151762 16239738 16278092 16276579 
841.294 16254289 16234683 16242558 16297391 16409554 16578676 16791980 
844.669 17026308 17251900 17442218 17578620 17658122 17694978 17719068 
848.043 17766630 17867676 18037678 18269982 18537162 18797688 19011428 
851.418 19147388 19193308 19156842 19060448 18933202 18800074 18680030 
854.793 18582012 18507910 18453384 18410586 18368518 18314184 18235738 
858.168 18126696 17990604 17841920 17705920 17610190 17574204 17602394 
861.543 17680932 17782336 17872750 17928170 17940360 17920918 17893984 
864.917 17888220 17923542 18004178 18117126 18238018 18340174 18401806 
868.292 18412210 18373564 18297422 18199388 18096572 18003970 17930896 
871.667 17881486 17853246 17839020 17828974 17815408 17796006 17777504 
875.042 17773362 17799700 17868746 17981764 18125658 18273750 18395274 
878.417 18460956 18453764 18373738 18236532 18067728 17893814 17737120 
881.792 17609570 17512828 17441322 17385966 17338926 17296274 17259002 
885.166 17232178 17222284 17233282 17264002 17306340 17346892 17369068 
888.541 17360340 17315754 17242246 17155996 17080550 17037438 17039712 
891.916 17088510 17173126 17276722 17379688 17467018 17530354 17566578 
895.291 17575480 17558506 17517590 17457292 17387828 17326168 17291720 
898.666 17303824 17373410 17498062 17661952 17839538 18002382 18125694 
902.040 18195448 18209614 18177136 18112532 18034432 17960974 17906898 
905.415 17883594 17895262 17938770 18002106 18068076 18118094 18136956 
908.790 18118544 18066588 17992746 17909038 17824764 17741746 17655878 
912.165 17562748 17463086 17366412 17290720 17254760 17270690 17337134 
915.540 17437802 17544188 17623854 17652704 17619300 17528560 17397726 
918.914 17251244 17111152 16992814 16902688 16838444 16792188 16754443 
922.289 16717803 16679721 16642984 16613618 16598159 16599158 16611999 
925.664 16623842 16618541 16582532 16512347 16419187 16328560 16274171 
929.039 16283287 16369261 16523844 16722245 16929592 17116668 17269552 
932.414 17392414 17501342 17612676 17732564 17850794 17944780 17989880 
935.789 17974546 17907694 17819654 17749960 17738086 17807156 17959040 
939.163 18176514 18432538 18700300 18958988 19197566 19409564 19589462 
942.538 19731394 19829880 19886034 19910940 19927210 19963080 20042566 
945.913 20179790 20371882 20601512 20841936 21068266 21262142 21415276 
949.288 21528176 21605792 21654688 21681610 21695856 21710450 21741732 
952.663 21808376 21924654 22096462 22318844 22578020 22854672 23129718 
956.037 23391442 23634362 23858686 24067018 24259962 24435256 24587370 
959.412 24708814 24792966 24834328 24830504 24782792 24698398 24591894 
962.787 24482612 24395192 24351314 24363860 24432276 24540844 24662100 
966.162 24762410 24814398 24802366 24727090 24604168 24459300 24320790 
969.537 24210876 24144004 24122426 24137942 24173498 24208178 24221876 
972.912 24198020 24129992 24021736 23887496 23747314 23623164 23532840 
976.286 23484606 23478590 23507060 23558584 23620226 23681316 23732476 
979.661 23765862 23776186 23760928 23722852 23670994 23620504 23588284 
983.036 23587866 23625228 23696362 23789732 23890228 23987244 24077420 
986.411 24166002 24261784 24371920 24495584 24622858 24735824 24815944 
989.786 24851132 24839974 24793912 24733052 24682336 24662764 24687350 
993.160 24757254 24861800 24979950 25085214 25154480 25171580 25134786 
996.535 25058044 24969562 24901484 24881798 24925520 25029366 25175794 
999.910 25338706 25496514 25636982 25760864 25876800 25994382 26116608 
1003.285 26237706 26347324 26438624 26515256 26593698 26696502 26844054 
1006.660 27041868 27275970 27514364 27717746 27855896 27915852 27908114 
1010.035 27861054 27811948 27792166 27821734 27906630 28041270 28213890 
1013.409 28411162 28620732 28830724 29030260 29211956 29373732 29522338 
1016.784 29671564 29839970 30041356 30278894 30542616 30813006 31067018 
1020.159 31288024 31471058 31621062 31747126 31854224 31938594 31989772 
1023.534 31998012 31961560 31892232 31814612 31757712 31742706 31777642 
1026.909 31854864 31957210 32066998 32175564 32285764 32409024 32556064 
1030.284 32730024 32920924 33110764 33277326 33403512 33482422 33515670 
1033.660 33509120 33467032 33390094 33275354 33121276 32932792 32722164 
1037.035 32508322 32311532 32145448 32013632 31907212 31809728 31701502 
1040.410 31567968 31403486 31214284 31015486 30826312 30666410 30548800 
1043.785 30477852 30449524 30454962 30483858 30530388 30595834 30689098 
1047.161 30822790 31007478 31247288 31536006 31858574 32195046 32527816 
1050.536 32847192 33152174 33448604 33743836 34040920 34335732 34619260 
1053.911 34882692 35122100 35341440 35550428 35758512 35969928 36181848 
1057.286 36386272 36575860 36750536 36918612 37093892 37286068 37493540 
1060.661 37698976 37875188 37991800 38032304 38001096 37927432 37854692 
1064.037 37831768 37899052 38076756 38364512 38744028 39186824 39659368 
1067.412 40129736 40570384 40957696 41277172 41524220 41709724 41857212 
1070.787 42001360 42180492 42425132 42755784 43177292 43682008 44253528 
1074.162 44871912 45519028 46178312 46837272 47488396 48130804 48772380 
1077.538 49430720 50130376 50893288 51735476 52659488 53655276 54704048 
1080.913 55787192 56890456 58004632 59121332 60223864 61283180 62262820 
1084.288 63125832 63852564 64451388 64962492 65445840 65963624 66566108 
1087.663 67275528 68086672 68972256 69898232 70831640 71746112 72624400 
1091.039 73451560 74215296 74904848 75513952 76040896 76486984 76851464 
1094.414 77127680 77302232 77359712 77292208 77106304 76824616 76478168 
1097.789 76098416 75704384 75298544 74870784 74407240 73900352 73353752 
1101.164 72780184 72196376 71615384 71042704 70479000 69925976 69391048 
1104.540 68890632 68447304 68081672 67809872 67638544 67567040 67590928 
1107.915 67706000 67909888 68200208 68572656 69018680 69526432 70086488 
1111.290 70694288 71353512 72072016 72855024 73696216 74573744 75448624 
1114.665 76276816 77018032 77643984 78144440 78519920 78774952 78911104 
1118.041 78924176 78808840 78564184 78197432 77721808 77150832 76492552 
1121.416 75746432 74908032 73977776 72968560 71911792 70851960 69837168 
1124.791 68914088 68119032 67477048 67008212 66728548 66652784 66792920 
1128.166 67153104 67728456 68504456 69463672 70591528 71884256 73350024 
1131.542 75004544 76860960 78918888 81156944 83536976 86009400 88525192 
1134.917 91049712 93562536 96054008 98515968 100932752 103278752 105525344 
1138.292 107644696 109618704 111438096 113096328 114584968 115891848 
1141.185 117007608 117934216 118692736 119321576 119861736 120346472 
1144.078 120786504 121172136 121486152 121721176 121893904 122046728 
1146.971 122231392 122491648 122845616 123280872 123763848 124260104 
1149.864 124754016 125254784 125788856 126382160 127043112 127752648 
1152.757 128470792 129151184 129764136 130303800 130789232 131248776 
1155.651 131706360 132169512 132626992 133055168 133428160 133722992 
1158.544 133919400 133998560 133940744 133728984 133358928 132845640 
1161.437 132224856 131541536 130837608 130134808 129428368 128692256 
1164.330 127895592 127018120 126058120 125030456 123954888 122844024 
1167.223 121697016 120504000 119258128 117966000 116651784 115348792 
1170.116 114083520 112864888 111677992 110491288 109270032 107993928 
1173.009 106661640 105289760 103899672 102508568 101123080 99741880 98365712 
1176.384 97004456 95677432 94408568 93212592 92086568 91008368 89945184 
1179.759 88866904 87758336 86625880 85493192 84388392 83331920 82329952 
1183.135 81374800 80451896 79546712 78652064 77766504 76892360 76031144 
1186.510 75182664 74346680 73525656 72726200 71956288 71220136 70512824 
1189.885 69820240 69123016 68403864 67656904 66890812 66124992 65379008 
1193.260 64664260 63978284 63305968 62628872 61934944 61226292 60518684 
1196.636 59833556 59188124 58588884 58029816 57498208 56983080 56483016 
1200.011 56006632 55568612 55180320 54844512 54551940 54287124 54032304 
1203.386 53776880 53518568 53261460 53010308 52766556 52527956 52291388 
1206.761 52058800 51840748 51654036 51517848 51443500 51428468 51454652 
1210.137 51493484 51514860 51495500 51427124 51315764 51177552 51032268 
1213.512 50898168 50789548 50715812 50683232 50695108 50750444 50842552 
1216.887 50959120 51084180 51201224 51300028 51379344 51447416 51517656 
1220.262 51605304 51721888 51872820 52058464 52276252 52522680 52793084 
1223.638 53081064 53376432 53664688 53931600 54165492 54363612 54533684 
1227.013 54692548 54859664 55050164 55270284 55514468 55768920 56014924 
1230.388 56236892 56424300 56574988 56692956 56787956 56872212 56957504 
1233.763 57053092 57162004 57278544 57387284 57466516 57494388 57455204 
1237.139 57346560 57180068 56978772 56766168 56559628 56363068 56167280 
1240.514 55953976 55705252 55410480 55069196 54689240 54281496 53854888 
1243.889 53412512 52951388 52466072 51951496 51405532 50829628 50227744 
1247.264 49606708 48975136 48343260 47723948 47129564 46569740 46050528 
1250.640 45571980 45131008 44724824 44353148 44020804 43734592 43499468 
1254.015 43314008 43166752 43039636 42910980 42764632 42594684 42407448 
1257.390 42216756 42038772 41883560 41750904 41631384 41511388 41379140 
1260.765 41229224 41063192 40887212 40708608 40533208 40364604 40206060 
1264.141 40060292 39928780 39808088 39688160 39551672 39378480 39153280 
1267.516 38872072 38545880 38200220 37867776 37576228 37342612 37168820 
1270.891 37043408 36949204 36870492 36800232 36739972 36696560 36676044 
1274.266 36679252 36699844 36725984 36743436 36740912 36710620 36647960 
1277.641 36551640 36420064 36252400 36049376 35814168 35552836 35272796 
1281.017 34981044 34680916 34372776 34054108 33722780 33378680 33025772 
1284.392 32670256 32319852 31981428 31659410 31356186 31073246 30811158 
1287.767 30570806 30352368 30155562 29978194 29818038 29672416 29540106 
1291.142 29420602 29314316 29220780 29138214 29063170 28992074 28922584 
1294.518 28854874 28792520 28740444 28703626 28684512 28682352 28693220 
1297.893 28711450 28731274 28747452 28756018 28752656 28733432 28694600 
1301.268 28634076 28552540 28453966 28345122 28232276 28120448 28011548 
1304.643 27905428 27801632 27702420 27612794 27540452 27491278 27466216 
1308.019 27459120 27457814 27447402 27415636 27358432 27280098 27193102 
1311.394 27111904 27050332 27016270 27010592 27028364 27062144 27104040 
1314.769 27147740 27188198 27220442 27238962 27238362 27214020 27163718 
1318.144 27088348 26991340 26876482 26746466 26602610 26444610 26272764 
1321.520 26088140 25893716 25692488 25486924 25277452 25062924 24841940 
1324.895 24614722 24384468 24157104 23940116 23740734 23563902 23411200 
1328.270 23281622 23172320 23080412 23002986 22938882 22886908 22846570 
1331.645 22818214 22803616 22806690 22833926 22893580 22993134 23137930 
1335.021 23328716 23561558 23827882 24116996 24418676 24723266 25022558 
1338.396 25308220 25569818 25796798 25980312 26117838 26215708 26287864 
1341.771 26352394 26425912 26522018 26646682 26799080 26971066 27150278 
1345.146 27323004 27477510 27606758 27709940 27791814 27860028 27923308 
1348.522 27988434 28057352 28126954 28190518 28241152 28274002 28289172 
1351.897 28291648 28288644 28286202 28286626 28287370 28283974 28273118 
1355.272 28256994 28243768 28246278 28276160 28338862 28430760 28540402 
1358.647 28651524 28748514 28821696 28869038 28894676 28905406 28907462 
1362.023 28904062 28896128 28885894 28878740 28883026 28906754 28953750 
1365.398 29020804 29099096 29176978 29242860 29290604 29321832 29346326 
1368.773 29377950 29428226 29504536 29608384 29739756 29900948 30099378 
1372.148 30348174 30662216 31050896 31510140 32016806 32533708 33017692 
1375.524 33432606 33753360 33960548 34036692 33961908 33717192 33293172 
1378.899 32696728 31952750 31095598 30162808 29186156 28190060 27199664 
1382.274 26240908 25340358 24520826 23790956 23144572 22560498 22011264 
1385.649 21470276 20920610 20361324 19804946 19271200 18776168 18327492 
1389.025 17925614 17568890 17257382 16991918 16773142 16598264 16460380 
1392.400 16349994 16258381 16182128 16124973 16096432 16106300 16158089 
1395.775 16247891 16366817 16506050 16659752 16823944 16992090 17153100 
1399.150 17291308 17392000 17448288 17463156 17447080 17411038 17361478 
1402.526 17296790 17207150 17077482 16895728 16660474 16387289 16103584 
1405.901 15841404 15625644 15468875 15374051 15339621 15366293 15460257 
1409.276 15632138 15893023 16247822 16690394 17203462 17762490 18343978 
1412.651 18927768 19499278 20048154 20562740 21030876 21439956 21779878 
1416.026 22045984 22239600 22366562 22431700 22437072 22380972 22263072 
1419.402 22091476 21883672 21659982 21435814 21216980 21002744 20789932 
1422.777 20578442 20377334 20206830 20092156 20056656 20112144 20256818 
1426.152 20481386 20776134 21135328 21556204 22036884 22571876 23149046 
1429.527 23752458 24365438 24976404 25579236 26173018 26756440 27326674 
1432.903 27878506 28407482 28914330 29405356 29895126 30404284 30951862 
1436.278 31539996 32147304 32735776 33271492 33741436 34152240 34520952 
1439.653 34867288 35207248 35550392 35898088 36245128 36581920 36899060 
1443.028 37191628 37460488 37711332 37952528 38192732 38440564 38704328 
1446.404 38994892 39325152 39708852 40158884 40681388 41277828 41949972 
1449.779 42701236 43540420 44475552 45508136 46623776 47791852 48974948 
1453.154 50133832 51244920 52299052 53293336 54220752 55053624 55737988 
1456.529 56208876 56443128 56496640 56468112 56441168 56444828 56470900 
1459.905 56501848 56527848 56551512 56583404 56635948 56716064 56817788 
1463.280 56919200 56976320 56926340 56700356 56229464 55459160 54354976 
1466.655 52894760 51081460 48946728 46556020 43985384 41314052 38599364 
1470.030 35846556 33028774 30105344 27076146 24038756 21194782 18762190 
1473.406 16848226 15414080 14327828 13442665 12659280 11929409 11248331 
1476.781 10631436 10092868 9632437 9236085 8885039 8564250 8266289 7991584 
1480.638 7743495 7524035 7331105 7160659 7008161 6872412 6754105 6653560 
1484.496 6566931 6485903 6398971 6296256 6175585 6045808 5922855 5824014 
1488.353 5757326 5715627 5675945 5612503 5512289 5382308 5244216 5120148 
1492.211 5023835 4956936 4913001 4881703 4852618 4817739 4771741 4712785 
1496.068 4640943 4557594 4465390 4368453 4273579 4188662 4121422 4075230 
1499.925 4048607 4034694 4025063 4011887 3991221 3962831 3930097 3897498 
1503.783 3869315 3848455 3837725 3837792 3848255 3865304 3879679 3879880 
1507.640 3861158 3827864 3789825 3756870 3737118 3734745 3750252 3778561 
1511.498 3810649 3836655 3848656 3844778 3829234 3809546 3792700 3783240 
1515.355 3780500 3779664 3774149 3760078 3739925 3720709 3709012 3708010 
1519.213 3715362 3725387 3729431 3720575 3697450 3667041 3640009 3622969 
1523.070 3615618 3612177 3605862 3590327 3560761 3514762 3452403 3376595 
1526.927 3293655 3212334 3142275 3093217 3072961 3083906 3123952 3185263 
1530.785 3256398 3323003 3370884 3386646 3362203 3298730 3210097 3117178 
1534.642 3037257 2979370 2945909 2937303 2955117 3001457 3078501 3181759 
1538.500 3296960 3395963 3443151 3417002 3330248 3220813 3122184 3048002 
1542.357 2993483 2947210 2899375 2847677 2796384 2754068 2728260 2721658 
1546.214 2731794 2754201 2783512 2816160 2849444 2879796 2902778 2913619 
1550.072 2909015 2889535 2858249 2819495 2776009 2727993 2673747 2612242 
1553.929 2546212 2484025 2438240 2423180 2450669 2528782 2659812 2837871 
1557.787 3037458 3200351 3257266 3190070 3063017 2950146 2882764 2856482 
1561.644 2856949 2870824 2889836 2909716 2928196 2943407 2953382 2955417 
1565.502 2947744 2930731 2907381 2881730 2859217 2843841 2837471 2838305 
1569.359 2841373 2841473 2835537 2823864 2808656 2790815 2770240 2745031 
1573.216 2713956 2676548 2635076 2593975 2558977 2533648 2515918 2499354 
1577.074 2476961 2448037 2417982 2395226 2387163 2399190 2432443 2484158 
1580.931 2547512 2614242 2677415 2732194 2776443 2808723 2827532 2830501 
1584.789 2816160 2785680 2743797 2697852 2657012 2628176 2614975 2616175 
1588.646 2627042 2639843 2647111 2643810 2627009 2597142 2556978 2511419 
1592.504 2466064 2427511 2400756 2388729 2390894 2403988 2423613 2445138 
1596.361 2466530 2488524 2513185 2542580 2576143 2610209 2639477 2658378 
1600.218 2664913 2661346 2654478 2651578 2657845 2673814 2694651 2713089 
1604.076 2722858 2722225 2714389 2706087 2703153 2708821 2720691 2732861 
1607.933 2737062 2727959 2704920 2672947 2639910 2613809 2600542 2602108 
1611.791 2617342 2643444 2677615 2717590 2762470 2810858 2860784 2907815 
1615.648 2945776 2967160 2967394 2948511 2917888 2884365 2855781 2837404 
1619.505 2832902 2844842 2874392 2920790 2978436 3037958 3085341 3107366 
1623.363 3098122 3062450 3012534 2961021 2916821 2884332 2865187 2860451 
1627.220 2871991 2901110 2947010 3004159 3063685 3115109 3150785 3168141 
1631.078 3170978 3166773 3166038 3178288 3208762 3256999 3315190 3369315 
1634.935 3403510 3408519 3389919 3365775 3351818 3353955 3369549 3393291 
1638.793 3422412 3457346 3501802 3560293 3635999 3728094 3833413 3947182 
1642.650 4066133 4189397 4319056 4458494 4610636 4775694 4948457 5117969 
1646.507 5269201 5390661 5479236 5540612 5583201 5613241 5634455 5650164 
1650.365 5665001 5687292 5730533 5811186 5938844 6094159 6219547 6262135 
1654.222 6222976 6138382 6040903 5945226 5853936 5762665 5664867 5555144 
1658.080 5431994 5298548 5162830 5034294 4921010 4828159 4756063 4700660 
1661.937 4653904 4607655 4554983 4492608 4421271 4343888 4263005 4181402 
1665.795 4101954 4027905 3963533 3914148 3884828 3878375 3893921 3926787 
1669.652 3968482 4010449 4046634 4073725 4089679 4093592 4085498 4067571 
1673.509 4045597 4031016 4037370 4076534 4149153 4242327 4335320 4410459 
1677.367 4459097 4479317 4474697 4451163 4416517 4378929 4345293 4321131 
1681.224 4310522 4318587 4354564 4432384 4568108 4765108 4997155 5213866 
1685.082 5377611 5484638 5552392 5600050 5640195 5678966 5718447 5758971 
1688.939 5801851 5850275 5908479 5980195 6065564 6162007 6264791 6369953 
1692.797 6476116 6587115 6711703 6862078 7049278 7274731 7521035 7758168 
1696.654 7961683 8127244 8268451 8408623 8572699 8781059 9038367 9320507 
1700.511 9578711 9772948 9899097 9979274 10040238 10102533 10180203 10281466 
1704.369 10408815 10556266 10709506 10849721 10961266 11038478 11087285 
1707.744 11120802 11153811 11200048 11268495 11362392 11479037 11612387 
1711.119 11756060 11906285 12063545 12231666 12415432 12618754 12841965 
1714.495 13082091 13337109 13611320 13920465 14291803 14758952 15340033 
1717.870 16022097 16764740 17521728 18268498 19009386 19765896 20567326 
1721.245 21440652 22406718 23475374 24647194 25916928 27278228 28728372 
1724.620 30268980 31903110 33632444 35460248 37400104 39485952 41775604 
1727.995 44342140 47246952 50503344 54048476 57754696 61467508 65099312 
1731.371 68692064 72459856 76772496 82101320 88807392 96769216 105192480 
1734.746 112993336 119526256 124845088 129385400 133602904 137831728 
1737.639 142258624 146938192 151798016 156680064 161365376 165637600 
1740.532 169323808 172294208 174452800 175746880 176186368 175864096 
1743.425 174932112 173550944 171806224 169686112 167102816 163965024 
1746.318 160241504 155998992 151365936 146488560 141441808 136198288 
1749.211 130648392 124701432 118380864 111868408 105466328 99475400 94076128 
1752.587 89282752 84984680 81013696 77199824 73400752 69512472 65478780 
1755.962 61317596 57126968 53065268 49297640 45925292 42965152 40359260 
1759.337 38007456 35794632 33617084 31413280 29183320 26999556 24973176 
1762.712 23202098 21725430 20519662 19519206 18649280 17844234 17060424 
1766.088 16279124 15505890 14762722 14075820 13465120 12935419 12477490 
1769.463 12074242 11708266 11363583 11023319 10670351 10290117 9879844 
1772.838 9455769 9045506 8675311 8358798 8095848 7874860 7677727 7486582 
1776.695 7290231 7088243 6890153 6709247 6557580 6438853 6347022 6268086 
1780.553 6188188 6101686 6013857 5936694 5881878 5852693 5841778 5831570 
1784.410 5799466 5729526 5616698 5470613 5308912 5151832 5014618 4905059 
1788.268 4825914 4774656 4746215 4732079 4721125 4698348 4648210 4561512 
1792.125 4442660 4311593 4194918 4115468 4082990 4093960 4135170 4189331 
1795.983 4238780 4268627 4269095 4235602 4167685 4067035 3939325 3794805 
1799.840 3648863 3522612 3435871 3399937 3412627 3459149 3515530 3557019 
1803.697 3566273 3536007 3470471 3381737 3286444 3200217 3134465 3095820 
1807.555 3085775 3102060 3139338 3190237 3245481 3294456 3327811 3339764 
1811.412 3330115 3303838 3269050 3232062 3193842 3150318 3094285 3019473 
1815.270 2924960 2817994 2714089 2632709 2589742 2591509 2631643 2693351 
1819.127 2753701 2792516 2798585 2772007 2722324 2664879 2615075 2581709 
1822.984 2565677 2558311 2545113 2510085 2443938 2349317 2240894 2138891 
1826.842 2062147 2024063 2029389 2074565 2147682 2231668 2307343 2360910 
1830.699 2388895 2396991 2393693 2385064 2372337 2352815 2321234 2272036 
1834.557 2201795 2110290 2001227 1881244 1761494 1656876 1583642 1558136 
1838.414 1591291 1683685 1825740 1999430 2182613 2352015 2489524 2581176 
1842.272 2619709 2603508 2538180 2435941 2312973 2187842 2074732 1981655 
1846.129 1909465 1853791 1808006 1766018 1725032 1686878 1658506 1647630 
1849.986 1659936 1693231 1737374 1774602 1785614 1756603 1684550 1579386 
1853.844 1461181 1352847 1270392 1219087 1193336 1182140 1174000 1163036 
1857.701 1151408 1147422 1160245 1195263 1252182 1324895 1404833 1485052 
1861.559 1561794 1635822 1708999 1781655 1850397 1908233 1947006 1959554 
1865.416 1943445 1900246 1836321 1760562 1683652 1616832 1570008 1548526 
1869.274 1550488 1568245 1589528 1603729 1604726 1591956 1570507 1549624 
1873.131 1538783 1543738 1565020 1596479 1629869 1657175 1675602 1687876 
1876.988 1702279 1726596 1764221 1811699 1860013 1896685 1911129 1898283 
1880.846 1860812 1806142 1743562 1680791 1622619 1569509 1519731 1469991 
1884.703 1417532 1359727 1295250 1225167 1153235 1086165 1034615 1010038 
1888.561 1020500 1067797 1144232 1234970 1322103 1392534 1440802 1468462 
1892.418 1481827 1486182 1484021 1473283 1448049 1401775 1332041 1241482 
1896.276 1138086 1033187 939769 869478 832362 836080 882958 970486 1090317 
1900.615 1230384 1377709 1520429 1650889 1765386 1861943 1938220 1988046 
1904.473 2001494 1967742 1880146 1741233 1565918 1380302 1212076 1085468 
1908.330 1012828 992802 1015053 1065671 1135229 1220648 1323001 1443162 
1912.187 1575960 1709664 1827537 1914557 1963914 1978360 1969839 1951433 
1916.045 1932795 1915355 1893391 1859148 1811000 1755239 1705206 1672043 
1919.902 1658772 1658739 1660169 1649891 1622253 1582811 1547130 1532200 
1923.760 1547628 1589262 1642574 1689040 1715053 1719510 1713423 1715153 
1927.617 1739936 1794930 1873790 1959820 2032552 2076230 2084387 2060183 
1931.474 2011680 1946740 1870429 1785448 1696292 1612376 1549424 1526181 
1935.332 1557904 1650424 1795628 1972834 2152943 2306344 2413650 2469529 
1939.189 2484392 2476327 2468663 2480426 2518384 2574243 2623742 2633976 
1943.047 2573310 2426412 2199630 1923442 1641743 1404534 1251052 1199749 
1946.904 1241748 1345900 1469094 1567048 1609150 1586602 1509257 1399049 
1950.762 1281193 1177056 1098356 1050458 1033420 1043948 1079090 1134565 
1954.619 1206660 1291495 1386717 1491569 1606556 1731786 1862975 1990043 
1958.476 2097771 2168760 2192337 2171491 2128436 2101866 2134496 2265774 
1962.334 2514751 2872425 3300333 3736583 4104831 4330166 4360689 4177019 
1966.191 3805668 3313053 2804321 2391061 2154408 2122443 2260811 2488790 
1970.049 2707387 2842073 2858216 2778043 2663913 2592709 2616975 2742764 
1973.906 2926161 3095486 3186999 3168375 3057912 2915253 2812025 2792783 
1977.764 2862385 2981839 3096320 3155324 3140439 3063418 2958086 2857416 
1981.621 2780944 2731260 2697952 2667280 2631609 2591742 2554378 2523716 
1985.478 2497222 2463765 2409652 2327463 2220412 2103131 1995602 1917585 
1989.336 1877816 1875054 1896652 1926172 1945808 1942613 1908732 1840946 
1993.193 1740601 1610413 1457624 1293987 1132638 989182 877679 809190 791597 
1997.533 830901 928977 1082810 1284150 1515109 1752511 1972335 2154508 
2001.390 2292487 2397291 2496622 2621475 2797518 3029950 3300199 3569213 
2005.248 3789658 3922340 3947951 3870218 3707074 3481327 3208495 2899342 
2009.105 2570543 2252018 1992174 1848833 1866569 2060050 2397724 2807423 
2012.963 3185263 3431429 3480659 3318696 2986944 2567343 2159503 1845272 
2016.820 1676267 1662530 1772805 1952331 2143486 2304179 2413550 2476127 
2020.677 2514185 2561577 2646477 2783612 2963223 3154590 3307911 3372421 
2024.535 3315824 3135667 2868022 2577643 2345985 2242792 2313239 2567110 
2028.392 2978970 3494453 4041517 4553877 4973224 5257932 5383884 5343596 
2032.250 5146635 4820956 4414208 3979450 3570048 3230960 2988879 2854347 
2036.107 2820862 2868122 2961322 3059013 3120281 3106298 2990780 2766205 
2039.964 2447603 2069438 1679660 1327720 1048366 857526 752031 713298 714526 
2044.304 728632 733776 715489 671350 609066 549477 522772 562317 697965 
2048.644 942094 1284516 1692200 2120278 2518484 2846409 3083539 3226153 
2052.501 3288781 3293989 3266613 3225386 3183428 3148015 3122484 3107533 
2056.358 3100258 3092683 3070926 3017338 2917121 2762737 2560411 2329296 
2060.216 2097404 1891061 1729224 1619093 1557371 1537221 1551519 1598740 
2064.073 1679660 1793998 1936090 2091345 2239662 2360277 2437407 2466364 
2067.931 2451269 2403621 2335825 2259279 2183313 2115750 2064544 2038111 
2071.788 2040208 2067474 2107992 2141555 2146217 2109857 2033517 1936422 
2075.646 1846836 1794298 1795296 1846004 1922477 1988745 2011081 1967243 
2079.503 1857118 1700051 1529539 1378208 1273948 1231879 1253345 1330412 
2083.360 1448448 1590559 1736742 1866536 1959454 1996068 1965944 1869630 
2087.218 1722870 1551585 1389609 1269728 1214800 1234704 1324795 1468628 
2091.075 1643738 1827171 2000162 2146916 2256348 2319469 2330228 2287158 
2094.933 2195401 2067973 1923675 1785514 1674338 1603496 1575328 1580849 
2098.790 1603562 1622486 1622586 1595082 1541410 1469792 1391105 1314027 
2102.647 1241449 1170711 1096861 1018009 938242 868217 824660 822336 869179 
2106.987 961885 1084704 1215166 1327122 1400113 1424778 1404334 1353811 
2110.844 1294253 1250222 1242014 1282987 1377775 1520429 1693498 1870362 
2114.702 2020934 2112520 2121144 2037279 1870762 1649825 1414972 1211179 
2118.559 1070620 1006584 1009042 1048598 1086032 1086896 1034383 934091 
2122.417 812477 705167 646893 655654 726972 835017 944783 1020899 1042454 
2126.756 1008411 936847 855866 792560 764246 772311 805506 844612 873661 
2131.096 884917 880169 869312 864498 874425 901285 942824 995957 1058662 
2135.436 1133602 1224170 1331542 1451041 1572502 1682820 1772672 1842111 
2139.293 1902942 1976829 2086251 2247322 2459766 2704287 2943307 3131028 
2143.150 3223383 3188935 3018773 2728693 2358212 1957224 1582611 1283220 
2147.008 1088191 1003728 1011599 1078127 1163069 1237694 1290199 1326557 
2150.865 1365677 1428502 1528808 1669416 1844141 2044236 2268072 2520450 
2154.723 2807623 3128057 3459717 3758340 3966910 4032889 3934677 3702295 
2158.580 3414864 3166873 3037525 3048202 3159129 3287345 3348880 3286811 
2162.438 3092116 2800486 2473362 2171724 1929034 1747621 1602598 1462810 
2166.295 1305287 1129316 954214 811846 728300 716916 771614 872300 993500 
2170.635 1114799 1227859 1339020 1463508 1617564 1810634 2037445 2274501 
2174.492 2481959 2614908 2633776 2516551 2269971 1929167 1555310 1214667 
2178.349 967563 847865 858257 973275 1152637 1359926 1572070 1788109 2022631 
2182.689 2291554 2596008 2915487 3206359 3418237 3506244 3449430 3257967 
2186.546 2969962 2638443 2313306 2034250 1819518 1669316 1571604 1511817 
2190.404 1478137 1466534 1480364 1524818 1602731 1708267 1825740 1930398 
2194.261 1995569 1997899 1927869 1793965 1623417 1454598 1328484 1274148 
2198.119 1297244 1378407 1479633 1556474 1572868 1517636 1407559 1286410 
2201.976 1206660 1215232 1335464 1558036 1840481 2117981 2325531 2409452 
2205.833 2347118 2149180 1855088 1516904 1185761 899692 671184 493712 346886 
2210.173 212043 80655 -41117 -135265 -180642 -164611 -88889 30418 170740 
2214.513 311273 442067 565601 694514 841358 1011466 1197589 1381897 1543838 
2218.852 1665391 1739703 1770709 1770543 1751979 1724101 1691335 1653517 
2222.710 1611444 1568079 1528110 1495193 1468362 1440702 1402041 1344970 
2226.567 1270093 1187921 1116194 1072181 1064375 1087926 1125463 1154033 
2230.425 1156059 1125363 1070487 1009939 964907 948868 964077 1001603 
2234.282 1046473 1083574 1102076 1096595 1067597 1018574 955011 887905 
2238.139 832362 807630 833291 920875 1067730 1253844 1447783 1612209 1717415 
2242.479 1752012 1723635 1655113 1573233 1500546 1446453 1409853 1384290 
2246.336 1366275 1359926 1376612 1427903 1519099 1643505 1783751 1915954 
2250.194 2020601 2089447 2126671 2144918 2157006 2167795 2171924 2154342 
2254.051 2098403 1996234 1851728 1683419 1517137 1380202 1292658 1262284 
2257.909 1284516 1344039 1420324 1489840 1531867 1531302 1480264 1381930 
2261.766 1251052 1113138 996920 930903 932364 1002599 1124300 1266804 
2265.624 1393564 1471454 1482625 1426607 1320109 1189815 1066269 974072 
2269.481 926786 927085 967431 1036276 1119782 1207424 1290564 1363018 
2273.338 1418629 1451340 1455163 1426873 1367737 1286410 1196925 1118055 
2277.196 1066501 1052617 1076399 1128087 1191443 1248494 1288172 1308178 
2281.053 1315456 1322103 1339186 1370363 1410584 1446653 1464339 1455097 
2284.911 1420823 1373920 1335098 1325792 1358863 1435350 1542441 1658472 
2288.768 1757601 1819052 1831929 1796128 1721440 1622619 1516871 1417698 
2292.625 1334567 1271622 1228357 1200214 1180645 1162970 1141840 1115198 
2296.483 1085401 1059293 1045377 1051754 1082511 1135728 1202507 1269529 
2300.340 1323931 1355705 1362452 1348459 1324297 1302063 1290398 1293622 
2304.198 1309673 1332539 1354043 1369034 1374983 1373388 1367538 1361023 
2308.055 1355938 1351949 1347761 1341513 1332539 1322103 1312266 1306151 
2311.913 1306184 1314193 1331376 1358796 1397454 1447218 1506663 1571238 
2315.770 1633661 1685381 1718013 1726463 1710728 1677132 1636654 1601933 
2319.627 1584041 1589628 1620025 1670646 1733881 1801318 1863807 1914889 
2323.485 1949170 1964181 1959854 1939351 1908799 1875653 1848400 1834125 
2327.342 1836288 1855687 1890362 1937554 1995768 2065476 2147815 2241427 
2331.200 2340955 2435641 2510685 2552678 2552445 2508652 2427078 2319735 
2335.057 2199864 2079459 1968507 1874156 1803314 1763756 1761627 1800353 
2338.915 1875687 1974099 2073833 2149846 2182081 2161201 2092044 1990176 
2342.772 1877717 1773637 1688142 1622685 1572269 1529905 1491436 1456660 
2346.629 1427438 1404534 1386351 1369698 1351185 1329348 1306782 1289301 
2350.487 1286377 1306915 1356137 1430862 1520063 1607587 1677631 1721773 
2354.344 1741632 1748353 1757934 1785681 1841479 1927636 2038511 2162700 
2358.202 2286958 2396458 2478760 2527282 2541746 2529315 2502487 2475328 
2362.059 2456800 2448970 2445238 2434408 2406753 2359444 2297683 2234200 
2365.917 2182380 2149347 2134263 2128503 2120212 2100001 2066209 2022498 
2369.774 1975930 1931330 1888166 1841146 1785148 1718479 1647230 1583542 
2373.631 1541776 1530936 1550688 1589994 1631765 1658838 1660834 1638217 
2377.489 1601002 1564188 1539748 1533131 1540878 1553015 1557405 1546398 
2381.346 1518467 1479101 1437112 1400811 1374385 1356636 1341779 1322934 
2385.204 1296579 1263348 1228955 1201277 1187555 1190944 1208620 1233242 
2389.061 1255406 1266936 1263514 1245869 1219319 1191476 1168850 1155926 
2392.918 1154033 1161774 1176359 1196194 1220084 1248161 1280495 1315656 
2396.776 1349556 1376579 1390141 1385254 1361223 1322303 1277172 1237329 
2400.633 1213870 1213405 1237395 1280595 1333935 1385952 1427072 1451108 
2404.491 1455297 1439971 1406661 1356170 1289169 1205829 1108554 1002931 
2408.348 898065 806103 738622 704736 707723 744895 808128 886212 968792 
2412.688 1047635 1118453 1180246 1233607 1278933 1315224 1340017 1350620 
2416.545 1345568 1325792 1295283 1260855 1230351 1210182 1205165 1216296 
2420.403 1241781 1276640 1314825 1349556 1373953 1382894 1372557 1341812 
2424.260 1293190 1232743 1169349 1113138 1074473 1059559 1070553 1103837 
2428.117 1151574 1203238 1248494 1279963 1294519 1293422 1281891 1266936 
2431.975 1255771 1253511 1263049 1283685 1311767 1340649 1363815 1374651 
2435.832 1369000 1347030 1313030 1275344 1243609 1226829 1229653 1251750 
2439.690 1287407 1327986 1365178 1393963 1414340 1431228 1451972 1482126 
2443.547 1523355 1571238 1615934 1645202 1648561 1620124 1561029 1478569 
2447.405 1384623 1293057 1215930 1163368 1140578 1148817 1185196 1242479 
2451.262 1309906 1373255 1418529 1433289 1410750 1351949 1266903 1173103 
2455.119 1089753 1035545 1021995 1050890 1114268 1197822 1284184 1357600 
2458.977 1407925 1431593 1431028 1412412 1383459 1351484 1321272 1295948 
2462.834 1276308 1262450 1253146 1246733 1241383 1234870 1225500 1212275 
2466.692 1195164 1174731 1152770 1130878 1110348 1092211 1077064 1065272 
2470.549 1057068 1052019 1049694 1048266 1046008 1040461 1030364 1016315 
2474.406 1000673 988385 984500 992835 1014688 1046705 1082013 1111643 
2478.264 1127190 1123237 1100083 1063545 1023854 991773 976164 980714 
2482.121 1002599 1033851 1064508 1085899 1093905 1090716 1083109 1080718 
2485.979 1091181 1118354 1160212 1210448 1260390 1302196 1331974 1349290 
2489.836 1356902 1358564 1357500 1354708 1349889 1342477 1332439 1321006 
2493.694 1310105 1300833 1293123 1285048 1274779 1262151 1250288 1245437 
2497.551 1255572 1286809 1340017 1409121 1483057 1547329 1589994 1605957 
2501.408 1597676 1574663 1548626 1529872 1522490 1523122 1523056 1511717 
2505.266 1480996 1428369 1357267 1277205 1200214 1138186 1100814 1094636 
2509.123 1121211 1178385 1259991 1355738 1452338 1536755 1596179 1622386 
2512.981 1613440 1573865 1513712 1445556 1382396 1333636 1304057 1293256 
2516.838 1296646 1307613 1318979 1325194 1323399 1313196 1296712 1278235 
2520.696 1262583 1253511 1253711 1263713 1282123 1306649 1335264 1366308 
2524.553 1399149 1433621 1468329 1500778 1527544 1544170 1547728 1537719 
2528.410 1516705 1489075 1459984 1432990 1409088 1386185 1361056 1331044 
2532.268 1295782 1258596 1224636 1200480 1190911 1197224 1217724 1248029 
2536.125 1283220 1319577 1355639 1392268 1431261 1473216 1516938 1557937 
2539.983 1589927 1605126 1597443 1563989 1506697 1432158 1351118 1276009 
2543.840 1217425 1182671 1173036 1184432 1208222 1233873 1252913 1259925 
2547.698 1254575 1240087 1222709 1208953 1203869 1211611 1234571 1274081 
2551.555 1330179 1401576 1483456 1567747 1644104 1699984 1726297 1719111 
2555.412 1682155 1625346 1563457 1510653 1476175 1461946 1463375 1472285 
2559.270 1480264 1483456 1483456 1486615 1500246 1529174 1572602 1624781 
2563.127 1676134 1716882 1741533 1749716 1745492 1735778 1726463 1720076 
2566.985 1715751 1709098 1695693 1672908 1640612 1600968 1557205 1511917 
2570.842 1466101 1420058 1374751 1332938 1299969 1282356 1285314 1310903 
2574.699 1355905 1412512 1469792 1518667 1552749 1570972 1576659 1575029 
2578.557 1570673 1565751 1560098 1551851 1540047 1526181 1513613 1507395 
2582.414 1511219 1526181 1549723 1576792 1602033 1621056 1632231 1635723 
2586.272 1633162 1625945 1614437 1598807 1579718 1559433 1542109 1532831 
2590.129 1535225 1550787 1576858 1608085 1638250 1663262 1682155 1697190 
2593.987 1712791 1732983 1759098 1788475 1815791 1834491 1839482 1828469 
2597.844 1803214 1768547 1731153 1698254 1676134 1669316 1680226 1708400 
2601.701 1751081 1802383 1854556 1900313 1932928 1949602 1951499 1942979 
2605.559 1929267 1915555 1904539 1895787 1887367 1877351 1865670 1854257 
2609.416 1846670 1845405 1851162 1860779 1869131 1869896 1859547 1838185 
2613.274 1810568 1784150 1766883 1764288 1777796 1803813 1835955 1867234 
2617.131 1891627 1905837 1910097 1907534 1902143 1898815 1901844 1914091 
2620.989 1937388 1971903 2015441 2064411 2113253 2155940 2187076 2202994 
2624.846 2203493 2191705 2173389 2155041 2142687 2138825 2143187 2151145 
2628.703 2156872 2154075 2138525 2109757 2070969 2028357 1988978 1959521 
2632.561 1943678 1942180 1952465 1969905 1989078 2005155 2015341 2018570 
2636.418 2016739 2012745 2010814 2014875 2026893 2046900 2071868 2096306 
2640.276 2113719 2118580 2108591 2085385 2054690 2025195 2005255 2000761 
2644.133 2013444 2040641 2077195 2116816 2155574 2191738 2225973 2259978 
2647.990 2294252 2327397 2355946 2375935 2384964 2382932 2373070 2360544 
2651.848 2350383 2346552 2350350 2360877 2375969 2393493 2411818 2430177 
2655.705 2447970 2464164 2477494 2487191 2493056 2496822 2501454 2510552 
2659.563 2526282 2548779 2575543 2602575 2625709 2642643 2653311 2660045 
2663.420 2665779 2672481 2679915 2685816 2686783 2679915 2664979 2644010 
2667.278 2621509 2602142 2590075 2586776 2591942 2603275 2617609 2632709 
2671.135 2645910 2655878 2661179 2661246 2655912 2646711 2636176 2627676 
2674.992 2624376 2628642 2640677 2658679 2679815 2701186 2720391 2736195 
2678.850 2748299 2755735 2757869 2752801 2739396 2717990 2690817 2662446 
2682.707 2637810 2621142 2613875 2614108 2616942 2617409 2611342 2597775 
2686.565 2579209 2560611 2547212 2542713 2547812 2560144 2575509 2588809 
2690.422 2596375 2596275 2588342 2574276 2555911 2535647 2515517 2496922 
2694.280 2481059 2468363 2459133 2452735 2448170 2444305 2440006 2434408 
2698.137 2427011 2417682 2406287 2392760 2377634 2361576 2346485 2334692 
2701.994 2328896 2330995 2341588 2359311 2381466 2404188 2424146 2439640 
2705.852 2450436 2458000 2464831 2472662 2481959 2492023 2500454 2505186 
2709.709 2504587 2499021 2490457 2482226 2478560 2482326 2495589 2517950 
2713.567 2547146 2579142 2609508 2633910 2649211 2654611 2651078 2641277 
2717.424 2628976 2617942 2611342 2610342 2614742 2622875 2632243 2639977 
2721.281 2644010 2643377 2638510 2631209 2624442 2621576 2625709 2638976 
2725.139 2662012 2693484 2730460 2768806 2804455 2833636 2854280 2865487 
2728.996 2867955 2862952 2852179 2837238 2819562 2800953 2783245 2768373 
2732.854 2758136 2753434 2753701 2757102 2760636 2761470 2757736 2749533 
2736.711 2738763 2728460 2721258 2718390 2719124 2720424 2718490 2710188 
2740.569 2694385 2672481 2647744 2624242 2604875 2590775 2580643 2571776 
2744.426 2562244 2551412 2541246 2535581 2538747 2553445 2579509 2612708 
2748.283 2646977 2674814 2690650 2692151 2680582 2660912 2639110 2621175 
2752.141 2611442 2611475 2620475 2636543 2656678 2678548 2700686 2722358 
2755.998 2744298 2767639 2793983 2824664 2860384 2899976 2940472 2977636 
2759.856 3005794 3020808 3020441 3006094 2982006 2954516 2929864 2911951 
2763.713 2901977 2897874 2896640 2895840 2895072 2896673 2904812 2923059 
2767.571 2952615 2991214 3033220 3071660 3100125 3115509 3118479 3112739 
2771.428 3103562 3096420 3094552 3099357 3110637 3127557 3149450 3176418 
2775.285 3208495 3245214 3285175 3326275 3365575 3400705 3430193 3453505 
2779.143 3471039 3483264 3490879 3494520 3495756 3497059 3502336 3515731 
2783.000 3540817 3579035 3628448 3685019 3742565 3794805 3836856 3866574 
2786.858 3884293 3892082 3893620 3893420 3895827 3905623 3928023 3966543 
2790.715 4023491 4097974 4185149 4276925 4364136 4438041 4493579 4530440 
2794.573 4553275 4570218 4589941 4619342 4662478 4719149 4785945 4857945 
2798.430 4930360 4998965 5061614 5117432 5166854 5211049 5251862 5291236 
2802.287 5331050 5372445 5416393 5462828 5511551 5562561 5616228 5673897 
2806.145 5737080 5807693 5887117 5976500 6076014 6185903 6306644 6438416 
2810.002 6580858 6732130 6888739 7045068 7195019 7332924 7455502 7562740 
2813.860 7658369 7748420 7839975 7939748 8052573 8181330 8326743 8488220 
2817.717 8663750 8850613 9045471 9243803 9441852 9636638 9826935 10014366 
2821.574 10202489 10396462 10601183 10821220 11059516 11318349 11599319 
2824.950 11904445 12235141 12592353 12975052 13379855 13801761 14235409 
2828.325 14676620 15123803 15578763 16045235 16527388 17028168 17548188 
2831.700 18086624 18642640 19216996 19813892 20440540 21106944 21822068 
2835.075 22593830 23427776 24327624 25297016 26340846 27466462 28684370 
2838.451 30005850 31443272 33008718 34712964 36566600 38580208 40763452 
2841.826 43125180 45671532 48404556 51319604 54406012 57646544 61015412 
2845.201 64483448 68014200 71564904 75091344 78543464 81868896 85017440 
2848.576 87937088 90578456 92896208 94845376 96385192 97479048 98096960 
2851.952 98219704 97843200 96980968 95663400 93938304 91864624 89503056 
2855.327 86917368 84165192 81296968 78359832 75393360 72432880 69508896 
2858.702 66645988 63863696 61178188 58601928 56147328 53825820 51647432 
2862.077 49620448 47748768 46031556 44465124 43043332 41761012 40614952 
2865.453 39605100 38732688 37998492 37399960 36928964 36571612 36308236 
2868.828 36113716 35961364 35823816 35673860 35489264 35251772 34949800 
2872.203 34580076 34146648 33661192 33139408 32600246 32062146 31540922 
2875.578 31050612 30601380 30202020 29859882 29580504 29368556 29225884 
2878.954 29151926 29143102 29193386 29295778 29443152 29629668 29852144 
2882.329 30109534 30403432 30737284 31115212 31541314 32017804 32544530 
2885.704 33118486 33732952 34379448 35049432 35735196 36432464 37140848 
2889.079 37863152 38604072 39368320 40158996 40976192 41817740 42679264 
2892.455 43556900 44446772 45346784 46255264 47171004 48092416 49017828 
2895.830 49945996 50877156 51813608 52759488 53720104 54700704 55705180 
2899.205 56735732 57792620 58875496 59983680 61117804 62278996 63468688 
2902.580 64688252 65938136 67218504 68529472 69872696 71251880 72672736 
2905.956 74141864 75666560 77252624 78903440 80620016 82401520 84245928 
2909.331 86151032 88115800 90139480 92222496 94365288 96566256 98821536 
2912.706 101123832 103459976 105812640 108160472 110476632 112733344 
2915.599 114901240 116949360 118848832 120570608 122086968 123374144 
2918.492 124411080 125181616 125674232 125881952 125801744 125433816 
2921.385 124782728 123856776 122669080 121238408 119586160 117736864 
2924.278 115716096 113547536 111255304 108862408 106390672 103861544 
2927.171 101293912 98704024 96105512 93508656 90922984 88357928 85823480 
2930.547 83330472 80888576 78504592 76182504 73921992 71720352 69573880 
2933.922 67480568 65440372 63455916 61531644 59673180 57885020 56170372 
2937.297 54529892 52961792 51462004 50024620 48644312 47317440 46043568 
2940.672 44825840 43670832 42585952 41577016 40646460 39791780 39007252 
2944.048 38285252 37619404 37007724 36452424 35959920 35537480 35191800 
2947.423 34925636 34736976 34620012 34566588 34566804 34610792 34689024 
2950.798 34790244 34901792 35009200 35095732 35145200 35144304 35083588 
2954.173 34959608 34774736 34536196 34253224 33935648 33591628 33225384 
2957.549 32837686 32425520 31983278 31504616 30983636 30417468 29806006 
2960.924 29152492 28463022 27745436 27007982 26259248 25507196 24759008 
2964.299 24020896 23297354 22590478 21900330 21225052 20561246 19905910 
2967.674 19257726 18617670 17988290 17373136 16776310 16201010 15649347 
2971.050 15122877 14623295 14152253 13711164 13300722 12919580 12564248 
2974.425 12230439 11913198 11609324 11318179 11041605 10782767 10544452 
2977.800 10326830 10127020 9939336 9756749 9572715 9383816 9188839 8989789 
2981.657 8790424 8594767 8406428 8229244 8066311 7921188 7797096 7695972 
2985.515 7617734 7559436 7516281 7482368 7452772 7425571 7402618 7389035 
2989.372 7390990 7414279 7462513 7535633 7630851 7744271 7871959 8011328 
2993.230 8161275 8321947 8493998 8677846 8874149 9083940 9308117 9548632 
2997.087 9807210 10084322 10378239 10684783 10997831 11309846 11614667 
3000.462 11907919 12187840 12454609 12709738 12953715 13185706 13402613 
3003.838 13599868 13772722 13916325 14027634 14104845 14147392 14155334 
3007.213 14128942 14068360 13973225 13843423 13678918 13480397 13248864 
3010.588 12986148 12693975 12374384 12030195 11663949 11279411 10881350 
3013.963 10475169 10066891 9661911 9264890 8878478 8504304 8142402 7792778 
3017.821 7455907 7133375 6827812 6541366 6275683 6030252 5802422 5587464 
3021.678 5381167 5179964 4982709 4791205 4609363 4441589 4291247 4159489 
3025.536 4045296 3944775 3853303 3767030 3682980 3600149 3519171 3441949 
3029.393 3370183 3305608 3248786 3198882 3154323 3111805 3068323 3020875 
3033.250 2968328 2911217 2852413 2796017 2745698 2704020 2670914 2643544 
3037.108 2617575 2589142 2555945 2518684 2480360 2445837 2419181 2402022 
3040.965 2393826 2390761 2388629 2382998 2371038 2351749 2325565 2293953 
3044.823 2258746 2222410 2187409 2157006 2134329 2121577 2119280 2125706 
3048.680 2137060 2149380 2159603 2167362 2174888 2186110 2204426 2230336 
3052.538 2261177 2290289 2310175 2314472 2301014 2271703 2232801 2192371 
3056.395 2157405 2131932 2116449 2108225 2103597 2098869 2091878 2081756 
3060.252 2068140 2051327 2031287 2008584 1984817 1963149 1947605 1942313 
3064.110 1949902 1970804 2002026 2038544 2075031 2106827 2131299 2148315 
3067.967 2158970 2164331 2164132 2156906 2139624 2110090 2066841 2011081 
3071.825 1946607 1878915 1813629 1755904 1708899 1673473 1648827 1632995 
3075.682 1624049 1620124 1620490 1624515 1631765 1641610 1652386 1661832 
3079.540 1667586 1667220 1659836 1646000 1628805 1612409 1602099 1603030 
3083.397 1617863 1646765 1686645 1731719 1774535 1807706 1825640 1825241 
3087.254 1806974 1773803 1731420 1685581 1642208 1606123 1580483 1566682 
3091.112 1564089 1570473 1581447 1591657 1595847 1589296 1570008 1539016 
3094.969 1500778 1461746 1428535 1406163 1395792 1394761 1397354 1397587 
3098.827 1390473 1374485 1351285 1325693 1303093 1287440 1280927 1283054 
3102.684 1291894 1305087 1320574 1337259 1354276 1370130 1383127 1391204 
3106.542 1393598 1391238 1387448 1386950 1394396 1412379 1439572 1471321 
3110.399 1501144 1522823 1532532 1530504 1520296 1506597 1493331 1481428 
3114.256 1468562 1450144 1421255 1379670 1326557 1267634 1210481 1163136 
3118.114 1131974 1119782 1125230 1144565 1172073 1201676 1228490 1249225 
3121.971 1262417 1268033 1267568 1263215 1256834 1250022 1243941 1238658 
3125.829 1233940 1229587 1226098 1224536 1226762 1234704 1250089 1273018 
3129.686 1302296 1334467 1365344 1389875 1403670 1405033 1394661 1376147 
3133.543 1355938 1340981 1336328 1344537 1363649 1388246 1410551 1422485 
3137.401 1418861 1398251 1363649 1321139 1278966 1244506 1223373 1218256 
3141.258 1229387 1254043 1287673 1324031 1355506 1374319 1374319 1352481 
3145.116 1310272 1254442 1195928 1145960 1114201 1105465 1118354 1146591 
3148.973 1181209 1214601 1242180 1262450 1277836 1290564 1301797 1310371 
3152.831 1313296 1307979 1293123 1270093 1242380 1214335 1189416 1169614 
3156.688 1154930 1144498 1137954 1135229 1136791 1142339 1150345 1157156 
3160.545 1158451 1150677 1132605 1106627 1077894 1052484 1036143 1031825 
3164.403 1040129 1058994 1085767 1117390 1151807 1186891 1219618 1246633 
3168.260 1263913 1268299 1258695 1236930 1207590 1176392 1147521 1123071 
3172.118 1102010 1081382 1058031 1030431 1000507 971980 949764 937876 937478 
3176.457 947075 962848 980780 997717 1012795 1027010 1042221 1059792 1080120 
3180.797 1101977 1123204 1141973 1156558 1166325 1171408 1172339 1169415 
3184.654 1163136 1153634 1141209 1126659 1110979 1095034 1079422 1064209 
3188.512 1049030 1033519 1018009 1003297 990710 982042 978124 978688 982042 
3192.851 985363 985230 979153 966268 948170 928081 911213 902381 905071 
3197.191 920709 947938 983238 1021463 1057533 1087228 1107358 1116560 
3201.048 1114334 1101811 1080352 1052750 1023057 995260 974205 964043 966999 
3205.388 982872 1009275 1041490 1073078 1099020 1114400 1116726 1105398 
3209.245 1081913 1048565 1008644 965604 923100 884352 852745 830503 818884 
3213.585 817954 825257 837375 849558 857427 857460 848297 831167 809290 
3217.925 788045 772544 767432 775299 795580 825257 859684 893051 920045 
3222.264 937876 945016 942226 930937 913305 890760 864598 835582 804576 
3226.604 772909 742638 716152 695908 683994 681505 688308 703408 724284 
3230.943 748048 771216 790269 802950 807763 805207 797174 786120 775266 
3235.283 766801 761391 758304 755483 751135 743733 733544 722491 713531 
3239.623 709946 714427 728067 750006 777855 808029 836644 860514 877446 
3243.962 886942 889299 886378 879704 870574 859850 847533 832992 815996 
3248.302 796477 774867 752064 729262 707225 686715 668695 653795 644205 
3252.641 641385 646827 660797 681306 704503 724914 737427 738124 726574 
3256.981 704902 678087 652136 631861 620513 618788 624860 635511 646827 
3261.321 655056 657014 650245 633388 606743 571872 532757 494873 463427 
3265.660 443924 439546 450193 473909 506716 543572 579901 611820 636872 
3270.000 653165 659868 656682 644072 623101 595661 564241 531132 499385 
3274.339 471388 449861 437656 437689 451719 479813 518724 562549 602529 
3278.679 630368 639095 625922 592973 546558 495470 448170 411156 387277 
3283.019 376035 374310 378555 384989 390991 394573 395203 392683 387808 
3287.358 382701 379948 382568 392517 410326 433941 458950 480643 494508 
3291.698 498389 492717 480543 466081 452946 443559 438452 437125 438883 
3296.037 443758 452216 465318 483363 504692 526155 543075 550672 545629 
3300.377 527582 499186 465053 430889 401372 378555 361709 347748 332163 
3304.717 311604 284814 253118 220728 192982 174452 167922 173391 188208 
3309.056 208330 230044 250665 269463 287101 304774 322878 340652 355673 
3313.396 365224 366915 359918 345128 325630 305503 288262 276989 272911 
3317.735 275099 281465 288726 293268 293036 286737 275663 262136 249338 
3322.075 240122 235414 234619 234884 232497 224706 210385 191159 170242 
3326.415 151780 138654 131263 127816 124270 117575 105743 89736 72735 59148 
3331.236 52620 54343 63323 75983 87615 94276 93083 83770 67664 48013 29092 
3336.540 15275 10669 18621 40160 74060 116581 161326 200606 227160 235845 
3341.362 224607 194772 151482 101965 53382 12557 -15837 -30018 -30283 -18885 
3346.184 298 23227 45859 65278 79528 88112 90697 87681 79131 65080 45362 
3351.488 21007 -5798 -31940 -53110 -65534 -66627 -56125 -36346 -11199 14314 
3356.310 35090 48146 52023 47351 36548 23757 12955 8217 11994 25016 45130 
3361.614 67996 88211 100076 100076 87118 63323 32074 -2186 -35551 -66528 
3366.435 -93957 -117444 -136391 -149143 -154112 -150634 -140598 -127812 
3370.293 -118173 -117411 -128276 -149971 -177529 -203560 -221014 -225418 
3374.150 -217039 -200017 -181304 -167394 -162790 -168321 -182198 -200414 
3378.008 -219821 -238102 -254990 -271547 -288733 -306183 -322572 -335352 
3381.865 -342040 -341146 -333035 -319559 -303997 -289561 -278634 -272706 
3385.722 -271448 -273932 -279130 -286349 -295885 -308434 -324691 -344457 
3389.580 -366539 -388620 -407456 -420234 -424570 -420068 -407258 -388058 
3393.437 -364718 -339391 -314394 -291879 -274627 -265157 -265918 -277243 
3397.295 -297210 -320884 -340947 -350814 -345914 -325486 -294064 -259726 
3401.152 -231214 -216609 -220086 -241281 -275488 -316513 -357799 -393917 
3405.010 -422319 -441849 -452342 -454824 -449925 -439267 -425265 -411065 
3408.867 -400008 -394745 -396863 -405768 -419340 -433905 -446185 -453599 
3412.724 -454626 -449131 -438440 -424372 -409078 -394579 -382595 -373326 
3416.582 -366274 -360282 -353098 -343927 -332935 -322208 -315752 -316612 
3420.439 -327241 -346874 -372134 -397062 -416162 -425497 -423974 -413415 
3424.297 -397492 -380212 -364851 -353363 -346642 -344920 -348496 -357501 
3428.154 -371240 -387793 -403881 -415633 -419506 -414143 -401001 -384118 
3432.011 -368095 -357302 -353396 -355647 -360646 -365215 -366639 -364222 
3435.869 -359156 -352800 -345814 -337570 -325949 -308302 -282541 -248533 
3439.726 -208528 -165373 -123771 -87531 -58908 -38632 -25876 -18123 -12160 
3444.066 -5036 5897 21736 41618 62793 81020 92056 93381 85527 71774 57889 
3449.370 49471 50565 62329 82511 106207 127518 141571 145615 139682 126358 
3454.192 110118 95436 85693 83439 89172 102363 121585 145283 171734 199744 
3459.013 228022 255273 279874 299933 313395 319198 317407 310577 303017 
3463.353 299834 305835 323077 350268 382667 413941 436694 446180 440972 
3467.693 423825 400012 375604 356801 347284 349406 364329 392152 432216 
3472.032 482898 541548 603292 662058 711705 746953 765075 766503 753956 
3476.372 731519 703541 673507 643873 616133 591812 572104 557904 549046 
3480.711 544866 543406 542511 540819 537899 533852 529771 525857 521411 
3485.051 514644 503929 488305 468436 446810 426810 411554 403395 402334 
3489.391 407806 418618 434438 455102 481439 513350 550008 588925 626585 
3493.730 659337 684160 698928 702877 696970 683065 663850 642712 623400 
3498.070 609530 603856 607672 619717 637436 657313 675664 690034 700089 
3502.409 706063 708552 706860 699426 683795 659403 628078 594632 565966 
3506.749 549179 549278 567360 600206 641385 683496 720434 749243 770154 
3511.089 785257 796012 802651 804277 798867 786087 767366 746090 727370 
3515.428 715024 711771 717878 731884 751135 773108 795779 818419 840296 
3519.768 861245 880567 897666 912143 923997 933228 940898 947075 951823 
3524.107 954546 954513 950860 943621 933593 922137 911711 904240 902248 
3528.447 906664 917422 932364 947905 959760 963479 955941 936548 907096 
3532.787 871537 834984 801821 775531 757441 747816 746090 752263 767133 
3537.126 791630 825988 868748 916991 965372 1008710 1042055 1062216 1068727 
3541.466 1062117 1044579 1018275 985496 948834 911213 876948 850554 835947 
3545.805 835449 848098 870707 898795 927948 955874 981909 1006551 1030132 
3550.145 1052285 1070354 1080651 1079788 1065671 1039664 1006120 971714 
3554.002 943389 926520 924428 937246 963114 997817 1036309 1074041 1107557 
3558.342 1135927 1160710 1185030 1212342 1244672 1281392 1319478 1353777 
3562.199 1379903 1395725 1402340 1404368 1408157 1420058 1444226 1479998 
3566.057 1521526 1559500 1584041 1589229 1574996 1544902 1503438 1453634 
3569.914 1397055 1335298 1271456 1211411 1162604 1132671 1127921 1149681 
3573.772 1194632 1254974 1321173 1383493 1434884 1471188 1490804 1494262 
3577.629 1482558 1457790 1423050 1383327 1344737 1314027 1296413 1294785 
3581.487 1309009 1336394 1373056 1416002 1462810 1511983 1562293 1610646 
3585.344 1651288 1676068 1675735 1644703 1584773 1507129 1426939 1358397 
3589.201 1308743 1278268 1262982 1258363 1260756 1268797 1282821 1303991 
3593.059 1332074 1364713 1396756 1421554 1434020 1431660 1416268 1393232 
3596.916 1369599 1352448 1347063 1356603 1380900 1416634 1457823 1496755 
3600.774 1525217 1537420 1531402 1509955 1479832 1449545 1428668 1424778 
3604.631 1442464 1482957 1543439 1617963 1697223 1771374 1829766 1864772 
3608.489 1873091 1856686 1821282 1774568 1724400 1676434 1634559 1600370 
3612.346 1573799 1553281 1537121 1524652 1516805 1516472 1526148 1547795 
3616.203 1581048 1622453 1664958 1700383 1720442 1720276 1701015 1668318 
3620.061 1629636 1590326 1551951 1513446 1473183 1430795 1388213 1349889 
3623.918 1321139 1306383 1308178 1326291 1358564 1401941 1453202 1509822 
3627.776 1567747 1620490 1659238 1676400 1671079 1648395 1616134 1580383 
3631.633 1544968 1511318 1478702 1445489 1409520 1369964 1327786 1285513 
3635.490 1246533 1213870 1189183 1172438 1162139 1156790 1155495 1158817 
3639.348 1168518 1186924 1215166 1252614 1295449 1338621 1376945 1407094 
3643.205 1429133 1445988 1463142 1486149 1519598 1565618 1622752 1683818 
3647.063 1736443 1765353 1755039 1697722 1597044 1470390 1343241 1240851 
3650.920 1180645 1165295 1188951 1241084 1311568 1392035 1475377 1554578 
3654.778 1619659 1659570 1663462 1626843 1555376 1463608 1369698 1288903 
3658.635 1231913 1203470 1202673 1223373 1255771 1289534 1315689 1329814 
3662.492 1332672 1328950 1324164 1323665 1329914 1342410 1359494 1379737 
3666.350 1403636 1434053 1475843 1533762 1609582 1698620 1786878 1852327 
3670.207 1877051 1854822 1794231 1711494 1623351 1542308 1477139 1435350 
3674.065 1422418 1438907 1475211 1511451 1526181 1508293 1461613 1396257 
3677.922 1324263 1255937 1200546 1164730 1151508 1159814 1185030 1220615 
3681.780 1260290 1299637 1336394 1370230 1403071 1437012 1474546 1516505 
3685.637 1562127 1608285 1649692 1679560 1692034 1685481 1664460 1637751 
3689.494 1614072 1596778 1582378 1563124 1532665 1488211 1433422 1375515 
3693.352 1322436 1280960 1254209 1241516 1239588 1244307 1252780 1264577 
3697.209 1282024 1308145 1344770 1390938 1441400 1487546 1519165 1526680 
3701.067 1505167 1457291 1392833 1325128 1266604 1225367 1204268 1202141 
3704.924 1216628 1243177 1277471 1315323 1353212 1389044 1422684 1455330 
3708.781 1489441 1526680 1566616 1605026 1634193 1644803 1629570 1587500 
3712.639 1523554 1446487 1366142 1290996 1226995 1179382 1152837 1150378 
3716.496 1174232 1222941 1291495 1369931 1446520 1510786 1555343 1578255 
3720.354 1582013 1572369 1554977 1534494 1513446 1492599 1472618 1455297 
3724.211 1443827 1442098 1452437 1474313 1502773 1530836 1551386 1560397 
3728.069 1558103 1548293 1536689 1528043 1526514 1533663 1548925 1569542 
3731.926 1591657 1612076 1629404 1643772 1656843 1669682 1681423 1688807 
3735.783 1687776 1675902 1653051 1621588 1585272 1548293 1513945 1485817 
3739.641 1466633 1458388 1462112 1478236 1506597 1547628 1601135 1665158 
3743.498 1732384 1789074 1819551 1816756 1787144 1744760 1703144 1672043 
3747.356 1657608 1663395 1689639 1731786 1779825 1820916 1842111 1837087 
3751.213 1808338 1764687 1715652 1669781 1630601 1598873 1574065 1555177 
3755.071 1542375 1536123 1536456 1542973 1553581 1564587 1571338 1569210 
3758.928 1555276 1528741 1492101 1450011 1407659 1370263 1340350 1319145 
3762.785 1305685 1298042 1292591 1285912 1275078 1259559 1241649 1226463 
3766.643 1220150 1227095 1249956 1288138 1337392 1389709 1436081 1468462 
3770.500 1483190 1481927 1469193 1450343 1429333 1408390 1388445 1370263 
3774.358 1354741 1343141 1337192 1338588 1348559 1367206 1393431 1424380 
3778.215 1455729 1481262 1495326 1494095 1477970 1450742 1418861 1388811 
3782.073 1365610 1352514 1350786 1358996 1373986 1391437 1407094 1418130 
3785.930 1423781 1424346 1420523 1412911 1402207 1389276 1376080 1365677 
3789.787 1361887 1367804 1384955 1412146 1444758 1476773 1501643 1514311 
3793.645 1512116 1495326 1466567 1431028 1394728 1364679 1346233 1342510 
3797.502 1353777 1378640 1415171 1460882 1513147 1566982 1614504 1646632 
3801.360 1655080 1639215 1606190 1567148 1530437 1501277 1481761 1472052 
3805.217 1472086 1481062 1496888 1515940 1533097 1544004 1546664 1541543 
3809.074 1531102 1518434 1506630 1499149 1498650 1507062 1525383 1553481 
3812.932 1590426 1634160 1681124 1725498 1758133 1769046 1752212 1709597 
3816.789 1651521 1591657 1542208 1510687 1501776 1517370 1555609 1608651 
3820.647 1661932 1698886 1708267 1691202 1657907 1620690 1588863 1568611 
3824.504 1562925 1571737 1592322 1619160 1645002 1662697 1667553 1658439 
3828.362 1636920 1606223 1570241 1532732 1496888 1466101 1443029 1429067 
3832.219 1424612 1428601 1439372 1454499 1472252 1491269 1511385 1533629 
3836.076 1559200 1589229 1623351 1658639 1689672 1711360 1720242 1717548 
3839.934 1707834 1697656 1692367 1693997 1699951 1704541 1700051 1680725 
3843.791 1645401 1599405 1553049 1516805 1499249 1502807 1524186 1554878 
3847.649 1584307 1603230 1605225 1590493 1564953 1539282 1525716 1535658 
3851.506 1576326 1647264 1734780 1813795 1859414 1863574 1838883 1805577 
3855.364 1777862 1760562 1751347 1744793 1735378 1718712 1693198 1660169 
3859.221 1623284 1586934 1555509 1532532 1519232 1514544 1515109 1516938 
3863.078 1516073 1510254 1499947 1488443 1480131 1479300 1488776 1509490 
3866.936 1541011 1582146 1631233 1684350 1734913 1774668 1796294 1798556 
3870.793 1786346 1767914 1749816 1734913 1722305 1708333 1687677 1656344 
3874.651 1613540 1562492 1509124 1458654 1415736 1382928 1360757 1348825 
3878.508 1345501 1348659 1355240 1363117 1371227 1380335 1391902 1408390 
3882.365 1431327 1461813 1499681 1543405 1589362 1631066 1661599 1675735 
3886.223 1673407 1659703 1641111 1623284 1608750 1597377 1586801 1574065 
3890.080 1556740 1534527 1510487 1490704 1481328 1486349 1505666 1536057 
3893.938 1572435 1609116 1641410 1665424 1678629 1679527 1667985 1645601 
3897.795 1614837 1580516 1547894 1520994 1502241 1490904 1483988 1478436 
3901.653 1473482 1471288 1477505 1497487 1533895 1583044 1635324 1677465 
3905.510 1698088 1692500 1662031 1614138 1559865 1511086 1476873 1463375 
3909.367 1471122 1496024 1530105 1564188 1589628 1600569 1595248 1575960 
3913.225 1547894 1517636 1492333 1477771 1477605 1492599 1519897 1554312 
3917.082 1588664 1616400 1633927 1639248 1632863 1616001 1591025 1560364 
3920.940 1527012 1495060 1468063 1450409 1444592 1451340 1468262 1490072 
3924.797 1510254 1523222 1526613 1521925 1513413 1506032 1503871 1508492 
3928.655 1519298 1532499 1543006 1545966 1537819 1518135 1489640 1458388 
3932.512 1431793 1417066 1419360 1439273 1473947 1517071 1560331 1595082 
3936.369 1614005 1613706 1595215 1564188 1528941 1499149 1481528 1479766 
3940.227 1493530 1519897 1554212 1591856 1628905 1662564 1690737 1711294 
3944.084 1721839 1720508 1705772 1677764 1638250 1592089 1545434 1505067 
3947.942 1476807 1463841 1465835 1479566 1500479 1524020 1546332 1565219 
3951.799 1579153 1587101 1588098 1580815 1564355 1538983 1506597 1470922 
3955.656 1437345 1412113 1399947 1403470 1421654 1450310 1483390 1513779 
3959.514 1536289 1548393 1550954 1546963 1541377 1538584 1540646 1548094 
3963.371 1558901 1570739 1581747 1591191 1600403 1611611 1627508 1649659 
3967.229 1678795 1713057 1749517 1784316 1813662 1834924 1846603 1848633 
3971.086 1841945 1827404 1806309 1779592 1748452 1714953 1682288 1653517 
3974.944 1632364 1620723 1618362 1622153 1627308 1628572 1622286 1607919 
3978.801 1588364 1569675 1558136 1559333 1575595 1605458 1644004 1685049 
3982.658 1722870 1753243 1774768 1787477 1792834 1792268 1787743 1781289 
3986.516 1774901 1771009 1771507 1776764 1784849 1792268 1794431 1787344 
3990.373 1769478 1742730 1711527 1681190 1656477 1639947 1631399 1629038 
3994.231 1631100 1637020 1647264 1663295 1685381 1711494 1737075 1756104 
3998.088 1763157 1755605 1735112 1707202 1679128 1658373 
##END=
