##TITLE=ad18_3 Oct 08 11:30:16 2026 (GMT+02:00)
##JCAMP-DX=5.01  $$ Nicolet v. 1
##DATATYPE=INFRARED SPECTRUM
##ORIGIN=Vojna akademija
##OWNER=Nicolet
##LONGDATE=2026/10/08
##TIME=11:30:49
##SPECTROMETER/DATA SYSTEM=Nicolet iS20
##DATA PROCESSING=
Ratio against background
%Transmittance->Absorbance
Truncated
ElementMultiply or ElementDivide
##COMMENTS=
Number of sample scans: 8
Collection length: 11,90 sec
Sample gain: 8,0
Background collected on: Thu Oct 08 11:29:20 2026 (GMT+02:00);
Number of background scans: 8
Background gain: 8,0
Sample spacing:  1,000
Number of scan points: 12415
Resolution points: 8286
Number of FFT points: 65536
Apodization: N-B strong;
Phase correction: Mertz;
Laser frequency: 15798,00 cm-1
Number of rejected sample scans: 0
Number of rejected background scans: 0
Bench serial number: BER2010005;
##RESOLUTION= 4,000
##XUNITS=1/CM
##YUNITS=ABSORBANCE
##FIRSTX=400.156891
##LASTX=4000.123047
##FIRSTY=0.011003
##MAXX=4000.123047
##MINX=400.156891
##MAXY=0.269307
##MINY=0.000547
##XFACTOR=1.000000
##YFACTOR=1.000000E-009
##NPOINTS=7468
##DELTAX=0.482117
##ZPD=6100
##XYDATA=(X++(Y..Y))
400.157 11002894 13594056 15491331 16873476 18007424 19167474 20537658 
403.532 22175086 23965360 25657828 26899006 27368806 26888148 25492650 
406.907 23416376 21018080 18670898 16643155 15085346 14006725 13321836 
410.281 12915757 12725228 12771768 13154011 13977125 15268917 16904994 
413.656 18621024 20063630 20915812 21017210 20382578 19210934 17817548 
417.031 16626492 16042657 16312459 17344168 18698572 19828978 20432864 
420.406 20571876 20488818 20392196 20341776 20251436 19950348 19295688 
423.781 18270604 17051944 15960632 15349713 15420190 16171260 17408796 
427.155 18858240 20251854 21424152 22348912 23095998 23755818 24355064 
430.530 24822258 25011678 24779952 24062746 22921452 21521802 20074456 
433.905 18746760 17651772 16847056 16370740 16278952 16641917 17501788 
437.280 18817998 20438836 22118356 23564146 24549994 24968298 24886570 
440.655 24514654 24149432 24044464 24294476 24792684 25275346 25459026 
444.030 25157606 24375706 23277638 22111836 21091360 20346672 19887526 
447.404 19631544 19451560 19245984 18981728 18699436 18492938 18476688 
450.779 18758384 19398130 20386536 21623552 22943774 24141096 25029612 
454.154 25501330 25538330 25216700 24675742 24098678 23649756 23430294 
457.529 23445856 23615538 23825222 24003000 24150552 24315116 24537302 
460.904 24799420 25006308 25005536 24648036 23846680 22634496 21154426 
464.278 19618198 18218460 17095506 16310051 15847040 15639350 15604865 
467.653 15679438 15823534 16021410 16266190 16545184 16839580 17132212 
471.028 17412038 17681794 17947714 18206712 18437032 18597402 18643158 
474.403 18548192 18311178 17956486 17526420 17074586 16652865 16311152 
477.778 16089831 16011130 16075732 16255906 16497927 16723588 16846882 
481.152 16799764 16549349 16117821 15576359 15030015 14576418 14284099 
484.527 14178065 14241162 14432837 14709661 15039894 15398871 15760722 
487.902 16088970 16330555 16434535 16369054 16141273 15800340 15425717 
491.277 15100543 14876924 14760974 14712060 14665928 14559594 14362006 
494.652 14083830 13768550 13473356 13247258 13116205 13073862 13086837 
498.027 13108077 13098857 13039101 12936169 12819407 12733893 12717483 
501.401 12782210 12899816 13007724 13031590 12919409 12672312 12354441 
504.776 12080647 11972118 12128959 12577686 13254774 14007615 14644988 
508.151 15003055 14988959 14612809 13969050 13201725 12447756 11819079 
511.526 11379093 11142966 11094050 11202700 11439369 11775363 12181707 
514.901 12623188 13054773 13434531 13729460 13924467 14022706 14031467 
518.276 13951360 13768824 13462488 13020630 12458087 11824050 11190970 
521.650 10636326 10223419 9979512 9898013 9942964 10073606 10257242 10485454 
525.507 10773290 11145584 11614872 12163510 12739421 13269804 13679533 
528.882 13907704 13927513 13749295 13422980 13020868 12627180 12308797 
532.257 12094752 11974026 11901687 11820168 11680457 11464272 11191106 
535.632 10912948 10688790 10568284 10572019 10687703 10878598 11100407 
539.007 11318553 11512243 11676917 11812746 11916637 11979612 11991498 
542.381 11953419 11884524 11823505 11816627 11897022 12069268 12299627 
545.756 12526562 12675075 12691826 12563737 12325908 12046511 11809170 
549.131 11688115 11724299 11918681 12230949 12595219 12929376 13156845 
552.506 13223825 13105379 12817223 12416865 11999537 11667931 11514489 
555.881 11592037 11896954 12369987 12911490 13417410 13798238 14010695 
559.255 14060386 13993789 13873732 13760513 13697349 13700939 13764787 
562.630 13866582 13979042 14075205 14137466 14161701 14159716 14157319 
566.005 14187410 14281086 14453287 14696465 14980488 15265691 15517223 
569.380 15722619 15896700 16074082 16290441 16562290 16877540 17199324 
572.755 17485264 17706608 17867192 18004694 18176238 18430464 18785716 
576.130 19215922 19662746 20053602 20333824 20484442 20520324 20477634 
579.504 20397128 20311636 20238036 20183260 20150392 20143450 20167642 
582.879 20223596 20301048 20377194 20424320 20421924 20368584 20287508 
586.254 20219014 20209398 20288932 20462316 20705060 20973742 21216250 
589.629 21390180 21473620 21466204 21385898 21258072 21107396 20946794 
593.004 20774570 20575038 20327228 20012484 19626414 19186728 18736416 
596.378 18337030 18050596 17926892 17984044 18204328 18535674 18910324 
599.753 19260808 19535910 19714750 19800852 19811810 19764128 19666248 
603.128 19517404 19315608 19065918 18785024 18499956 18240990 18030494 
606.503 17879898 17788480 17748130 17749166 17781750 17836224 17897402 
609.878 17941670 17940566 17863878 17693080 17428076 17091854 16721694 
613.253 16361346 16049670 15809445 15649518 15565335 15544420 15566468 
616.627 15606686 15636843 15626229 15551426 15403917 15196715 14963031 
620.002 14749319 14601432 14547328 14589782 14705891 14858099 15006005 
623.377 15123872 15206769 15267408 15327505 15406321 15514132 15651373 
626.752 15813913 15996967 16197983 16412649 16629247 16827594 16977482 
630.127 17050740 17031510 16923734 16749311 16541982 16333891 16143061 
633.501 15971906 15810546 15648143 15482266 15323420 15188719 15093579 
636.876 15039036 15008406 14971536 14899040 14774514 14607052 14428658 
640.251 14289577 14241607 14320020 14535850 14870614 15283194 15714753 
643.626 16105957 16405664 16578538 16615132 16531140 16367299 16176384 
647.001 16018728 15946677 15994664 16178207 16492661 16918878 17426110 
650.375 17979484 18537022 19048332 19461886 19728136 19814932 19720854 
653.750 19480842 19159820 18832842 18570878 18415910 18374912 18424656 
657.125 18527480 18648864 18770770 18896066 19044626 19241828 19508428 
660.500 19857176 20289244 20794868 21351892 21925560 22469452 22930324 
663.875 23267464 23460510 23518638 23475162 23388504 23337596 23410116 
667.250 23692338 24213926 24900256 25596072 26185264 26653588 27051954 
670.624 27429826 27807850 28174644 28502754 28763206 28950032 29088998 
673.999 29236340 29454180 29785248 30236086 30774132 31340514 31870804 
677.374 32321848 32679402 32957062 33183430 33392814 33615544 33875460 
680.749 34192280 34579540 35041564 35570748 36146128 36737920 37315280 
684.124 37860440 38373704 38872616 39378116 39904768 40449008 40991528 
687.498 41506540 41977744 42407120 42815240 43227104 43658452 44105112 
690.873 44545816 44952344 45306512 45610472 45886144 46162540 46459100 
694.248 46778592 47106224 47422276 47715184 47991344 48271156 48578756 
697.623 48925144 49302016 49686460 50055780 50401412 50737372 51092044 
700.998 51492292 51942608 52416760 52862048 53226212 53478352 53630832 
704.373 53736192 53874584 54123568 54531132 55108916 55831876 56656336 
707.747 57534032 58428516 59316712 60184432 61023992 61832888 62619148 
711.122 63404188 64223340 65115204 66104160 67191704 68352632 69546888 
714.497 70738232 71916712 73104904 74352656 75709272 77203984 78826352 
717.872 80530424 82241528 83882784 85392952 86726248 87849056 88726464 
721.247 89313480 89566904 89456808 88984784 88186960 87128176 85882712 
724.621 84511784 83059832 81550432 79995584 78408496 76807608 75216144 
727.996 73655272 72134912 70653080 69197576 67755608 66319072 64888304 
731.371 63469028 62067108 60682264 59308548 57937268 56563060 55188408 
734.746 53823868 52482524 51176172 49910348 48684748 47497380 46349520 
738.121 45248152 44205656 43233140 42334280 41500852 40714068 39949776 
741.496 39186932 38416272 37643216 36885064 36162008 35489624 34872280 
744.870 34300664 33755976 33217120 32668828 32104526 31527988 30949192 
748.245 30380580 29831204 29305526 28804026 28326518 27874798 27455590 
751.620 27079988 26761022 26507366 26319652 26186144 26085222 25988684 
754.995 25869026 25708656 25503824 25267338 25023190 24801138 24624750 
758.370 24503786 24431644 24387904 24344480 24274188 24160046 23998308 
761.744 23797396 23572334 23340010 23113540 22899098 22696528 22501138 
765.119 22305518 22100994 21879422 21634976 21365744 21075882 20776656 
768.494 20485136 20219118 19993194 19812886 19672210 19555528 19443036 
771.869 19318448 19174538 19015200 18853536 18704624 18578138 18473126 
775.244 18377574 18275098 18150084 17997064 17823070 17645872 17486750 
778.619 17361134 17273414 17213802 17162406 17096126 16998946 16865380 
781.993 16702170 16523397 16344592 16175937 16019175 15868621 15715577 
785.368 15554345 15385277 15214661 15051934 14904424 14772458 14649032 
788.743 14521700 14378171 14210656 14019113 13811098 13599662 13397419 
792.118 13215320 13060920 12939447 12855719 12814867 12821863 12877972 
795.493 12979866 13118493 13279677 13448133 13610466 13755177 13874621 
798.867 13962036 14011687 14019626 13986125 13919438 13836685 13764343 
802.242 13730622 13754767 13839489 13965628 14096768 14184808 14190046 
805.617 14090572 13892308 13627082 13346882 13109239 12959792 12927533 
808.992 13016908 13210811 13474245 13764172 14039543 14264478 14417594 
812.367 14492511 14496827 14448662 14372487 14292317 14225138 14182069 
815.742 14167418 14183748 14234896 14327074 14466235 14651978 14873460 
819.116 15107027 15319508 15480137 15567944 15581785 15541569 15482335 
822.491 15441614 15445219 15502147 15602290 15723892 15843946 15949357 
825.866 16039116 16122876 16212394 16314317 16425451 16534651 16628902 
829.241 16701551 16758921 16820360 16912368 17059596 17275828 17557194 
832.616 17881418 18212518 18512818 18749944 18906552 18984948 19004990 
835.990 18997928 18997028 19029462 19106322 19221152 19352122 19472906 
839.365 19561490 19611162 19633348 19656158 19712740 19827140 20006240 
842.740 20234322 20478884 20700160 20868704 20973322 21026914 21059396 
846.115 21108718 21207654 21371246 21594788 21853530 22111802 22328122 
849.490 22469522 22515548 22464708 22334504 22159604 21986480 21857400 
852.865 21804682 21838550 21945144 22090360 22232938 22338274 22389134 
856.239 22392066 22372424 22364960 22396706 22477514 22594704 22718662 
859.614 22809448 22831518 22765170 22609466 22382262 22113650 21840988 
862.989 21597226 21408140 21288346 21240674 21258872 21331812 21448138 
866.364 21597538 21772770 21968428 22177422 22390426 22594844 22777042 
869.739 22926588 23039356 23119480 23176130 23219472 23253482 23272954 
873.113 23264144 23210452 23101168 22938044 22737204 22524168 22327878 
876.488 22168462 22054280 21980312 21934238 21901096 21869978 21835518 
879.863 21795798 21749534 21693906 21624248 21536566 21428782 21304318 
883.238 21169804 21035432 20913274 20816732 20762752 20770712 20857996 
886.613 21034252 21293706 21610772 21939848 22228092 22427860 22510000 
889.987 22474722 22349366 22178086 22001922 21850152 21730166 21633826 
893.362 21545724 21456386 21366894 21287198 21227104 21188660 21161558 
896.737 21128094 21070456 20982052 20871240 20759902 20673194 20628404 
900.112 20630002 20670552 20737034 20820104 20920088 21044894 21201950 
903.487 21389344 21589284 21770750 21901234 21957622 21937898 21861614 
906.862 21763782 21678092 21625538 21607324 21607080 21600010 21564874 
910.236 21494648 21398080 21295898 21211936 21166742 21170952 21224426 
913.611 21318378 21439296 21571560 21698990 21807680 21885520 21924690 
916.986 21922946 21884856 21820188 21741070 21660190 21587996 21530890 
920.361 21492592 21472956 21468048 21469128 21463872 21436300 21371350 
923.736 21260266 21104128 20915882 20716736 20531438 20379798 20272302 
927.110 20209468 20185274 20191556 20223804 20282230 20370248 20489930 
930.485 20638690 20807242 20982540 21152618 21309956 21454890 21593882 
933.860 21735774 21887958 22053686 22232834 22423082 22621754 22825546 
937.235 23028910 23221080 23386302 23508284 23575238 23588496 23566000 
940.610 23542354 23556626 23643772 23822424 24088556 24416642 24767426 
943.985 25102662 25391432 25619900 25790434 25918054 26022596 26123926 
947.359 26238058 26374364 26534592 26714154 26902742 27085914 27249932 
950.734 27386806 27497736 27595564 27701218 27840140 28031022 28281112 
954.109 28580706 28907108 29226842 29506062 29720206 29857362 29922246 
957.484 29933002 29918624 29910212 29934208 30007518 30132122 30296122 
960.859 30476748 30650162 30796112 30905642 30982354 31038154 31086450 
964.233 31133580 31175834 31201182 31195022 31148922 31066520 30963318 
967.608 30862666 30783912 30737712 30721780 30724554 30731808 30735470 
970.983 30736608 30745180 30771748 30821472 30887962 30955490 31003100 
974.358 31013492 30980506 30910480 30819908 30727326 30648596 30590822 
977.733 30553138 30529356 30513432 30502518 30498468 30506252 30531206 
981.108 30576778 30642516 30724482 30816814 30912758 31004952 31086700 
984.482 31151164 31191784 31203674 31184626 31136604 31066094 30984312 
987.857 30906140 30846660 30819340 30832216 30884972 30969046 31069330 
991.232 31168856 31252488 31313520 31354404 31386282 31423468 31479180 
994.607 31560094 31665504 31788800 31921830 32058864 32197118 32335412 
997.982 32470576 32594028 32693476 32755822 32775332 32757822 32723524 
1001.356 32701656 32718878 32791660 32918100 33079152 33244666 33387266 
1004.731 33490688 33555544 33596356 33634588 33689228 33769152 33872240 
1008.106 33988604 34106180 34215008 34310308 34392000 34462408 34525292 
1011.481 34586468 34654824 34743080 34866536 35040124 35272364 35563052 
1014.856 35901940 36271748 36651024 37019484 37361316 37663668 37918032 
1018.231 38119148 38266580 38367336 38437740 38501996 38584336 38704652 
1021.605 38869028 39069092 39284492 39491828 39673128 39821088 39939348 
1024.980 40037260 40123308 40199412 40262260 40306684 40331700 40344096 
1028.356 40356348 40380460 40422388 40477300 40530368 40561980 40556780 
1031.731 40506980 40415404 40289740 40139624 39972152 39791672 39602740 
1035.106 39413488 39235276 39081748 38961292 38874788 38813372 38763772 
1038.481 38713744 38658976 38605052 38564168 38548272 38561268 38595928 
1041.857 38636016 38663432 38665136 38638988 38594080 38546208 38510396 
1045.232 38498452 38516732 38568440 38658184 38793588 38983476 39236036 
1048.607 39552940 39927872 40345952 40788020 41233600 41664244 42065928 
1051.982 42428312 42745256 43016988 43252432 43471672 43701468 43972848 
1055.358 44307468 44711348 45170348 45655672 46131184 46566344 46947196 
1058.733 47276100 47568428 47841312 48107000 48368516 48621820 48861580 
1062.108 49086904 49301792 49511892 49719492 49919868 50102820 50259064 
1065.483 50386192 50492440 50594652 50711420 50854620 51025744 51217552 
1068.859 51422052 51640044 51885180 52179956 52549868 53010196 53559312 
1072.234 54179084 54842936 55527648 56221508 56928492 57662664 58440680 
1075.609 59272388 60158096 61091112 62062632 63068100 64105884 65175644 
1078.984 66271828 67382192 68490480 69582048 70651832 71706712 72762280 
1082.359 73833696 74928864 76045792 77177584 78319040 79475600 80660592 
1085.735 81888664 83162344 84463248 85751904 86982776 88120704 89156160 
1089.110 90108984 91016656 91913504 92810488 93688728 94507576 95227088 
1092.485 95824496 96305656 96697264 97030056 97318376 97553616 97709272 
1095.860 97759864 97696208 97532632 97298472 97023552 96720240 96378040 
1099.236 95971720 95477176 94887056 94215976 93493080 92748744 92003672 
1102.611 91264416 90531768 89811672 89122064 88492976 87954776 87524520 
1105.986 87201640 86970552 86815824 86736192 86753472 86907488 87241208 
1109.361 87776216 88503296 89378720 90343040 91334056 92309984 93255552 
1112.737 94173168 95070256 95945312 96785032 97571048 98290416 98942528 
1116.112 99537392 100082352 100567504 100960808 101210032 101263328 
1119.005 101089584 100688064 100087104 99327272 98443424 97450392 96347224 
1122.380 95131632 93817136 92445448 91081720 89795712 88650536 87683152 
1125.755 86906072 86318784 85921640 85726552 85760304 86052464 86625880 
1129.131 87485128 88616328 89993072 91591400 93399200 95418064 97656088 
1132.506 100115728 102784136 105632160 108619472 111705368 114860664 
1135.399 118063784 121294352 124524624 127709208 130793344 133729472 
1138.292 136488544 139070640 141496224 143788240 145950016 147957680 
1141.185 149765296 151329792 152631184 153687360 154546288 155271712 
1144.078 155917520 156515600 157080880 157622480 158157296 158715680 
1146.971 159328864 160016176 160769456 161555920 162330304 163059824 
1149.864 163743328 164413536 165119968 165902432 166770432 167695840 
1152.757 168626336 169509824 170321952 171073520 171800720 172539536 
1155.651 173304688 174077696 174815984 175469568 176005248 176414208 
1158.544 176706016 176892544 176973376 176932432 176749120 176412560 
1161.437 175935296 175348432 174689984 173983712 173227408 172395920 
1164.330 171458624 170400272 169232464 167990432 166716016 165436976 
1167.223 164152832 162837680 161455712 159984288 158422768 156794096 
1170.116 155128512 153449056 151759840 150049200 148302960 146519248 
1173.009 144714848 142921328 141167376 139466880 137810944 136174800 
1175.902 134530880 132864896 131183192 129507168 127858848 126248792 
1178.795 124670656 123107856 121545720 119985544 118447488 116963016 
1181.688 115560416 114247112 113006016 111801632 110595784 109361232 
1184.581 108093880 106810256 105538192 104302272 103116672 101981560 
1187.474 100889152 99828760 98793496 97779032 96781512 95794416 94809392 
1190.849 93818992 92822344 91826960 90846680 89893952 88973320 88078136 
1194.225 87194272 86306464 85408480 84506432 83617464 82760056 81945432 
1197.600 81173760 80435944 79721600 79028424 78365992 77752792 77206432 
1200.975 76731448 76314928 75927688 75536544 75115216 74656008 74171784 
1204.350 73688872 73233640 72824384 72465528 72149856 71866040 71605576 
1207.726 71366784 71152952 70968136 70812840 70683296 70573944 70480472 
1211.101 70402696 70342536 70299992 70269496 70239152 70193656 70122464 
1214.476 70025672 69916872 69818296 69751880 69732232 69759656 69823864 
1217.851 69909904 70008584 70120640 70257296 70432304 70655304 70924208 
1221.227 71225752 71539704 71847312 72138512 72412256 72675664 72937952 
1224.602 73207248 73487984 73783072 74095648 74429064 74785328 75160952 
1227.977 75545688 75921968 76271840 76582584 76851656 77087120 77302232 
1231.352 77508456 77709792 77900872 78073280 78221672 78348560 78464064 
1234.728 78579472 78699120 78814712 78905656 78945872 78915672 78808952 
1238.103 78636096 78416000 78168152 77902656 77616400 77296536 76929264 
1241.478 76507096 76032016 75512144 74956784 74370352 73750672 73092632 
1244.853 72393184 71656568 70894864 70123952 69357304 68603080 67863088 
1248.229 67135816 66422112 65727188 65061556 64436784 63860052 63332804 
1251.604 62850148 62405372 61993492 61613964 61269748 60963856 60694536 
1254.979 60454432 60230028 60008292 59779480 59540796 59295484 59049392 
1258.354 58806708 58567952 58331220 58095416 57862916 57639468 57430736 
1261.730 57237600 57052904 56863788 56655732 56419208 56153932 55868504 
1265.105 55575016 55281916 54991120 54697844 54396208 54084464 53769452 
1268.480 53464828 53185912 52942032 52732884 52548224 52374664 52201888 
1271.855 52028508 51861840 51714052 51593996 51502216 51430444 51365548 
1275.231 51296780 51219308 51135840 51053100 50975068 50897908 50809588 
1278.606 50693024 50533864 50323872 50063552 49758612 49415872 49038120 
1281.981 48625116 48176816 47697324 47198224 46696124 46205952 45737168 
1285.356 45288456 44851520 44416164 43978640 43546020 43136048 42769240 
1288.732 42461812 42218072 42030232 41881552 41754336 41637256 41526552 
1292.107 41425284 41337704 41265916 41207076 41155820 41107552 41061664 
1295.482 41022260 40994984 40983116 40985188 40993312 40998552 40992944 
1298.857 40974192 40944552 40909164 40870572 40826712 40769968 40691832 
1302.233 40585624 40450644 40291704 40117164 39935356 39751148 39566772 
1305.608 39383304 39203324 39032628 38878412 38746344 38638152 38550044 
1308.983 38474700 38405740 38341024 38285072 38246680 38234592 38253376 
1312.358 38299404 38362300 38427640 38483064 38521476 38541828 38546716 
1315.734 38539436 38521332 38491788 38449252 38393468 38325060 38245124 
1319.109 38151780 38040368 37902268 37730780 37522724 37282424 37019304 
1322.484 36746464 36475056 36210516 35952832 35697280 35438604 35173908 
1325.859 34903336 34629740 34355812 34082776 33811560 33545270 33291168 
1329.234 33063420 32879536 32754998 32698870 32708340 32769256 32859772 
1332.610 32958954 33053230 33140264 33228960 33335208 33476446 33664844 
1335.985 33905840 34196976 34530100 34892740 35269884 35645232 36001356 
1339.360 36323512 36603188 36841672 37047952 37235492 37415376 37592344 
1342.735 37764104 37925084 38071616 38206444 38340372 38488856 38666836 
1346.111 38879568 39119996 39368976 39603760 39804200 39960892 40077848 
1349.486 40167572 40244484 40316684 40383804 40438060 40470356 40475156 
1352.861 40454280 40416640 40375404 40341988 40325880 40331880 40362276 
1356.236 40418240 40499996 40606144 40732264 40870900 41012752 41148936 
1359.612 41274588 41389672 41497716 41602468 41703888 41795044 41865388 
1362.987 41904980 41911108 41890200 41854076 41813724 41775892 41742696 
1366.362 41714356 41691780 41679852 41686928 41721616 41787752 41882172 
1369.737 41995408 42118684 42250644 42403540 42602432 42882928 43282376 
1373.113 43824636 44508552 45298976 46137224 46953804 47690112 48305004 
1376.488 48763148 49028808 49060600 48815752 48270492 47432144 46345504 
1379.863 45075980 43696368 42266420 40826676 39409752 38044964 36761428 
1383.238 35586428 34532432 33592164 32737848 31929322 31124574 30294986 
1386.614 29438934 28581592 27765074 27028186 26390948 25854046 25405590 
1389.989 25030946 24717302 24454710 24233544 24044570 23877764 23726036 
1393.364 23588460 23471910 23389030 23351442 23361440 23410850 23484992 
1396.739 23569780 23657592 23748714 23847064 23956642 24076298 24199036 
1400.115 24315324 24417028 24499650 24561002 24597294 24600204 24555534 
1403.490 24445702 24257824 23992252 23668404 23320568 22990200 22712134 
1406.865 22507698 22388262 22359588 22427058 22600462 22890822 23305360 
1410.240 23840694 24479912 25194122 25949182 26717078 27478606 28223720 
1413.616 28948190 29644956 30303370 30908276 31443130 31894408 32252430 
1416.991 32507536 32646678 32651610 32505962 32210856 31798926 31326518 
1420.366 30848580 30402970 30003080 29647086 29328282 29042836 28795706 
1423.741 28602614 28481668 28447208 28500914 28634854 28839188 29110822 
1427.117 29458506 29901728 30464416 31163374 31996760 32940082 33948796 
1430.492 34971348 35963920 36897400 37758680 38549500 39280208 39967140 
1433.867 40630088 41292696 41980848 42719404 43521296 44371132 45222928 
1437.242 46018224 46714684 47302404 47796776 48223428 48610664 48983144 
1440.618 49359852 49752964 50166484 50596928 51035696 51474572 51907992 
1443.993 52335492 52760608 53191232 53636120 54106004 54612660 55168320 
1447.368 55783648 56467128 57222520 58053560 58969460 59985620 61123832 
1450.743 62403612 63832992 65395764 67050628 68746016 70426424 72058792 
1454.119 73633320 75151024 76611392 77986432 79204136 80158744 80778216 
1457.494 81094320 81220936 81284776 81353184 81440704 81540800 81647232 
1460.869 81762008 81892496 82044128 82214224 82386104 82530128 82602944 
1464.244 82550968 82317296 81832048 81015408 79786456 78064712 75808328 
1467.620 73026264 69790592 66205448 62392248 58449096 54399628 50217664 
1470.995 45849576 41293284 36687328 32330166 28556538 25546658 23262152 
1474.370 21519122 20105344 18874298 17753274 16730923 15822228 15036360 
1477.745 14360088 13762975 13211562 12684150 12176493 11699245 11267679 
1481.120 10891067 10566180 10279600 10015485 9765493 9530919 9320100 9139601 
1484.978 8988909 8857748 8729027 8586555 8422541 8241401 8056692 7884139 
1488.835 7731049 7593388 7459007 7319681 7176222 7038737 6918364 6820811 
1492.693 6744446 6682025 6625265 6567638 6506621 6444503 6386530 6337171 
1496.550 6297298 6263111 6229194 6192826 6155319 6118185 6081256 6040063 
1500.408 5987418 5917581 5830058 5730332 5627875 5535041 5461855 5414481 
1504.265 5394754 5399417 5423707 5459641 5499236 5534101 5555580 5558198 
1508.122 5541417 5509302 5468465 5426491 5390292 5362750 5343897 5328031 
1511.980 5308141 5278022 5236468 5187777 5139728 5100133 5073649 5060910 
1515.837 5057725 5058563 5060709 5066542 5082298 5112403 5156191 5206690 
1519.695 5251828 5276881 5270475 5231103 5172051 5111699 5059971 5014216 
1523.552 4965080 4905025 4833956 4761524 4703708 4677147 4688502 4728327 
1527.410 4775493 4807219 4807822 4773751 4712115 4636254 4559938 4492708 
1531.267 4438844 4397639 4364437 4331639 4293088 4245572 4190970 4134702 
1535.124 4083692 4044928 4025531 4033859 4077905 4162734 4283986 4421137 
1538.982 4532951 4568611 4502216 4361324 4212148 4109514 4073992 4093592 
1542.839 4142462 4194282 4230750 4243665 4233962 4208869 4177454 4147614 
1546.697 4124465 4112223 4114263 4133363 4169492 4217267 4266318 4303495 
1550.554 4320294 4316747 4301052 4283584 4274215 4277460 4291247 4307778 
1554.411 4318252 4319625 4317282 4324544 4358078 4434359 4561847 4728696 
1558.269 4879089 4925165 4817270 4606115 4381071 4194483 4055764 3954605 
1562.126 3880047 3824621 3786048 3766027 3767732 3792399 3836588 3892952 
1565.984 3952833 4009713 4060580 4103727 4136407 4153133 4144637 4103292 
1569.841 4030046 3936148 3838427 3751856 3685186 3641045 3618458 3614917 
1573.699 3628081 3655346 3693941 3738822 3780399 3806036 3805836 3778060 
1577.556 3730033 3671619 3611843 3555516 3505209 3461687 3424683 3395028 
1581.413 3374892 3366610 3372921 3393926 3426753 3464961 3501034 3527856 
1585.271 3542053 3543857 3536742 3525084 3510821 3493718 3471574 3443085 
1589.128 3409554 3376194 3350249 3338629 3344372 3365141 3393892 3421677 
1592.986 3440312 3446458 3441047 3429859 3419406 3415399 3421343 3437908 
1596.843 3464760 3500967 3545561 3596508 3650367 3701660 3743535 3769236 
1600.701 3775352 3761549 3731102 3689129 3640978 3590561 3541252 3495723 
1604.558 3456878 3428523 3413929 3415866 3434568 3467466 3509785 3555783 
1608.415 3600517 3642047 3680574 3717968 3755165 3791897 3825992 3854740 
1612.273 3876035 3889241 3894991 3894122 3887937 3877941 3866641 3857348 
1616.130 3856111 3866708 3889174 3918027 3945578 3965038 3973330 3971157 
1619.988 3962196 3951931 3946714 3953602 3977811 4021451 4081785 4152297 
1623.845 4224426 4292050 4351786 4403229 4446845 4483803 4515976 4546043 
1627.703 4577182 4612209 4650454 4688769 4720958 4740989 4744373 4729332 
1631.560 4697478 4652162 4598480 4541824 4489293 4451029 4440585 4474228 
1635.417 4560608 4689908 4834324 4964175 5062284 5127289 5168463 5199849 
1639.275 5236066 5288654 5363958 5461352 5573837 5690951 5804100 5909017 
1643.132 6006768 6103500 6207078 6325908 6465555 6627418 6806203 6989944 
1646.990 7163152 7313953 7437300 7535498 7613114 7674860 7725923 7772099 
1650.847 7822937 7892844 8001473 8167082 8381362 8591083 8728519 8772505 
1654.704 8745220 8675649 8581621 8471157 8347921 8214522 8075730 7937588 
1658.562 7805867 7685349 7577339 7480649 7392439 7310515 7234200 7164769 
1662.419 7103904 7051702 7006343 6964691 6925266 6888941 6858947 6839727 
1666.277 6833938 6840703 6854504 6864973 6859183 6829259 6778942 6725264 
1670.134 6691144 6690942 6725837 6785067 6854370 6921529 6980987 7032776 
1673.992 7082281 7135632 7195356 7257682 7314593 7358771 7389136 7409931 
1677.849 7428806 7453311 7489009 7537891 7597907 7663832 7730071 7794094 
1681.706 7857316 7925137 8004881 8102836 8217257 8334545 8436832 8516232 
1685.564 8579154 8638603 8705667 8788767 8894171 9025782 9185116 9370035 
1689.421 9574511 9789350 10004397 10211750 10407017 10591031 10768603 
1692.797 10948014 11139703 11355658 11606194 11896000 12216295 12542830 
1696.172 12846709 13113781 13352246 13585406 13844279 14160366 14559457 
1699.547 15043564 15568632 16050462 16418980 16663676 16818466 16927284 
1702.922 17023964 17134452 17276136 17458394 17677722 17915186 18142104 
1706.297 18332260 18476894 18586266 18683696 18794124 18937562 19123116 
1709.673 19348170 19601282 19869142 20143588 20424632 20720802 21044928 
1713.048 21409150 21820048 22277616 22777846 23319870 23911722 24572434 
1716.423 25322760 26171504 27095048 28037878 28942806 29782160 30571410 
1719.798 31355046 32180954 33092954 34126288 35307116 36653224 38174532 
1723.174 39874040 41747404 43785088 45972472 48291192 50725272 53269552 
1726.549 55943576 58804092 61945532 65482364 69508856 74047912 79012880 
1729.924 84226576 89473616 94632392 99760800 105157696 111341920 118983640 
1733.299 128610224 140076432 152286672 163713280 173421312 181459216 
1736.193 188429408 194986432 201633296 208678176 216245408 224256576 
1739.086 232468976 240500880 247945776 254480656 259891504 264063120 
1741.979 266966160 268661568 269307040 269113088 268272720 266858192 
1744.872 264799200 261928880 258094992 253250272 247506992 241078320 
1747.765 234209584 227035344 219520144 211481296 202738512 193273552 
1750.658 183316864 173320912 163778688 155029680 147159008 140044736 
1753.551 133451176 127120448 120826360 114397352 107737088 100869168 
1756.444 93949208 87233840 80991896 75391592 70463720 66118592 62198848 
1759.819 58523704 54931212 51322660 47693440 44149128 40855976 37961316 
1763.194 35524216 33508298 31811938 30319536 28928888 27573002 26223450 
1766.570 24890078 23608750 22420952 21356556 20420012 19594730 18853570 
1769.945 18173992 17541702 16948438 16388219 15851267 15326990 14813939 
1773.320 14318582 13853138 13427868 13044906 12698377 12376941 12070120 
1776.695 11773831 11492577 11236940 11015673 10830119 10668415 10509826 
1780.071 10330732 10119762 9884318 9648122 9436942 9266616 9136353 9030315 
1783.928 8924914 8800737 8653408 8495181 8348259 8230899 8149289 8094802 
1787.786 8050582 7998570 7928072 7838152 7737222 7635033 7538397 7444379 
1791.643 7342158 7218736 7069652 6901868 6730447 6568949 6426007 6305838 
1795.500 6209833 6139457 6096847 6082667 6093554 6120302 6149102 6164394 
1799.358 6155655 6121814 6072923 6024843 5990038 5971327 5960040 5941430 
1803.215 5902198 5837782 5752290 5656005 5557963 5462694 5367077 5264103 
1807.073 5148513 5021925 4894603 4782461 4698985 4649148 4625404 4611071 
1810.930 4586257 4537438 4462612 4369926 4271504 4176952 4090649 4012990 
1814.787 3943705 3885663 3845447 3830672 3845213 3885429 3939392 3991221 
1818.645 4028808 4047938 4054393 4058942 4072353 4098442 4131724 4159791 
1822.502 4168990 4148417 4094663 4012021 3911774 3807841 3712087 3632959 
1826.360 3575326 3541485 3532032 3544793 3572620 3600984 3611676 3588155 
1830.217 3525485 3433733 3332652 3240708 3166806 3110870 3065920 3023911 
1834.075 2979337 2932366 2887601 2851245 2826098 2810357 2798919 2786613 
1837.932 2772074 2758402 2751067 2753401 2763604 2774542 2776509 2762237 
1841.789 2731327 2692784 2661879 2656278 2685750 2746532 2822597 2895439 
1845.647 2953415 2993983 3019507 3030818 3024111 2991814 2927896 2835203 
1849.504 2727359 2627476 2558444 2533314 2550312 2592275 2633776 2648911 
1853.362 2624275 2561044 2474928 2386030 2312173 2264008 2243991 2250486 
1857.219 2281029 2333493 2404854 2488091 2571710 2639010 2676181 2676614 
1861.077 2645144 2595675 2544213 2500987 2465597 2428644 2378967 2312640 
1864.934 2238796 2177418 2152843 2182680 2267739 2388096 2505086 2579142 
1868.791 2585109 2523916 2418548 2298283 2183512 2081656 1992773 1916919 
1872.649 1860646 1836488 1857118 1928202 2041340 2175554 2301514 2392993 
1876.506 2436774 2434475 2398724 2343520 2277365 2200163 2107459 1998531 
1880.364 1882309 1777796 1708500 1691469 1730355 1813130 1917984 2020468 
1884.221 2105262 2171091 2227206 2286025 2355413 2434042 2513851 2584542 
1888.078 2639610 2679948 2710888 2736262 2753167 2751833 2720991 2656112 
1891.936 2564544 2463132 2373736 2314505 2291954 2297883 2312007 2313439 
1895.793 2289123 2241627 2186576 2146949 2142354 2183679 2270237 2392060 
1899.651 2531381 2667580 2780944 2852880 2870423 2829600 2739529 2624376 
1903.508 2516617 2451269 2451069 2519383 2637843 2774475 2892604 2964925 
1907.366 2983240 2957519 2909249 2859083 2819528 2791082 2767472 2741730 
1911.223 2713289 2687716 2672714 2671247 2679281 2684749 2674548 2639143 
1915.080 2576776 2493456 2398624 2300648 2204559 2113553 2032252 1969007 
1918.938 1934559 1935457 1969573 2022432 2072135 2093009 2067607 1996601 
1922.795 1902077 1819817 1781921 1804479 1881677 1990576 2104030 2202694 
1926.653 2280896 2345019 2404821 2465697 2522416 2563244 2576876 2562877 
1930.510 2535347 2518017 2530781 2578509 2644544 2696351 2695751 2617409 
1934.368 2459299 2241760 1997766 1758466 1546531 1373122 1245138 1173269 
1938.225 1174997 1273118 1484021 1807873 2217081 2655745 3055242 3345107 
1942.082 3484366 3474413 3358129 3194643 3038025 2921191 2849478 2810958 
1945.940 2785980 2757602 2715189 2655278 2578509 2490157 2398957 2317004 
1949.797 2259978 2240061 2260578 2311274 2367873 2396425 2365074 2256015 
1953.655 2072201 1836421 1582112 1347761 1163800 1050359 1017810 1068693 
1957.512 1201477 1408988 1679028 1988379 2303346 2590075 2818328 2976668 
1961.370 3072427 3125287 3155224 3169476 3159096 3104363 2985175 2796651 
1965.227 2555411 2300914 2085019 1954861 1941714 2047233 2248854 2503187 
1969.084 2768606 3009698 3202187 3330682 3387581 3371185 3287045 3151153 
1972.942 2986343 2819562 2682015 2602975 2608675 2719424 2941372 3261439 
1976.799 3643584 4033123 4363600 4573164 4624667 4517182 4290009 4003660 
1980.657 3724752 3498629 3338262 3225986 3124386 2993216 2805155 2559278 
1984.514 2277665 1998964 1763223 1605924 1551452 1607653 1769312 2018604 
1988.371 2327797 2661712 2985175 3263809 3471941 3601319 3662162 3681677 
1992.229 3688962 3704868 3730367 3749082 3735781 3671519 3554280 3402041 
1996.086 3245248 3120115 3054608 3061249 3136067 3260838 3411825 3562665 
1999.944 3687692 3762618 3762518 3668912 3475615 3197313 2870757 2549845 
2003.801 2294252 2148881 2136294 2249820 2456667 2707021 2953582 3161399 
2007.659 3313120 3408219 3454373 3466630 3462122 3463391 3494420 3575193 
2011.516 3713824 3901912 4110383 4297337 4422643 4461507 4414810 4306339 
2015.373 4174008 4054193 3969184 3923878 3909902 3916689 3937720 3972996 
2019.231 4024260 4085364 4138682 4158285 4119916 4015900 3864769 3706740 
2023.088 3587387 3542087 3578099 3668177 3760112 3795541 3733575 3564068 
2026.946 3312285 3027415 2772074 2601308 2555911 2657712 2906280 3283673 
2030.803 3754497 4265883 4742765 5097786 5248776 5134699 4743200 4113427 
2034.661 3336592 2526649 1806641 1278900 997817 967065 1139017 1437910 
2038.518 1774136 2071835 2282694 2388362 2405554 2373670 2342387 2350749 
2042.375 2419714 2544913 2703486 2862318 2991481 3077099 3121216 3140906 
2046.233 3155692 3180357 3214036 3243412 3244714 3197513 3090547 2926995 
2050.090 2720491 2491823 2259612 2038277 1839216 1671577 1545467 1475776 
2053.948 1475843 1555177 1710995 1924241 2158837 2369972 2518284 2577276 
2057.805 2544146 2439107 2301847 2175121 2093642 2071935 2100867 2153243 
2061.662 2194835 2201529 2163799 2092876 2012379 1949003 1921213 1931863 
2065.520 1970072 2018670 2063745 2099602 2130767 2165863 2210754 2264108 
2069.377 2316104 2353248 2369006 2365974 2358511 2365941 2404654 2476994 
2073.235 2569276 2655845 2710021 2714523 2668313 2586742 2495489 2417282 
2077.092 2363942 2334526 2318469 2304079 2286991 2272535 2274933 2308942 
2080.949 2381466 2485958 2603308 2708321 2776109 2791816 2752900 2668446 
2084.807 2554111 2427278 2304479 2199331 2122576 2083288 2086717 2132032 
2088.664 2210287 2304246 2388729 2439273 2439040 2383964 2285459 2166862 
2092.522 2056920 1977927 1940216 1937288 1948970 1948071 1910862 1828335 
2096.379 1710229 1583576 1484354 1448415 1495093 1622652 1804878 2001460 
2100.237 2166030 2262043 2274634 2212652 2105262 1988312 1893690 1835190 
2104.094 1806242 1784050 1742497 1663362 1546697 1411216 1288903 1212840 
2107.951 1202507 1258064 1357733 1466201 1544336 1563989 1515475 1409819 
2111.809 1273516 1141508 1047369 1012629 1044446 1135196 1265940 1411781 
2115.666 1549125 1660568 1737740 1781788 1802017 1811965 1823843 1846237 
2119.524 1880978 1924840 1971703 2015608 2055755 2095973 2144985 2213218 
2123.381 2309275 2434808 2583176 2737762 2876561 2974800 3010165 2970496 
2127.239 2855781 2680349 2469030 2253783 2063079 1915655 1816756 1759664 
2131.096 1730022 1715119 1709864 1721174 1765053 1857717 2008151 2209555 
2134.953 2438440 2657578 2828800 2923492 2928663 2848744 2701219 2510285 
2138.811 2298949 2090046 1905405 1765319 1690205 1696092 1791303 1972269 
2142.668 2224874 2528815 2862652 3213769 3577231 3951796 4329631 4685487 
2146.526 4973325 5137650 5123098 4900166 4477643 3907662 3270486 2660212 
2150.383 2165663 1847136 1732850 1818653 2076829 2466064 2935968 3437574 
2154.240 3912410 4301487 4550027 4614085 4470479 4124098 3609203 2981906 
2158.098 2319102 1705306 1210049 887540 764179 839665 1090450 1474978 
2161.955 1934758 2401089 2814059 3129192 3327276 3416033 3416868 3355157 
2165.813 3246650 3095553 2898942 2657812 2383764 2104929 1859015 1683618 
2169.670 1600303 1606256 1670746 1752012 1805410 1804279 1748186 1662364 
2173.528 1588597 1568678 1634825 1796327 2040009 2332593 2632243 2894005 
2177.385 3077466 3158128 3130460 3012200 2840039 2667480 2548079 2519983 
2181.242 2595909 2753768 2944175 3103095 3179189 3143810 3002424 2787981 
2185.100 2551545 2343387 2197699 2128003 2128536 2178717 2253550 2330728 
2188.957 2391660 2423613 2421147 2384897 2323499 2251785 2188574 2150446 
2192.815 2144951 2167228 2202095 2228971 2231169 2204626 2158038 2110023 
2196.672 2077295 2067041 2070337 2067773 2036180 1963182 1854889 1735711 
2200.530 1638683 1592588 1607986 1673640 1759131 1828169 1855122 1834358 
2204.387 1782986 1732517 1720908 1775799 1906469 2106427 2355480 2627576 
2208.244 2896006 3138837 3335223 3465929 3513760 3463925 3313020 3070192 
2212.102 2764838 2440839 2146117 1927702 1814494 1814727 1914057 2082589 
2215.959 2280129 2468696 2622709 2729626 2792316 2822430 2836337 2847076 
2219.817 2861485 2878595 2893872 2901610 2899275 2889902 2878995 2872791 
2223.674 2872358 2871957 2858950 2819295 2742030 2625542 2479926 2324599 
2227.531 2181847 2069538 1996101 1957058 1939751 1927769 1909265 1880545 
2231.389 1847069 1820982 1816723 1844640 1908866 2005788 2125106 2251752 
2235.246 2370038 2466530 2532214 2564610 2567443 2549412 2520850 2489524 
2239.104 2458166 2423313 2377601 2314605 2234599 2148914 2079925 2053192 
2242.961 2091178 2201695 2372537 2569843 2747799 2861618 2875093 2776909 
2246.819 2579876 2319935 2042039 1793233 1609815 1510753 1497985 1558136 
2250.676 1670513 1811732 1962649 2112953 2258080 2398990 2536247 2665579 
2254.533 2776376 2851545 2872925 2829400 2722691 2570143 2401856 2255815 
2258.391 2162167 2135195 2167062 2231002 2288623 2304345 2259279 2156872 
2262.248 2023430 1897584 1819851 1817588 1897517 2043471 2223342 2396925 
2266.106 2525782 2584876 2563944 2469429 2319069 2139557 1959521 1803880 
2269.963 1692167 1634825 1632729 1678696 1760396 1862775 1970272 2070803 
2273.821 2154775 2215516 2249887 2255848 2234200 2186976 2119945 2041007 
2277.678 1959387 1885703 1828269 1793433 1783950 1799056 1834691 1883341 
2281.535 1936422 1983286 2014343 2022698 2005521 1965146 1908633 1847169 
2285.393 1790871 1748452 1724467 1718745 1728625 1751247 1785181 1831264 
2289.250 1891461 1966976 2055855 2151411 2243425 2319535 2370405 2391194 
2293.108 2384064 2357246 2322633 2292687 2276099 2276765 2293020 2318802 
2296.965 2345752 2365741 2372404 2362076 2334093 2290189 2233534 2168327 
2300.823 2098703 2028524 1961484 1901012 1850397 1813163 1792767 1791702 
2304.680 1811300 1850862 1907135 1974931 2047133 2117115 2178817 2228504 
2308.537 2265208 2290322 2307010 2318369 2326864 2332627 2334226 2328896 
2312.395 2314505 2290422 2258913 2225207 2196333 2179283 2178551 2194569 
2316.252 2223409 2257980 2289889 2312873 2324565 2327364 2326997 2329795 
2320.110 2339456 2355180 2370738 2377534 2368906 2342288 2302114 2258413 
2323.967 2223775 2208689 2219013 2253950 2307976 2372171 2437107 2496155 
2327.824 2545812 2586209 2619275 2647311 2670480 2686583 2691551 2681415 
2331.682 2655712 2618909 2580576 2554545 2555644 2593209 2669013 2774042 
2335.539 2889302 2988945 3048669 3052473 2998788 2901110 2785713 2683682 
2339.397 2619742 2607575 2645077 2717056 2800086 2872391 2918489 2931865 
2343.254 2914152 2870990 2808223 2730027 2639377 2540180 2438940 2343287 
2347.112 2261377 2198498 2157938 2139224 2140123 2157039 2185844 2222810 
2350.969 2264408 2308010 2351415 2392560 2429177 2457966 2474861 2474861 
2354.826 2453968 2410652 2348617 2279130 2219912 2193803 2222843 2320235 
2358.684 2485725 2701586 2938270 3160464 3342302 3474647 3568545 3647059 
2362.541 3734845 3844644 3967780 4075196 4126907 4090649 3952298 3725788 
2366.399 3447059 3165471 2924793 2750633 2646577 2597875 2580009 2571343 
2370.256 2561244 2549212 2541813 2544846 2557778 2572776 2578176 2562510 
2374.114 2520850 2456400 2378601 2298549 2225141 2162067 2108025 2059351 
2377.971 2013278 1969406 1930764 1900812 1881311 1870262 1862442 1850962 
2381.828 1830299 1798889 1759697 1719078 1683585 1657774 1641510 1630767 
2385.686 1619326 1601500 1574896 1541843 1508060 1480298 1465071 1465104 
2389.543 1479699 1505101 1536855 1569442 1598740 1621156 1633594 1633827 
2393.401 1620657 1595448 1562426 1528442 1502674 1492832 1504070 1536755 
2397.258 1586868 1646466 1707502 1763623 1811133 1850031 1881211 1906003 
2401.115 1923809 1932295 1928202 1909465 1877018 1835157 1791270 1754008 
2404.973 1730854 1726130 1739736 1767083 1800952 1832362 1853891 1859880 
2408.830 1848167 1819618 1777496 1727029 1673440 1622353 1577956 1542674 
2412.688 1517636 1501510 1491901 1485518 1478569 1468196 1452870 1432524 
2416.545 1408822 1384656 1362951 1346897 1338721 1340017 1351850 1374950 
2420.403 1409853 1456859 1514776 1580749 1649359 1713356 1763623 1792102 
2424.260 1793067 1764754 1710695 1638982 1561827 1492034 1441500 1418363 
2428.117 1425144 1458289 1508126 1562426 1607320 1631798 1630601 1604760 
2431.975 1561362 1511086 1464905 1429698 1406761 1391304 1376213 1354143 
2435.832 1322701 1285613 1252049 1233674 1239156 1271556 1325693 1390407 
2439.690 1451606 1497653 1523421 1531102 1528575 1526314 1532266 1548626 
2443.547 1571338 1591856 1600968 1591889 1563723 1521460 1474745 1433388 
2447.405 1405365 1393398 1395326 1404501 1413210 1415504 1409121 1396124 
2451.262 1381831 1373022 1374817 1389310 1414706 1446520 1478935 1507062 
2455.119 1528343 1542574 1551386 1556673 1559200 1558336 1551951 1537320 
2458.977 1513646 1481794 1445589 1411182 1385421 1374452 1381964 1407725 
2462.834 1447052 1491269 1528475 1547196 1537886 1497055 1428103 1341712 
2466.692 1254209 1181641 1137488 1127821 1150345 1195961 1252780 1311136 
2470.549 1365344 1415869 1466467 1520761 1578720 1634326 1676899 1694928 
2474.406 1679228 1627242 1544237 1442032 1335530 1238326 1161242 1109318 
2478.264 1083275 1080120 1095433 1123935 1160445 1200480 1240585 1278468 
2482.121 1314260 1349357 1385919 1425510 1467631 1509689 1547928 1579120 
2485.979 1601900 1618694 1635091 1656710 1688309 1730688 1780790 1832129 
2489.836 1877084 1909731 1926737 1927636 1914457 1890196 1857750 1819751 
2493.694 1779293 1739503 1703443 1673540 1649758 1630102 1610280 1586436 
2497.551 1556374 1521626 1486448 1457191 1438408 1430928 1431128 1432358 
2501.408 1427172 1411681 1387349 1361189 1343274 1343274 1366873 1413875 
2505.266 1478203 1550289 1621289 1684749 1738273 1783751 1824309 1863008 
2509.123 1900113 1933460 1959155 1973600 1974499 1962816 1941814 1916354 
2512.981 1890662 1867501 1846636 1826239 1803447 1776997 1748086 1721506 
2516.838 1703177 1699252 1712425 1740069 1774202 1802749 1813895 1799056 
2520.696 1756337 1691868 1618462 1551253 1503571 1483356 1490870 1519132 
2524.553 1556307 1590659 1612376 1617597 1608717 1593186 1580849 1580749 
2528.410 1598740 1634792 1683818 1735977 1780856 1809403 1816889 1804113 
2532.268 1776598 1742331 1708566 1679727 1656244 1635124 1612342 1585371 
2536.125 1554246 1522391 1494860 1476773 1471554 1480497 1502740 1536822 
2539.983 1580815 1632696 1688608 1743362 1788775 1816257 1819252 1795462 
2543.840 1749484 1691968 1637585 1599771 1588364 1606489 1651255 1715286 
2547.698 1790505 1869963 1948271 2021466 2084952 2132232 2156273 2150945 
2551.555 2113952 2048964 1966078 1879480 1803614 1750615 1725897 1728160 
2555.412 1750182 1781588 1811266 1830066 1832262 1815958 1782919 1737574 
2559.270 1686346 1636521 1593752 1562426 1544004 1537620 1540812 1551386 
2563.127 1567547 1588963 1615701 1647197 1680991 1713024 1738106 1751879 
2566.985 1752511 1741499 1723170 1703044 1685947 1674471 1668817 1668584 
2570.842 1673207 1684317 1705173 1739071 1788309 1851428 1923742 1997000 
2574.699 2062846 2113886 2146117 2159137 2155174 2138359 2112953 2083421 
2578.557 2054323 2030121 2015974 2016540 2034616 2070437 2120745 2178884 
2582.414 2236164 2284293 2316870 2330295 2325298 2305511 2276899 2245490 
2586.272 2216715 2194102 2178850 2169826 2165131 2162467 2160735 2160336 
2590.129 2163033 2170592 2183646 2200163 2215749 2224741 2222377 2206791 
2593.987 2180515 2150446 2124773 2111022 2112587 2127670 2149846 2171358 
2597.844 2186210 2192238 2193136 2196001 2209555 2239495 2287224 2348750 
2601.701 2416016 2478927 2528515 2559177 2569610 2562244 2542946 2519417 
2605.559 2499155 2488591 2491390 2507986 2535414 2568343 2600875 2628309 
2609.416 2648211 2660979 2668780 2674281 2678115 2678881 2673514 2659312 
2613.274 2635676 2605575 2576076 2555611 2551278 2566377 2598808 2642243 
2617.131 2687750 2727392 2756802 2775209 2785046 2789648 2791282 2789982 
2620.989 2784279 2772808 2756068 2737329 2722658 2718457 2729360 2756768 
2624.846 2797551 2845142 2891870 2930831 2957319 2970062 2969795 2958853 
2628.703 2939905 2915120 2886633 2856482 2827132 2801887 2783579 2775075 
2632.561 2777510 2790415 2811825 2838772 2868155 2896740 2922725 2944742 
2636.418 2962389 2975634 2984909 2990847 2994484 2997219 3000823 3006962 
2640.276 3017538 3034021 3056744 3085008 3116944 3149283 3178188 3199316 
2644.133 3209163 3205224 3187500 3158095 3121650 3084507 3054041 3036156 
2647.990 3035389 3052573 3085408 3128291 3174049 3215639 3247484 3267348 
2651.848 3276061 3277463 3276829 3279099 3287779 3304372 3328579 3358563 
2655.705 3393058 3431295 3473077 3518971 3568478 3619995 3670449 3715729 
2659.563 3752391 3778026 3792532 3798014 3797747 3794906 3791596 3788154 
2663.420 3783675 3776656 3766362 3753494 3740259 3730133 3725956 3729765 
2667.278 3741630 3759844 3781603 3804030 3824788 3842605 3857013 3868246 
2671.135 3876971 3883390 3888572 3893420 3899203 3907528 3919531 3935212 
2674.992 3953134 3970957 3985502 3993762 3994531 3988043 3976774 3964369 
2678.850 3954438 3950125 3953101 3962931 3978012 3996069 4014161 4029745 
2682.707 4040714 4045196 4042219 4031417 4013291 3989616 3963031 3937018 
2686.565 3914683 3898501 3889608 3886900 3888004 3889341 3887201 3878074 
2690.422 3859922 3831908 3795006 3751489 3704701 3659122 3618792 3587420 
2694.280 3567375 3558355 3558088 3562164 3565304 3562665 3551374 3531664 
2698.137 3506946 3482429 3464593 3458314 3465962 3486470 3515898 3548367 
2701.994 3577665 3598379 3607500 3604058 3589692 3567776 3542955 3520207 
2705.852 3504307 3498829 3505242 3522578 3547198 3574525 3598712 3616019 
2709.709 3624873 3626844 3625441 3624973 3629016 3638238 3650735 3662797 
2713.567 3670215 3670516 3663566 3652004 3640276 3632758 3632257 3639207 
2717.424 3652071 3667977 3683782 3697650 3708945 3718570 3727794 3738254 
2721.281 3750887 3766328 3784611 3805067 3826560 3847887 3867109 3883056 
2725.139 3895091 3904018 3912276 3923276 3940027 3964235 3995468 4030581 
2728.996 4064360 4091552 4107908 4111053 4101820 4082755 4058072 4031718 
2732.854 4007506 3988111 3974869 3968148 3967211 3969853 3972963 3972929 
2736.711 3966576 3952532 3931635 3907428 3885195 3869783 3865003 3871221 
2740.569 3886265 3905489 3924111 3938489 3947116 3950459 3950392 3948119 
2744.426 3944374 3938322 3928726 3915018 3897498 3878208 3860089 3845881 
2748.283 3837190 3834215 3835452 3839062 3843475 3847987 3853269 3860490 
2752.141 3870686 3884226 3899872 3915285 3928057 3935613 3937085 3933206 
2755.998 3926385 3920166 3918327 3923510 3936449 3955742 3978212 3999982 
2759.856 4017973 4030715 4039042 4045865 4054527 4067805 4086200 4108042 
2763.713 4129851 4147948 4159924 4166013 4169258 4173942 4184981 4205423 
2767.571 4236070 4275319 4319658 4365843 4410827 4453238 4493244 4531746 
2771.428 4569749 4608224 4647406 4687296 4727389 4767018 4805444 4841896 
2775.285 4874934 4903550 4926640 4943698 4954959 4961829 4966689 4973023 
2779.143 4985290 5007612 5043881 5095808 5162360 5239353 5320484 5398411 
2783.000 5466922 5523732 5570481 5612939 5658288 5713276 5781031 5860115 
2786.858 5945058 6028774 6104979 6170308 6225530 6274338 6321740 6371399 
2790.715 6424931 6481430 6538675 6594314 6647302 6698244 6748485 6799707 
2794.573 6853427 6910284 6971324 7037457 7110236 7190640 7279313 7374375 
2798.430 7472929 7570461 7663731 7751254 7833868 7914811 7997557 8084945 
2802.287 8177414 8273348 8370586 8467475 8564318 8663785 8769698 8885682 
2806.145 9013468 9152087 9298604 9449674 9602152 9755123 9909268 10066213 
2810.002 10227524 10393510 10563395 10735759 10910026 11086708 11267984 
2813.377 11456889 11656563 11868792 12093219 12327647 12568375 12811728 
2816.753 13054910 13297067 13539427 13785206 14038448 14304267 14586183 
2820.128 14886970 15207558 15547477 15905602 16280672 16672421 17080720 
2823.503 17506894 17952030 18417084 18902676 19409668 19939072 20492882 
2826.878 21073726 21684084 22325436 22997572 23698252 24424390 25173266 
2830.254 25944082 26738786 27561988 28419084 29315698 30255764 31241948 
2833.629 32277196 33365798 34515392 35737068 37044308 38451024 39970624 
2837.004 41614900 43395064 45324204 47418324 49697868 52187280 54910836 
2840.379 57891496 61148092 64693296 68535376 72679032 77126248 81875576 
2843.755 86920400 92246432 97825896 103621464 109582328 115646248 121749112 
2847.130 127819184 133781328 139561552 145077184 150243168 154974432 
2850.023 159182496 162786336 165712464 167897552 169295712 169878704 
2852.916 169641536 168603328 166810128 164330192 161244416 157645152 
2855.809 153622416 149259024 144636816 139828336 134904368 129936072 
2858.702 124986144 120113056 115365344 110776672 106371752 102166688 
2861.595 98171856 94397984 90855784 87555160 84505824 81713456 79180312 
2864.970 76905768 74887488 73121880 71603896 70325088 69270128 68414608 
2868.346 67725640 67159600 66669592 66209188 65734208 65210880 64614384 
2871.721 63930684 63156420 62296892 61366100 60382348 59369212 58350928 
2875.096 57349960 56387476 55480728 54644596 53892920 53238160 52692368 
2878.471 52265676 51964756 51791468 51742456 51809912 51983056 52250356 
2881.847 52602188 53030824 53531236 54100000 54735468 55436644 56203592 
2885.222 57037296 57939048 58909840 59948224 61050420 62209132 63415044 
2888.597 64659068 65933936 67235920 68565208 69924624 71316184 72740616 
2891.972 74194344 75670864 77161312 78657824 80155472 81654192 83158216 
2895.348 84675320 86214592 87783352 89386048 91023648 92694312 94395104 
2898.723 96124536 97883296 99676048 101509016 103389552 105324384 107317368 
2902.098 109370824 111485592 113663096 115906088 118218968 120606904 
2904.991 123074336 125623824 128256160 130972056 133773032 136664304 
2907.884 139654912 142756144 145979504 149334080 152824704 156451792 
2910.777 160212896 164104816 168123776 172265552 176524080 180888032 
2913.670 185339872 189856128 194405648 198954128 203463392 207888752 
2916.563 212183744 216293856 220160608 223727968 226942768 229761280 
2919.457 232151856 234090544 235559168 236542336 237025920 237001136 
2922.350 236468672 235443584 233954064 232039808 229745632 227111808 
2925.243 224174224 220962208 217500512 213815600 209936176 205894128 
2928.136 201723888 197456912 193121504 188740832 184332016 179908352 
2931.029 175479440 171051968 166631824 162226016 157843264 153497504 
2933.922 149206240 144988944 140865200 136849200 132949352 129167320 
2936.815 125500488 121945016 118499768 115166640 111951760 108862408 
2939.708 105905360 103085080 100403640 97860800 95455752 93187872 91056424 
2943.083 89061048 87200544 85473064 83877560 82413384 81082296 79887088 
2946.458 78831280 77917728 77146592 76514840 76016336 75642504 75381656 
2949.834 75219296 75138184 75115928 75126048 75141096 75132152 75075632 
2953.209 74954184 74757152 74480080 74120840 73676936 73143880 72514904 
2956.584 71784064 70948352 70010224 68976840 67858368 66666232 65410324 
2959.959 64098240 62736816 61333012 59894596 58430676 56949080 55455208 
2963.335 53950996 52435188 50906104 49363600 47812384 46262120 44726404 
2966.710 43219744 41755576 40342788 38986228 37686364 36441072 35247424 
2970.085 34102380 33003676 31949614 30938304 29968004 29037098 28143922 
2973.460 27287330 26466620 25681624 24933100 24221844 23548616 22913874 
2976.836 22316786 21755142 21224774 20719866 20234460 19762428 19299430 
2980.211 18844192 18398106 17964636 17549122 17156822 16791602 16456146 
2983.586 16151279 15875908 15627775 15403884 15201245 15017084 14850042 
2986.961 14700338 14569702 14460652 14375500 14315226 14278688 14262595 
2990.337 14262835 14276291 14302282 14343616 14406634 14499466 14629464 
2993.712 14802180 15019896 15281822 15585254 15926808 16303411 16711744 
2997.087 17148308 17608328 18084586 18569010 19052728 19527108 19985978 
3000.462 20424390 20838562 21225886 21583504 21908866 22199878 22455112 
3003.838 22673768 22854672 22995196 23090964 23135590 23121856 23044214 
3007.213 22900320 22691430 22421650 22097404 21724418 21306478 20845864 
3010.588 20344312 19804460 19231786 18634096 18021272 17403416 16788262 
3013.963 16181303 15585254 15001341 14430268 13873321 13331984 12807667 
3017.339 12300991 11811724 11338959 10882404 10443433 10024945 9630641 
3020.714 9264213 8926976 8617107 8329715 8058211 7796151 7538600 7283323 
3024.571 7030925 6783687 6544327 6315654 6100073 5900082 5718514 5558366 
3028.429 5421794 5309315 5218292 5143316 5075693 5007143 4931164 4845012 
3032.286 4750469 4653267 4560106 4476304 4403865 4340976 4282982 4224226 
3036.144 4160660 4091953 4021117 3953870 3896228 3852701 3823719 3806237 
3040.001 3794337 3781569 3762384 3734244 3698118 3657451 3616854 3580004 
3043.858 3549503 3525217 3505342 3487372 3468802 3447994 3423948 3396831 
3047.716 3366644 3333453 3297127 3258000 3216606 3174883 3135333 3101126 
3051.573 3074863 3058079 3050538 3050104 3052239 3052807 3047034 3032219 
3055.431 3007863 2975834 2940138 2906047 2878128 2860117 2853647 2858249 
3059.288 2872158 2892571 2916254 2940572 2963157 2982406 2997320 3007429 
3063.146 3012901 3014402 3012767 3009030 3003258 2995051 2983407 2967160 
3067.003 2945643 2918889 2887834 2853513 2816694 2777109 2733561 2684549 
3070.860 2629809 2570676 2511652 2458900 2418748 2395859 2391527 2402789 
3074.718 2422946 2444371 2459999 2465297 2459366 2444405 2424179 2402222 
3078.575 2380933 2361110 2342021 2322666 2302314 2280829 2258646 2236164 
3082.433 2213251 2189074 2162833 2133597 2101733 2068406 2036613 2009949 
3086.290 1991508 1984085 1988279 2002526 2022898 2044536 2062014 2071136 
3090.147 2070170 2059717 2043371 2025827 2012046 2005055 2005921 2012745 
3094.005 2022066 2030088 2033251 2029755 2019203 2002659 1981788 1959155 
3097.862 1937487 1919782 1909132 1907834 1916919 1934891 1957723 1979824 
3101.720 1994670 1997533 1986548 1963015 1930864 1895421 1861677 1832794 
3105.577 1810035 1793732 1782819 1776698 1774934 1776564 1780158 1783019 
3109.435 1782187 1774768 1760163 1739936 1719078 1703510 1699651 1711593 
3113.292 1739803 1780025 1824942 1865005 1890695 1895321 1875820 1833792 
3117.149 1775067 1708433 1643073 1587101 1545633 1520495 1509988 1510121 
3121.007 1516273 1524452 1532000 1538019 1543073 1548227 1554811 1563590 
3124.864 1575362 1590227 1607919 1626776 1644304 1656377 1658971 1649326 
3128.722 1626543 1593220 1554944 1518534 1490305 1474346 1470856 1477605 
3132.579 1489507 1502308 1513513 1522623 1531368 1541410 1554079 1568478 
3136.437 1583310 1595647 1603596 1605757 1601600 1591025 1573766 1550023 
3140.294 1520263 1486515 1452238 1421654 1399481 1388645 1390107 1401742 
3144.151 1420191 1440902 1459984 1474978 1484321 1487612 1484985 1476773 
3148.009 1464506 1450310 1437777 1430596 1431693 1441799 1459386 1480863 
3151.866 1501510 1518301 1529872 1537121 1542474 1548127 1554113 1559101 
3155.724 1560298 1554844 1541510 1521227 1496622 1470822 1446719 1425609 
3159.581 1408523 1395459 1387282 1385022 1389376 1399847 1414174 1428768 
3163.438 1439738 1444558 1443528 1439439 1436547 1438043 1445090 1454964 
3167.296 1463375 1464805 1456061 1437112 1411049 1382761 1356868 1336394 
3171.153 1322070 1313030 1308244 1307081 1309474 1315390 1323765 1331908 
3175.011 1336228 1333436 1322003 1303392 1281891 1263181 1252182 1251817 
3178.868 1261786 1279797 1302063 1325892 1349623 1372524 1394661 1414972 
3182.726 1431228 1441167 1442464 1434386 1417897 1395659 1370596 1345169 
3186.583 1320940 1298042 1276241 1255439 1236332 1219618 1206261 1197124 
3190.440 1192174 1191210 1194366 1201643 1212906 1227261 1241881 1252714 
3194.298 1255273 1245968 1224303 1193503 1160378 1132937 1118553 1120380 
3198.155 1137522 1164697 1195164 1223174 1245802 1263580 1279498 1297178 
3202.013 1317783 1340682 1362153 1378141 1384556 1379803 1364447 1341081 
3205.870 1312831 1282422 1251351 1221213 1192971 1168186 1149249 1138684 
3209.728 1138053 1146956 1162970 1182173 1199815 1211378 1214236 1207590 
3213.585 1193004 1172471 1148784 1124200 1099950 1077197 1056404 1038667 
3217.442 1025449 1018109 1017743 1024618 1037571 1054643 1073144 1091081 
3221.300 1107292 1121875 1135927 1150843 1167388 1185063 1201643 1214302 
3225.157 1220383 1218389 1208886 1193868 1177056 1161408 1149216 1140545 
3229.015 1134166 1127489 1118520 1106362 1091646 1076101 1062150 1051322 
3232.872 1043716 1038402 1032921 1025714 1015319 1001902 986791 972013 
3236.729 959494 950661 946576 947672 954380 967098 986193 1010902 1039564 
3241.069 1068560 1093805 1110879 1117124 1112075 1097791 1078359 1058197 
3244.927 1040561 1025814 1012396 997219 977493 952919 925856 901418 885182 
3249.266 881265 890528 910317 934988 957867 973508 979585 977293 970120 
3253.606 963180 960789 965172 976397 992570 1010769 1027773 1041424 1049429 
3257.945 1050824 1045642 1034250 1018408 1000208 982275 967231 956671 951458 
3262.285 951790 956970 967132 981644 1000407 1022094 1043948 1061984 1071251 
3266.625 1067697 1049661 1019006 980913 943023 912475 894578 890395 897467 
3270.964 909719 920377 924462 919116 905203 886112 866457 851052 842952 
3275.304 844014 854040 872035 896205 924130 953550 982109 1008212 1030563 
3279.643 1048964 1063512 1075038 1084538 1092277 1098489 1103006 1105265 
3283.501 1105431 1103704 1101113 1098456 1096595 1095865 1095831 1095234 
3287.358 1092709 1086331 1074573 1057002 1033885 1007780 982408 962449 
3291.216 952056 954380 969489 993599 1020434 1042055 1051521 1045244 1023921 
3295.555 993334 962184 939802 934025 947672 978921 1021164 1065837 1104535 
3299.895 1130944 1142737 1140811 1128386 1110049 1090317 1072812 1060356 
3303.752 1054975 1058064 1070122 1090716 1117889 1147754 1175129 1195031 
3307.610 1202905 1196692 1177621 1149548 1118320 1089985 1069956 1060688 
3311.467 1062847 1074207 1091380 1109949 1125363 1133336 1129881 1112441 
3315.324 1080153 1035080 981710 928413 884717 859784 860315 888336 940035 
3319.664 1006286 1075237 1134964 1176325 1195297 1193469 1176824 1153202 
3323.521 1130545 1113769 1104236 1100083 1097260 1092377 1082777 1068760 
3327.379 1052119 1036376 1024220 1017345 1015684 1017677 1021264 1024884 
3331.236 1028139 1031992 1037937 1047170 1059393 1072945 1084172 1089055 
3335.094 1084305 1068793 1044480 1015053 986359 963877 950960 949001 956206 
3339.433 968659 981478 990245 991607 984732 970419 952056 933892 920510 
3343.773 915862 922702 941629 970951 1007049 1045144 1080219 1108255 1126891 
3348.113 1136425 1138552 1136160 1131941 1127356 1122506 1115630 1104302 
3351.970 1086863 1062715 1033752 1003529 976729 957767 949797 953616 967464 
3356.310 987455 1009474 1028770 1042553 1049196 1049030 1043384 1034549 
3360.167 1024718 1016216 1011234 1011234 1017611 1030563 1049196 1071616 
3364.024 1094868 1115397 1130578 1138286 1138286 1131941 1121211 1108155 
3367.882 1094503 1080718 1066634 1051588 1035213 1017743 1000507 985728 
3371.739 975733 973176 979552 995758 1020434 1051289 1084172 1114434 1137688 
3376.079 1151109 1153833 1147654 1136160 1123802 1113803 1107790 1104867 
3379.936 1102641 1098290 1090749 1081116 1072812 1069989 1075469 1089852 
3383.794 1109650 1128652 1139648 1137389 1120048 1089985 1053381 1018142 
3387.651 991175 977194 977327 989780 1010404 1034350 1057367 1076765 1091447 
3391.991 1102209 1111212 1120745 1133735 1151940 1175196 1202274 1230085 
3395.848 1254940 1272818 1280362 1276540 1261719 1237894 1208321 1177355 
3399.706 1148883 1127489 1117291 1120679 1139116 1170976 1212807 1257865 
3403.563 1298906 1329216 1343740 1340615 1321006 1288504 1247663 1203603 
3407.420 1160843 1123170 1093838 1076001 1071384 1080651 1101943 1131509 
3411.278 1162903 1189549 1204866 1204500 1187057 1153701 1108222 1055607 
3415.135 1002068 953550 915629 893450 889665 905336 937843 981876 1029235 
3419.475 1071351 1101179 1114999 1113670 1101811 1086331 1073609 1067464 
3423.332 1068693 1074971 1082611 1087627 1087926 1083707 1077728 1073443 
3427.190 1075370 1086298 1107325 1136658 1170445 1203071 1228424 1242313 
3431.047 1242579 1230085 1209285 1185861 1165461 1151940 1146192 1146192 
3434.905 1148086 1148020 1143734 1135661 1127256 1122440 1125097 1136857 
3438.762 1156558 1180046 1201776 1216728 1221346 1215432 1201709 1186093 
3442.619 1174963 1174631 1189183 1218954 1260457 1306749 1349756 1381332 
3446.477 1396656 1396191 1385686 1374252 1371028 1381897 1407060 1441101 
3450.334 1475211 1500479 1510886 1505533 1489108 1469792 1456826 1455828 
3454.192 1469060 1494428 1527411 1563789 1601268 1640080 1681323 1725265 
3458.049 1769944 1810135 1839316 1850862 1841645 1812730 1770609 1724534 
3461.906 1684317 1658206 1650157 1660435 1686013 1722138 1764288 1807839 
3465.764 1850297 1888898 1922544 1949868 1971203 1987081 1998798 2007286 
3469.621 2013044 2015475 2013344 2005688 1992906 1977428 1962350 1952298 
3473.479 1950101 1956159 1967675 1979525 1986182 1983552 1970971 1950934 
3477.336 1928069 1906469 1888532 1872725 1854855 1829633 1793333 1745824 
3481.194 1691535 1637885 1593153 1562925 1548726 1547562 1553514 1560630 
3485.051 1564687 1564122 1559965 1554212 1548293 1542508 1535392 1525317 
3488.908 1511717 1495791 1480597 1469625 1465470 1468362 1475876 1483955 
3492.766 1489374 1489507 1485119 1478502 1472618 1469060 1467032 1462910 
3496.623 1452737 1433355 1404434 1369333 1333736 1303592 1283320 1274480 
3500.481 1275344 1282522 1292060 1301199 1308676 1314858 1319876 1322735 
3504.338 1320907 1311535 1293057 1265674 1232843 1200580 1175561 1163302 
3508.196 1166624 1184565 1212242 1242812 1270392 1291362 1305386 1314924 
3512.053 1323732 1334733 1348925 1365078 1379471 1388113 1387049 1374884 
3515.910 1352614 1324363 1296014 1274214 1263813 1266737 1280927 1301365 
3519.768 1321073 1333736 1335065 1324995 1307114 1287175 1272253 1267800 
3523.625 1275643 1294187 1319079 1345269 1368037 1384988 1395991 1402905 
3527.483 1408855 1417266 1430962 1450276 1473249 1494860 1508625 1506996 
3531.340 1484653 1440403 1377676 1305154 1234272 1177056 1141641 1131077 
3535.198 1141010 1162804 1184532 1196892 1195596 1182040 1162571 1143800 
3539.055 1131442 1127722 1131276 1139116 1148285 1156956 1165495 1175595 
3542.912 1188984 1206560 1226928 1247597 1264876 1276042 1279265 1275344 
3546.770 1265873 1254409 1244307 1239190 1242047 1254442 1275676 1302628 
3550.627 1328518 1344504 1341579 1313994 1261819 1192240 1117025 1050491 
3554.485 1004027 985330 996488 1034516 1092476 1160578 1228856 1286709 
3558.342 1325992 1341114 1330146 1295582 1243543 1183435 1124234 1073177 
3562.199 1034981 1010769 999809 1001138 1014854 1042254 1084770 1141973 
3566.057 1207491 1270193 1314625 1328285 1308145 1260822 1198752 1134598 
3569.914 1077994 1033652 1001769 979219 962084 945746 927749 907727 887174 
3574.254 869611 858356 856231 864996 883954 911080 942359 973707 1000905 
3578.594 1021596 1035246 1043616 1049329 1054643 1060157 1064309 1064541 
3582.451 1059626 1050159 1041225 1040162 1055341 1093008 1153634 1229553 
3586.308 1303791 1356004 1367904 1333968 1262982 1173236 1082910 1002466 
3590.166 935452 879704 831432 787979 749409 718608 699791 696074 707391 
3594.505 729129 754155 774967 786352 787813 782601 776693 777523 791630 
3598.845 823332 873495 937876 1008743 1074705 1124699 1151674 1153867 
3602.702 1135827 1106162 1075503 1052019 1040859 1042487 1053580 1068228 
3606.560 1080551 1087693 1089686 1089985 1092742 1100548 1112906 1127423 
3610.417 1140811 1151209 1157654 1160710 1160877 1157754 1150711 1138884 
3614.275 1122871 1105099 1089520 1081249 1085069 1104601 1141674 1194865 
3618.132 1258596 1323632 1378839 1414108 1422817 1404733 1364214 1308776 
3621.990 1247829 1190911 1145993 1119184 1113703 1129814 1165428 1217492 
3625.847 1284051 1363948 1455762 1555177 1649293 1715751 1730821 1684284 
3629.704 1588630 1470257 1353312 1250255 1164631 1093838 1032623 976961 
3633.562 925790 882393 852447 840960 849359 873163 903311 927915 935951 
3637.901 921440 885215 835383 782867 739418 712303 703674 710278 726408 
3642.241 746521 767432 789240 814634 847334 890627 945846 1012297 1087294 
3646.581 1165827 1241748 1308976 1361721 1395226 1405930 1391105 1350952 
3650.438 1290199 1217824 1144864 1080551 1031028 998182 981777 978456 983105 
3654.778 987422 982640 961121 920510 865594 806535 754188 716219 696339 
3659.117 695111 710046 736597 769689 803116 831864 851982 862340 864166 
3663.457 860979 859053 864531 882659 916360 965272 1026644 1094802 1163867 
3667.796 1227526 1279398 1313595 1324363 1307945 1265142 1202008 1128884 
3671.654 1055739 992238 946112 924528 934489 980980 1061618 1161043 1253943 
3675.993 1317450 1344271 1340416 1315356 1273815 1216462 1142804 1054643 
3679.851 959361 868980 795779 748712 729893 734407 751467 767996 773971 
3684.190 764511 742903 718642 705134 715522 759267 838868 946510 1063146 
3688.530 1162206 1221114 1229022 1191077 1122971 1044513 972976 919448 
3692.387 888237 878442 884219 898098 912209 920045 917024 902149 877247 
3696.727 846039 812410 779680 748845 720633 695875 676394 665874 668463 
3701.067 686748 719305 760130 800825 833922 855634 865959 868316 866955 
3705.406 865229 864897 865727 866191 864963 862274 860381 863602 876484 
3709.746 901418 936449 974371 1003429 1013027 997950 960557 909022 853741 
3714.085 804045 765673 741941 733477 739186 756313 780908 808327 833258 
3718.425 851517 860182 858190 845940 825291 798501 768461 738788 713497 
3722.765 696107 689702 695310 712369 738057 768262 798269 824228 844844 
3727.104 861610 878376 898530 924262 955077 988352 1019404 1043616 1058297 
3731.444 1064641 1069490 1082943 1115497 1172106 1248560 1330545 1397254 
3735.301 1426474 1406961 1343673 1256070 1165495 1086497 1025681 982474 
3739.159 953550 935220 926089 927550 943422 978854 1038302 1122739 1226397 
3743.498 1330113 1404700 1424745 1387747 1315822 1239356 1180844 1150744 
3747.356 1151807 1181375 1232743 1294120 1350487 1387415 1395094 1371493 
3751.213 1322602 1258496 1188187 1118719 1054610 998282 951757 917489 897301 
3755.553 893217 905270 930405 961254 987489 998149 984998 946211 887905 
3759.892 822768 764212 723122 703076 701516 711971 727337 741974 752960 
3764.232 760096 765241 771216 779249 788344 795414 796842 789970 774104 
3768.572 751267 725014 700089 679812 664713 652733 640655 626287 608468 
3772.911 588594 569715 554752 547089 548913 560857 582157 611090 645002 
3777.251 680775 715157 744397 765640 777390 781240 781240 781771 787879 
3781.590 801821 823498 850554 877978 899393 908092 899625 873296 833225 
3785.930 786153 741045 705632 684790 680509 690996 711971 736730 759267 
3790.270 774535 780178 776195 765839 753458 743600 739850 744264 756877 
3794.609 775498 796045 812776 819780 812477 790468 756512 715754 674569 
3798.949 639725 617394 613645 632790 674204 729694 786286 832727 865063 
3803.288 886344 903444 923465 951923 991407 1040062 1091148 1132605 1152837 
3807.628 1146126 1114699 1065903 1008976 951823 900588 859917 832660 819946 
3811.968 820909 832594 851252 872134 890661 902281 903676 894645 879472 
3816.307 865859 861178 869943 892686 926952 968493 1011002 1046473 1065272 
3820.647 1059925 1030431 986559 942193 908524 891092 890495 904905 931036 
3824.986 964807 1000374 1031161 1050790 1054876 1042786 1017544 984500 
3828.844 949034 916061 889266 870939 861909 861942 870707 888004 913106 
3833.183 946942 988651 1036708 1087427 1135661 1175694 1202274 1212375 
3837.041 1206394 1187755 1161475 1131243 1098489 1061652 1018541 967397 
3840.898 909055 846404 784294 727835 681272 646926 624362 611753 607008 
3845.238 608833 617328 633686 658806 693087 734606 780576 826950 870474 
3849.577 910682 949631 992304 1045111 1111942 1190379 1265175 1310538 
3853.435 1304190 1245104 1155926 1064807 991175 941230 912010 895940 883921 
3857.774 867619 842288 807862 769158 734705 714327 717513 750471 813307 
3862.114 899293 996887 1090251 1163667 1205563 1211611 1187489 1146392 
3865.971 1105166 1077562 1071517 1088922 1125728 1171508 1210016 1224636 
3869.829 1205829 1158418 1099087 1046240 1011931 998680 1002666 1015020 
3873.686 1024917 1023522 1007680 981577 953218 930306 919315 922934 941762 
3878.026 973973 1015253 1059393 1097060 1118952 1118520 1095333 1055175 
3881.883 1008046 964309 931302 913803 912342 924130 942193 958531 966833 
3886.223 966169 961353 959095 964940 981577 1008112 1041557 1077097 1108587 
3890.563 1130213 1137987 1130213 1107956 1073742 1030663 982640 934622 
3894.420 892553 861942 848131 853376 877280 915530 960590 1004891 1042055 
3898.760 1069723 1090782 1111876 1139581 1177488 1223606 1271589 1311269 
3902.617 1331874 1325327 1287673 1221147 1133436 1035977 940068 854870 
3906.474 787248 740978 717414 715787 732083 760196 792327 820676 839167 
3910.814 844479 837375 821672 803149 787282 778817 780344 792925 816328 
3915.154 849459 890163 934855 978622 1015618 1040693 1050857 1045210 1025714 
3919.493 995824 959959 921905 884286 848695 815830 787149 765142 753790 
3923.833 757773 779747 819016 870242 925823 977227 1018441 1046506 1062183 
3928.172 1068261 1068428 1065837 1061884 1055906 1045609 1028438 1003529 
3932.030 972644 939205 907727 882194 864233 853542 848994 848961 852779 
3936.369 860149 871304 886212 903676 921772 937611 948801 953915 952952 
3940.709 947871 942027 938873 941463 950727 965571 983238 999909 1012031 
3945.049 1017312 1014223 1002566 983005 957302 928147 898198 870707 847732 
3949.388 830835 820477 816460 817755 823398 831698 841093 849260 854007 
3953.728 853343 846438 833822 817689 801688 790601 788178 796609 815398 
3958.067 841657 870707 897434 917787 929741 933593 931667 927151 922602 
3962.407 919680 918618 918385 918485 918352 918717 920543 924960 931634 
3966.747 939005 944584 945514 939968 928214 912608 898231 889997 892354 
3971.086 907627 934822 970187 1007514 1040129 1061353 1066402 1053248 
3974.944 1022891 979452 929011 879472 838271 811614 803481 814767 843450 
3979.283 884817 932597 980083 1021198 1051322 1067896 1070487 1060556 
3983.141 1040992 1015385 987190 959892 935552 915928 901186 891690 887174 
3987.480 887805 893748 905170 921108 940101 959095 975268 985596 988950 
3991.820 985695 977659 967630 957535 948137 938873 928745 916858 903842 
3996.159 892055 884551 884087 891690 905602 922536 938142 948635 953052 
4000.499 952919 
##END=
