##TITLE=ad18_1 Oct 08 07:32:28 2026 (GMT+02:00)
##JCAMP-DX=5.01  $$ Nicolet v. 1
##DATATYPE=INFRARED SPECTRUM
##ORIGIN=Vojna akademija
##OWNER=Nicolet
##LONGDATE=2026/10/08
##TIME=07:33:04
##SPECTROMETER/DATA SYSTEM=Nicolet iS20
##DATA PROCESSING=
Ratio against background
%Transmittance->Absorbance
Truncated
ElementMultiply or ElementDivide
##COMMENTS=
Number of sample scans: 8
Collection length: 11,90 sec
Sample gain: 8,0
Background collected on: Thu Oct 08 07:31:33 2026 (GMT+02:00);
Number of background scans: 8
Background gain: 8,0
Sample spacing:  1,000
Number of scan points: 12415
Resolution points: 8286
Number of FFT points: 65536
Apodization: N-B strong;
Phase correction: Mertz;
Laser frequency: 15798,00 cm-1
Number of rejected sample scans: 0
Number of rejected background scans: 0
Bench serial number: BER2010005;
##RESOLUTION= 4,000
##XUNITS=1/CM
##YUNITS=ABSORBANCE
##FIRSTX=400.156891
##LASTX=4000.123047
##FIRSTY=0.007730
##MAXX=4000.123047
##MINX=400.156891
##MAXY=0.265441
##MINY=-0.000627
##XFACTOR=1.000000
##YFACTOR=1.000000E-009
##NPOINTS=7468
##DELTAX=0.482117
##ZPD=6100
##XYDATA=(X++(Y..Y))
400.157 7729869 8874725 10842519 13190147 15425855 17176952 18290164 
403.532 18797862 18863674 18678094 18385040 18031186 17591490 17030338 
406.907 16367197 15704310 15206460 15026242 15248841 15835218 16632931 
410.281 17433664 18078852 18525058 18848828 19191782 19672938 20315630 
413.656 21017524 21575078 21764724 21440198 20561038 19224200 17633690 
417.031 16107470 14994550 14563432 14850042 15575054 16271934 16559469 
420.406 16354397 15808415 15176744 14679876 14481617 14651636 15171769 
423.781 15950801 16861728 17787274 18656752 19459772 20226128 20994746 
427.155 21784302 22581404 23338574 23991516 24465926 24696504 24644284 
430.530 24301132 23703396 22933120 22111628 21352694 20740474 20298062 
433.905 19988440 19732886 19446778 19078590 18633372 18174684 17791174 
437.280 17561506 17518244 17648874 17917362 18294036 18773952 19379940 
440.655 20143068 21069762 22109990 23155160 24047054 24641128 24863098 
444.030 24732736 24348232 23841288 23328890 22872518 22484106 22142972 
447.404 21826528 21534442 21293982 21140304 21099536 21166638 21306374 
450.779 21462896 21586220 21650716 21666632 21669838 21701186 21781864 
454.154 21903640 22033154 22127142 22153466 22098274 21974214 21818898 
457.529 21687636 21630134 21678544 21832556 22060520 22307436 22501486 
460.904 22568318 22437246 22069792 21476544 20730534 19940980 19213984 
464.278 18616908 18153434 17771152 17391242 16951158 16432196 15878519 
467.653 15376729 15024596 14885873 14968963 15224475 15565437 15890067 
471.028 16096810 16110908 15888624 15427641 14766425 13982908 13179114 
474.403 12454132 11898928 11572503 11495572 11648293 11972799 12382498 
477.778 12779377 13088476 13265466 13303182 13218735 13040433 12796747 
481.152 12515138 12225872 11961560 11752860 11621168 11565937 11561921 
484.527 11563861 11524050 11409638 11217626 10973058 10720612 10506805 
487.902 10363172 10307150 10340911 10457213 10646377 10900207 11206746 
491.277 11547867 11900461 12235926 12531609 12780675 12991985 13184545 
494.652 13374524 13562297 13729836 13847494 13886868 13838086 13718482 
498.027 13567629 13428893 13337212 13307077 13331096 13388876 13456302 
501.401 13513209 13546059 13544247 13497145 13392020 13222288 12990927 
504.776 12715162 12422490 12141430 11889973 11669429 11466789 11267780 
508.151 11073723 10908531 10811673 10822816 10960382 11207290 11511392 
511.526 11801204 12017659 12131924 12159115 12141566 12129743 12153458 
514.901 12209412 12263737 12272087 12198507 12033635 11793884 11511086 
518.276 11211982 10909822 10609230 10320654 10070588 9904623 9870150 9996430 
522.132 10276411 10662744 11076001 11425252 11642438 11693697 11588600 
525.507 11366100 11079366 10773494 10478257 10219756 10025861 9936421 
528.882 9995684 10233223 10646886 11187197 11772026 12301366 12699127 
532.257 12943747 13071778 13159578 13286783 13504664 13808054 14137842 
535.632 14398961 14503302 14392111 14058640 13544042 12928865 12309001 
539.007 11769201 11377800 11169007 11143442 11270467 11496762 11752690 
542.381 11964659 12078399 12065350 11934960 11729099 11513808 11358890 
545.756 11316309 11411645 11636108 11954952 12317352 12675723 12989254 
549.131 13228368 13375959 13425612 13382486 13261948 13090764 12901284 
552.506 12724818 12589318 12510261 12486595 12499348 12517014 12499689 
555.881 12409670 12225395 11947935 11607283 11256661 10968810 10812387 
559.255 10833754 11046295 11424062 11909622 12426411 12906267 13299732 
562.630 13586603 13772141 13874040 13910098 13888407 13812330 13688389 
566.005 13536146 13396907 13323784 13370184 13573133 13937674 14433797 
569.380 15003948 15585529 16121361 16576886 16942546 17227180 17450736 
572.755 17638280 17817098 18013156 18250632 18545908 18900426 19293854 
576.130 19684310 20021088 20255464 20360352 20337644 20216930 20043226 
579.504 19864356 19720992 19635046 19609844 19634526 19693426 19772242 
582.879 19863176 19965752 20081778 20212590 20355422 20501288 20635596 
586.254 20740542 20797440 20792540 20723340 20602206 20455820 20323200 
589.629 20244112 20245118 20331394 20480342 20647374 20775230 20816386 
593.004 20744194 20560376 20289868 19971614 19647804 19352606 19110790 
596.378 18934586 18825748 18776098 18772396 18798242 18835368 18868414 
599.753 18885336 18879524 18848206 18791114 18707116 18594704 18453764 
603.128 18290614 18120096 17967466 17861048 17823416 17863912 17971922 
606.503 18119304 18265662 18372942 18410586 18362192 18225094 18004040 
609.878 17706506 17341100 16921152 16467607 16013194 15601739 15275850 
613.253 15071006 15005216 15073099 15246885 15482232 15729973 15939940 
616.627 16074426 16112421 16051320 15906289 15704961 15481751 15266446 
620.002 15077421 14918380 14779177 14644302 14503679 14362999 14246811 
623.377 14192134 14233664 14388755 14646084 14965774 15289304 15566193 
626.752 15766254 15891442 15966201 16023027 16080650 16132606 16148632 
630.127 16089899 15930315 15671914 15349679 15023635 14762174 14616818 
633.501 14614043 14748805 14992526 15300733 15626470 15928974 16171364 
636.876 16327010 16381338 16336197 16211774 16047986 15895326 15797693 
640.251 15784018 15858449 16003190 16189661 16395239 16612412 16850638 
643.626 17125698 17445392 17797490 18150050 18458398 18682244 18803500 
647.001 18829348 18789244 18717494 18642156 18571048 18494770 18394788 
650.375 18258648 18089456 17909350 17750996 17651012 17638348 17726006 
653.750 17912010 18179416 18501268 18839486 19152480 19400902 19554696 
657.125 19606480 19575908 19508532 19459600 19481050 19599688 19809694 
660.500 20075152 20346186 20582610 20764768 20900898 21018602 21150182 
663.875 21315908 21519680 21752496 22003178 22266560 22550482 22873078 
667.250 23252468 23681106 24108662 24469432 24735752 24933978 25119232 
670.624 25340322 25630340 26003318 26455598 26967434 27509952 28059048 
673.999 28598190 29123154 29637188 30141106 30629148 31090794 31515874 
677.374 31901042 32253142 32584530 32906088 33222738 33532672 33831512 
680.749 34120552 34410756 34721256 35075112 35489156 35967840 36502084 
684.124 37074440 37666236 38264552 38866416 39472888 40084820 40697692 
687.498 41298748 41872760 42406612 42892948 43330480 43720996 44065468 
690.873 44362692 44612860 44821580 45001368 45174172 45363852 45590012 
694.248 45864088 46187636 46554136 46954212 47380036 47825332 48283892 
697.623 48746580 49197880 49616660 49982612 50279824 50503604 50662564 
700.998 50777744 50878760 51001112 51183520 51458532 51848924 52358592 
704.373 52970552 53647068 54340592 55010488 55633952 56218040 56796640 
707.747 57420108 58132304 58955036 59879344 60871412 61885576 62881820 
711.122 63842548 64772136 65689988 66617480 67569864 68553992 69574576 
714.497 70644696 71786368 73027240 74387152 75864552 77431624 79039432 
717.872 80637968 82186832 83668640 85080960 86416608 87641920 88686424 
721.247 89447272 89827288 89760872 89238752 88307256 87052088 85570656 
724.621 83944200 82238088 80497960 78758584 77051904 75403256 73826624 
727.996 72319056 70862096 69430120 68002928 66576496 65163636 63784064 
731.371 62449976 61156676 59881016 58593168 57269620 55908148 54528724 
734.746 53165656 51848924 50593020 49391888 48227316 47081076 45948900 
738.121 44844760 43794948 42823608 41939828 41130936 40366932 39611848 
741.496 38836488 38030532 37201272 36368904 35554636 34775812 34042172 
744.870 33357426 32724056 32143592 31615182 31131728 30678252 30231290 
748.245 29766190 29267280 28733220 28182282 27644292 27153172 26733040 
751.620 26390418 26110766 25864876 25618250 25339656 25013222 24641022 
754.995 24242794 23849970 23501920 23236564 23080656 23046276 23124792 
758.370 23290082 23499610 23706336 23867192 23950410 23943512 23851230 
761.744 23691394 23484850 23250406 23000228 22739996 22473220 22204064 
765.119 21939534 21689762 21464080 21268162 21101344 20956112 20817984 
768.494 20668712 20490242 20267372 19991632 19663646 19294858 18905444 
771.869 18521290 18170088 17873130 17642834 17481332 17381724 17329788 
775.244 17307168 17294894 17271516 17215320 17108258 16935862 16694663 
778.619 16395032 16062632 15731312 15437460 15208965 15056874 14975103 
781.993 14943757 14938818 14938235 14929148 14908847 14880867 14850658 
785.368 14821276 14792512 14761420 14725771 14684058 14636283 14581249 
788.743 14515636 14435030 14336424 14222502 14102381 13992284 13907361 
792.118 13857209 13840858 13847835 13863127 13873869 13876605 13876742 
795.493 13885124 13907567 13940343 13968023 13969871 13928163 13839865 
798.867 13717216 13585167 13467443 13375720 13302841 13226353 13118254 
802.242 12960543 12757164 12537578 12347419 12234324 12235790 12364805 
805.617 12610295 12939719 13313808 13693280 14048133 14361013 14622815 
808.992 14828715 14975206 15057559 15071658 15016432 14897634 14730569 
812.367 14541366 14367007 14245955 14213669 14290057 14472471 14733757 
815.742 15029226 15309828 15532950 15676586 15742753 15754022 15739283 
819.116 15723066 15716573 15716471 15710905 15690327 15654190 15613142 
822.491 15584567 15582575 15613967 15674388 15752614 15835665 15915604 
825.866 15989989 16059985 16126279 16187115 16239807 16287036 16340876 
829.241 16423248 16559813 16769562 17052806 17386930 17727524 18026696 
832.616 18246000 18371318 18416740 18418226 18416462 18439556 18496568 
835.990 18576410 18658030 18721922 18761048 18781980 18800282 18831010 
839.365 18883296 18957360 19049094 19155248 19276916 19420340 19591368 
842.740 19789860 20006830 20224150 20421958 20584488 20705164 20787256 
846.115 20840752 20876768 20902288 20920576 20931216 20932536 20923810 
849.490 20904686 20875032 20834774 20786492 20736580 20699466 20692306 
852.865 20732132 20826014 20966474 21128756 21278604 21385238 21429966 
856.239 21417086 21370236 21324364 21308390 21336684 21402604 21484726 
859.614 21555856 21596702 21604086 21592280 21586186 21612026 21690074 
862.989 21827190 22016980 22240960 22475804 22695166 22875312 22999948 
866.364 23062556 23068252 23031846 22975108 22916598 22866440 22823100 
869.739 22775576 22710808 22620812 22508360 22386484 22271720 22175226 
873.113 22098310 22033364 21969402 21901130 21834020 21783152 21764620 
876.488 21785346 21835030 21888134 21915384 21895484 21828514 21736470 
879.863 21655594 21618642 21639398 21706306 21787820 21846598 21855448 
883.238 21809978 21729260 21645040 21584724 21562472 21572222 21594996 
886.613 21607534 21594682 21554568 21495970 21431568 21371522 21319458 
889.987 21273418 21229646 21186294 21143852 21103534 21063570 21018566 
893.362 20961328 20887686 20801716 20717120 20653492 20630210 20659816 
896.737 20742802 20868460 21019020 21177144 21327010 21458126 21562194 
900.112 21631492 21660538 21648976 21606384 21553000 21515432 21518982 
903.487 21574416 21672242 21782524 21867504 21891826 21840116 21722886 
906.862 21573162 21432192 21334980 21298820 21318658 21372706 21433030 
910.236 21478632 21499800 21498894 21484412 21464568 21442322 21414858 
913.611 21376082 21320780 21247390 21157558 21054806 20942550 20823338 
916.986 20699014 20572432 20447554 20327886 20216444 20112456 20013386 
920.361 19915830 19819544 19729210 19655360 19609184 19598890 19624784 
923.736 19677098 19737810 19787536 19812330 19807268 19779386 19743184 
927.110 19716658 19714126 19742732 19802100 19885998 19984936 20089726 
930.485 20194402 20295216 20391572 20484302 20575282 20666452 20759658 
933.860 20855876 20956390 21063188 21180380 21313158 21467910 21649464 
937.235 21858304 22089488 22332098 22574074 22804140 23018254 23219856 
940.610 23419522 23628554 23854834 24098294 24351806 24603326 24841590 
943.985 25059976 25257050 25433624 25588656 25717094 25810758 25862838 
947.359 25874548 25857740 25834424 25831364 25868290 25954176 26083356 
950.734 26239712 26403800 26563688 26718242 26877716 27056680 27266656 
954.109 27509668 27777614 28054630 28323370 28572428 28797194 28999654 
957.484 29185342 29358594 29522410 29676886 29822296 29959910 30092276 
960.859 30221592 30348174 30469144 30579302 30673026 30745822 30796218 
964.233 30824854 30834102 30826418 30804470 30771356 30731594 30689952 
967.608 30650552 30614678 30579338 30537922 30483006 30409686 30318470 
970.983 30215838 30112694 30018420 29937972 29869784 29807214 29742560 
974.358 29671812 29597318 29528368 29477656 29456414 29471556 29523580 
977.733 29605794 29706830 29812466 29906058 29969674 29987176 29946420 
981.108 29844584 29692638 29517054 29355792 29248070 29226450 29304640 
984.482 29472904 29698918 29939284 30148602 30292074 30354890 30342312 
987.857 30276478 30187032 30107332 30064506 30075480 30146682 30272570 
991.232 30438400 30621360 30797998 30946522 31052854 31113680 31136284 
994.607 31135108 31124608 31116740 31114676 31115318 31110620 31093534 
997.982 31062142 31021642 30983422 30962678 30974846 31031108 31137350 
1001.356 31292226 31487946 31710662 31943656 32169140 32370504 32537424 
1004.731 32666434 32763716 32842010 32918348 33009432 33126030 33272174 
1008.106 33443626 33630720 33820192 33999924 34160840 34297616 34408996 
1011.481 34497276 34567056 34624320 34676680 34732988 34802556 34896440 
1014.856 35025576 35197872 35416856 35677312 35964528 36254676 36522124 
1018.231 36744408 36910060 37023704 37105620 37184300 37285240 37423324 
1021.605 37595596 37785932 37971548 38135752 38275880 38404580 38542188 
1024.980 38706716 38903596 39120508 39331684 39508232 39631268 39699156 
1028.356 39728240 39744504 39774608 39833544 39921112 40023740 40122324 
1031.731 40197844 40236160 40230488 40177236 40074648 39922388 39722396 
1035.106 39481272 39210868 38926824 38643332 38370880 38113868 37872588 
1038.481 37647156 37440660 37260220 37115328 37013024 36953784 36930372 
1041.857 36930008 36939500 36949380 36957068 36966340 36984088 37016020 
1045.232 37064876 37130668 37213540 37315208 37440192 37593460 37778776 
1048.607 37996428 38244040 38520464 38827824 39174168 39570328 40022904 
1051.982 40527896 41066032 41606332 42110980 42549620 42909080 43197712 
1055.358 43441276 43672924 43923824 44211708 44540016 44899908 45277864 
1058.733 45658872 46030344 46382772 46705976 46990944 47231804 47429184 
1062.108 47592388 47738596 47887964 48054480 48242648 48444936 48646796 
1065.483 48833772 48999764 49149936 49301012 49473828 49686984 49952500 
1068.859 50272828 50643200 51054960 51499644 51970804 52464388 52979796 
1072.234 53518492 54084612 54683904 55323464 56007424 56736372 57506000 
1075.609 58309052 59140244 60000072 60895348 61838472 62839656 63899972 
1078.984 65008364 66143936 67284272 68413792 69531760 70650152 71787112 
1082.359 72954568 74148704 75350360 76533856 77677224 78774272 79836544 
1085.735 80884664 81935112 82987912 84024208 85016072 85941712 86798432 
1089.110 87606568 88402360 89220976 90078440 90965632 91851200 92696648 
1092.485 93466992 94140408 94708296 95166360 95509496 95732448 95835848 
1095.860 95833704 95756040 95639608 95509752 95367632 95184920 94918304 
1099.236 94527184 93999360 93359504 92660432 91954864 91274064 90612712 
1102.611 89938216 89214184 88430264 87617592 86848896 86210272 85766032 
1105.986 85540232 85507880 85612464 85790784 86005808 86254640 86564528 
1109.361 86969984 87494320 88136376 88874760 89679552 90529440 91419680 
1112.737 92355968 93342424 94367560 95397848 96387432 97289320 98069800 
1116.112 98715672 99226616 99602824 99835848 99905240 99788736 99475024 
1119.487 98972488 98307032 97512104 96614312 95624824 94542256 93366408 
1122.862 92110944 90814656 89536528 88339528 87280952 86394376 85691320 
1126.238 85170040 84827640 84670848 84720824 85004544 85549224 86371776 
1129.613 87475032 88851864 90490880 92382072 94515648 96878872 99448816 
1132.988 102186936 105048296 107987480 110972136 113991016 117048640 
1135.881 120151856 123293808 126442088 129540832 132527632 135345104 
1138.774 137960000 140363504 142559936 144553744 146341792 147914560 
1141.667 149268192 150416048 151391536 152237408 152995168 153688304 
1144.560 154320896 154888848 155394992 155860864 156329104 156844832 
1147.453 157442240 158128208 158884560 159679472 160488496 161307968 
1150.347 162154496 163048256 163993392 164964576 165913856 166789216 
1153.240 167561792 168243840 168885488 169552032 170286944 171092112 
1156.133 171921168 172702096 173362528 173864768 174211424 174435808 
1159.026 174574464 174643456 174631216 174509728 174252816 173856704 
1161.919 173343120 172748208 172100864 171406416 170644144 169781568 
1164.812 168793952 167678240 166455376 165156640 163807872 162414816 
1167.705 160966352 159446896 157852560 156200624 154524304 152856976 
1170.598 151217504 149599504 147976928 146318432 144607232 142849184 
1173.491 141071120 139304752 137573264 135879712 134210544 132545800 
1176.384 130872624 129193824 127524328 125881256 124273424 122697072 
1179.277 121139904 119591184 118052312 116539184 115076976 113688192 
1182.170 112379920 111140376 109944176 108763992 107580248 106389912 
1185.063 105203328 104037920 102907872 101819208 100769496 99751256 98754976 
1188.439 97772400 96795016 95811432 94808936 93777080 92713096 91627040 
1191.814 90541240 89484280 88477944 87529992 86629160 85752072 84871832 
1195.189 83971824 83052736 82130864 81229960 80370040 79560872 78800056 
1198.564 78077840 77384304 76716032 76075984 75470544 74904376 74378144 
1201.940 73888800 73433672 73013560 72632504 72295216 72000984 71740440 
1205.315 71496616 71250816 70992600 70724944 70465392 70236888 70058728 
1208.690 69935056 69852040 69781408 69692824 69564776 69391048 69181680 
1212.065 68955984 68734256 68531224 68355728 68214128 68113488 68063648 
1215.441 68073608 68146712 68275192 68441568 68622712 68798112 68958048 
1218.816 69106464 69256832 69424720 69621248 69849432 70106160 70387032 
1222.191 70691288 71021632 71380304 71763072 72155024 72532448 72872928 
1225.566 73163288 73408640 73630064 73858240 74117896 74418016 74747512 
1228.942 75081936 75394552 75666792 75896048 76092560 76272232 76445536 
1232.317 76614952 76775976 76922656 77054160 77176784 77298824 77425128 
1235.692 77550048 77656856 77722512 77728304 77664856 77535592 77351088 
1239.067 77122216 76853160 76540408 76177456 75761624 75299368 74805760 
1242.443 74297216 73784328 73265296 72727608 72153416 71528928 70851568 
1245.818 70130680 69381840 68618640 67848224 67070268 66281400 65482788 
1249.193 64684600 63906380 63172320 62502780 61909572 61393616 60947200 
1252.568 60558028 60213888 59904372 59619392 59347596 59078248 58801132 
1255.943 58512748 58218072 57931364 57668304 57441512 57252644 57091296 
1259.319 56938164 56774924 56591068 56387252 56171880 55953636 55733544 
1262.694 55503812 55251168 54965848 54649180 54316264 53990728 53694156 
1266.069 53439192 53223592 53033928 52851160 52661100 52458336 52246544 
1269.444 52033776 51827604 51631572 51444992 51266692 51099012 50948092 
1272.820 50823220 50731156 50671796 50636536 50611368 50581144 50534348 
1276.195 50467056 50381504 50282612 50174036 50054740 49919940 49762108 
1279.570 49572872 49344292 49068388 48736272 48339332 47872388 47338280 
1282.945 46749736 46130664 45509680 44911004 44349404 43826540 43333740 
1286.321 42859884 42399704 41959096 41554556 41205656 40927624 40724108 
1289.696 40586136 40494832 40429040 40372748 40316392 40257388 40196576 
1293.071 40133664 40066944 39993696 39913848 39832092 39757576 39701044 
1296.446 39669640 39664196 39678176 39700972 39721232 39731872 39730164 
1299.822 39716764 39691968 39653960 39597516 39517124 39409792 39278216 
1303.197 39129968 38976768 38829784 38696356 38579632 38478104 38387676 
1306.572 38303636 38220408 38132820 38035268 37923416 37795512 37655140 
1309.947 37510844 37376808 37267476 37193976 37160192 37161416 37186360 
1313.323 37219932 37249752 37267836 37271376 37261700 37241156 37212132 
1316.698 37176216 37135036 37089344 37038644 36979324 36903496 36800628 
1320.073 36659892 36476352 36252616 36000060 35733756 35468264 35211524 
1323.448 34962620 34712892 34451504 34171452 33873528 33566604 33264588 
1326.824 32981478 32726236 32501608 32305468 32134424 31986632 31863492 
1330.199 31768266 31704958 31674698 31675660 31703890 31755470 31828086 
1333.574 31921510 32036818 32174852 32334772 32515820 32717128 32941226 
1336.949 33192624 33477124 33797700 34149908 34520344 34889368 35236680 
1340.325 35549024 35824140 36069072 36294220 36507276 36711020 36904000 
1343.700 37085268 37256680 37425564 37601484 37792512 37999644 38215308 
1347.075 38425032 38614688 38775472 38907728 39019832 39122716 39223596 
1350.450 39322180 39411204 39481884 39529280 39555920 39570328 39583360 
1353.826 39602344 39627496 39652944 39671528 39680424 39683908 39691680 
1357.201 39713828 39755472 39813716 39878980 39939096 39986104 40019164 
1360.576 40045252 40073704 40112512 40162480 40217908 40271384 40320136 
1363.951 40369148 40428532 40506764 40606184 40720728 40838868 40947212 
1367.327 41037044 41108208 41168712 41230612 41302976 41388872 41486380 
1370.702 41594300 41718624 41876772 42096888 42413332 42852976 43424212 
1374.077 44105740 44851264 45599436 46292492 46884996 47335620 47604700 
1377.452 47649068 47426120 46913120 46117660 45083884 43876536 42567164 
1380.828 41214872 39858316 38525716 37239824 36021980 34892708 33861492 
1384.203 32923140 32056474 31230768 30414554 29588272 28754036 27935074 
1387.578 27166046 26475566 25875568 25361538 24920150 24537442 24203696 
1390.953 23913368 23663960 23452954 23278092 23137548 23030518 22956838 
1394.328 22914990 22899866 22901230 22908318 22914432 22921208 22938848 
1397.704 22983072 23069546 23204440 23379554 23573102 23759422 23917920 
1401.079 24039246 24123266 24172236 24185268 24155002 24067576 23909938 
1404.454 23676172 23376056 23033766 22683052 22357074 22080042 21870466 
1407.829 21741906 21707804 21784582 21987876 22328156 22803824 23398262 
1411.205 24081586 24818680 25579694 26343698 27099632 27842506 28565242 
1414.580 29256542 29901054 30479308 30974100 31369400 31649072 31794004 
1417.955 31783986 31607450 31277056 30838476 30355424 29882350 29449748 
1421.330 29062676 28713574 28394112 28103904 27856884 27680170 27601214 
1424.706 27636840 27783830 28022892 28330056 28688266 29093498 29553478 
1428.081 30082972 30695356 31394578 32170996 33004570 33870588 34747312 
1431.456 35617968 36469612 37292676 38078452 38822356 39527140 40203588 
1434.831 40873668 41567100 42312404 43115080 43947292 44756048 45491324 
1438.207 46130484 46679744 47161956 47606548 48039600 48479016 48931336 
1441.582 49391740 49847648 50283764 50691348 51069388 51426152 51775344 
1444.957 52133180 52516588 52941956 53427352 53990728 54645120 55395880 
1448.332 56235912 57152480 58136928 59191576 60332048 61579408 62948384 
1451.708 64434984 66010572 67631696 69247080 70821304 72338664 73793872 
1455.083 75182344 76477184 77614656 78502688 79080688 79379248 79501024 
1458.458 79562424 79628496 79716984 79825000 79946824 80082672 80236336 
1461.833 80411344 80605216 80804712 80985224 81106296 81110696 80928976 
1465.209 80473152 79650664 78378888 76588120 74253424 71401704 68117832 
1468.584 64511008 60698688 56767792 52730116 48548892 44169524 39601688 
1471.959 35006472 30703216 27032806 24164740 22039604 20449360 19160686 
1475.334 18014572 16933898 15913473 14982134 14168102 13474723 12881248 
1478.710 12357168 11877918 11432430 11023048 10656700 10336194 10053700 
1482.085 9794637 9543857 9294271 9048990 8817440 8608556 8425582 8264297 
1485.942 8115225 7969917 7825771 7688586 7569078 7476165 7409426 7357592 
1489.800 7304113 7237535 7157156 7071538 6989641 6915502 6846022 6774196 
1493.657 6692961 6598015 6489804 6373315 6255413 6140734 6028673 5916742 
1497.515 5804940 5700486 5614852 5559339 5536384 5537055 5543733 5538397 
1501.372 5509202 5455547 5387575 5322397 5277619 5266518 5294221 5355672 
1505.229 5433839 5496920 5507658 5442630 5313340 5158169 5011668 4888840 
1509.087 4791875 4721661 4680530 4670348 4689573 4728126 4769698 4794421 
1512.944 4787487 4742363 4661607 4554012 4431715 4307778 4193613 4099178 
1516.802 4031183 3992558 3982694 3999146 4038574 4096603 4168455 4246175 
1520.659 4319223 4377423 4413973 4429739 4430710 4422576 4408317 4388167 
1524.516 4361960 4329698 4292552 4251930 4208802 4163738 4118545 4076668 
1528.374 4044260 4028474 4033758 4061216 4106737 4162199 4216999 4261600 
1532.231 4289641 4300081 4298642 4294861 4296467 4305068 4318119 4332576 
1536.089 4347502 4364169 4385054 4411262 4439447 4457758 4446008 4382879 
1539.946 4263507 4110283 3961326 3845447 3772511 3737586 3730968 3744871 
1543.804 3775486 3820610 3876537 3936081 3989181 4026601 4043423 4039243 
1547.661 4018374 3987208 3954171 3926385 3908231 3899070 3895024 3891715 
1551.518 3885797 3876002 3861994 3842338 3814894 3778026 3732606 3682980 
1555.376 3637269 3604593 3593534 3611308 3662263 3743635 3835719 3902580 
1559.233 3912911 3870352 3801590 3727927 3656816 3588189 3521142 3456578 
1563.091 3397132 3346943 3309080 3282471 3262774 3243045 3218276 3188000 
1566.948 3156259 3130594 3118613 3124553 3145178 3170010 3185764 3184095 
1570.806 3166873 3142208 3119414 3104029 3098256 3100525 3108501 3119948 
1574.663 3135033 3156025 3186331 3226854 3273090 3317560 3354322 3381203 
1578.520 3399169 3410356 3416501 3418070 3414898 3406816 3394861 3381036 
1582.378 3368146 3357929 3350482 3343203 3332953 3317126 3295391 3269852 
1586.235 3244714 3223283 3206926 3194509 3183027 3170711 3157494 3146614 
1590.093 3142575 3149183 3167140 3193341 3222214 3248720 3270987 3291852 
1593.950 3317227 3353120 3401406 3457245 3509284 3544225 3551474 3527021 
1597.807 3475381 3407651 3339063 3283372 3251724 3249020 3274058 3319731 
1601.665 3376194 3432564 3478955 3509384 3522412 3521877 3515463 3511789 
1605.522 3518470 3537644 3566440 3597075 3619761 3626477 3614716 3589091 
1609.380 3559124 3535105 3524015 3527021 3539180 3551407 3554013 3540784 
1613.237 3509584 3462957 3408085 3356994 3325139 3329447 3381871 3480725 
1617.095 3608101 3738455 3852032 3940328 4004898 4052386 4089879 4122392 
1620.952 4150658 4171198 4177855 4164072 4128714 4078708 4027505 3988512 
1624.809 3968783 3968549 3983128 4007004 4035464 4066835 4102422 4143734 
1628.667 4190066 4236907 4276624 4302056 4308548 4296233 4269597 4236773 
1632.524 4206828 4188126 4187992 4212148 4265080 4348004 4456185 4577417 
1636.382 4695401 4798040 4880898 4946580 5001277 5053535 5111465 5182144 
1640.239 5269771 5373652 5489672 5610455 5729526 5842920 5949962 6052461 
1644.097 6154211 6259144 6372004 6497641 6640707 6802568 6979203 7159009 
1647.954 7328577 7478289 7605426 7712769 7807689 7900605 8004578 8133456 
1651.811 8296009 8480246 8637961 8702895 8652461 8529410 8390246 8266256 
1655.669 8162997 8074143 7989019 7897872 7794364 7677018 7549220 7417380 
1659.526 7287434 7163219 7044731 6929407 6814012 6697941 6584929 6482708 
1663.384 6399375 6339088 6300694 6278809 6267111 6258875 6248219 6230303 
1667.241 6201633 6160932 6112137 6065968 6037476 6041709 6085322 6162747 
1671.099 6259581 6360135 6452440 6529796 6591219 6639866 6681150 6720116 
1674.956 6760802 6803309 6845079 6883084 6915671 6943379 6966880 6987082 
1678.813 7004053 7017724 7029005 7039646 7053386 7074704 7109461 7164769 
1682.671 7249596 7372825 7534925 7720323 7899660 8050278 8167960 8261494 
1686.528 8342584 8422271 8511467 8620622 8759454 8933133 9138688 9363468 
1690.386 9588331 9795077 9971510 10116811 10240788 10360864 10498080 
1693.761 10673882 10905847 11199742 11539667 11886567 12196973 12448302 
1697.136 12648500 12821352 12994785 13191308 13426910 13706787 14018120 
1700.511 14330601 14615790 14863414 15080028 15277669 15466643 15654704 
1703.887 15848037 16051047 16263783 16480409 16689947 16880846 17048396 
1707.262 17196568 17336960 17483818 17649218 17839504 18053050 18281594 
1710.637 18515032 18747556 18980238 19222710 19489714 19797280 20156326 
1714.012 20569618 21032268 21536530 22079588 22669020 23321724 24055670 
1717.388 24871516 25742828 26629912 27501162 28353292 29209866 30104742 
1720.763 31074918 32152194 33361078 34715904 36221968 37878728 39683220 
1724.138 41634084 43731916 45977484 48370076 50913108 53622512 56539928 
1727.513 59733892 63288332 67271160 71689360 76459280 81425232 86407352 
1730.889 91317368 96237248 101477032 107556912 115142192 124756272 136261568 
1734.264 148578432 160178048 170089136 178310016 185413280 192046160 
1737.157 198712960 205722368 213195680 221054512 229066528 236876240 
1740.050 244114960 250492992 255816880 259973552 262921904 264700144 
1742.943 265440608 265333920 264564816 263210240 261213984 258420944 
1745.836 254681056 249935328 244273536 237886480 231005408 223770864 
1748.729 216174656 208078192 199342992 189972864 180191280 170417696 
1751.622 161101168 152545520 144819824 137799744 131257240 124944176 
1754.515 118645176 112201160 105530328 98672384 91795072 85157944 79023216 
1757.891 73546616 68745624 64519808 60704440 57114536 53586224 50022912 
1761.266 46424624 42901836 39625680 36746608 34325584 32326848 30649734 
1764.641 29179354 27817248 26501310 25210064 23959408 22787168 21729644 
1768.016 20804462 19999648 19283290 18616216 17968570 17321168 16664296 
1771.391 15995007 15317414 14646941 14010695 13438359 12952521 12561520 
1774.767 12258897 12025084 11832324 11650879 11459509 11251663 11034773 
1778.142 10823699 10630316 10455720 10287810 10106264 9895742 9656253 
1781.517 9404571 9164304 8954340 8781159 8636642 8504270 8367411 8219824 
1785.375 8068472 7928679 7813491 7726395 7658672 7595344 7521372 7430492 
1789.232 7327128 7224632 7137788 7074771 7028871 6980045 6902070 6779379 
1793.089 6616821 6434179 6254875 6095201 5963499 5859947 5782173 5728150 
1796.947 5696625 5687090 5695449 5713612 5728082 5723818 5689910 5623847 
1800.804 5533095 5431155 5331721 5242170 5163199 5091618 5024707 4962901 
1804.662 4909951 4870377 4845816 4832883 4823737 4807353 4774555 4720489 
1808.519 4645464 4554112 4452937 4348741 4247747 4156445 4081752 4028775 
1812.377 3999414 3989147 3987876 3981322 3956110 3904586 3827730 3735213 
1816.234 3642649 3565304 3511154 3478989 3459750 3443151 3421577 3393659 
1820.091 3362837 3333921 3308245 3283740 3256064 3222782 3186732 3157561 
1823.949 3145946 3159096 3193207 3232229 3253894 3240574 3186832 3100959 
1827.806 3000856 2909382 2847476 2825098 2836570 2861718 2878128 2868989 
1831.664 2831968 2774442 2709988 2651811 2610642 2593942 2604275 2639410 
1835.521 2692717 2754534 2812892 2855281 2872625 2859283 2815393 2745431 
1839.379 2656578 2555478 2447737 2337957 2230936 2133530 2055222 2005621 
1843.236 1992040 2013710 2061348 2119113 2172956 2215483 2246822 2270070 
1847.093 2287224 2296085 2290922 2265341 2216848 2149347 2073633 2003358 
1850.951 1948704 1915056 1901145 1901677 1910763 1925639 1948138 1982520 
1854.808 2031619 2093675 2160236 2218946 2255482 2259845 2229371 2168494 
1858.666 2085552 1990909 1893990 1802549 1724667 1668251 1639182 1640446 
1862.523 1669149 1716816 1769844 1813130 1834025 1825041 1784549 1716916 
1866.380 1629470 1531634 1435250 1355506 1308145 1307746 1357766 1449312 
1870.238 1561927 1670613 1754574 1801019 1808804 1787078 1752944 1722438 
1874.095 1706703 1708200 1721007 1735478 1743961 1744527 1741134 1740601 
1877.953 1747820 1763889 1786213 1811632 1838883 1870396 1910163 1959454 
1881.810 2014376 2064611 2097538 2105195 2087916 2057087 2029489 2019968 
1885.668 2032851 2059650 2081157 2077561 2036147 1958722 1862243 1773005 
1889.525 1714953 1698155 1716018 1750382 1782087 1797625 1793699 1773437 
1893.382 1742298 1703044 1655712 1599705 1537852 1480364 1442398 1437843 
1897.240 1475078 1551087 1651621 1754707 1839715 1892459 1909531 1897085 
1901.097 1865604 1825474 1781588 1735711 1688242 1640313 1596013 1560929 
1904.955 1537753 1525217 1517337 1505201 1481761 1445755 1404069 1369333 
1908.812 1356569 1378673 1441566 1543439 1674105 1820184 1966144 2096106 
1912.670 2196633 2256514 2269738 2237930 2171225 2087083 2003757 1938486 
1916.527 1900912 1891827 1903674 1926338 1952132 1979957 2015042 2064577 
1920.384 2132365 2215682 2304179 2382165 2433842 2449336 2427345 2375136 
1924.242 2302014 2213151 2106627 1973301 1801518 1582811 1318780 1023622 
1928.099 727503 472649 303017 257859 356270 589987 920975 1294452 1645900 
1932.439 1917984 2076130 2110856 2040941 1901910 1736709 1581414 1459120 
1936.296 1381997 1353644 1374319 1441733 1550787 1690471 1842677 1985649 
1940.154 2095773 2154908 2156306 2107859 2028191 1939285 1859947 1798390 
1944.011 1756703 1736909 1746789 1799987 1913325 2096672 2347918 2649144 
1947.869 2972231 3283706 3556017 3772946 3928491 4021418 4049610 4006202 
1951.726 3881718 3670015 3375693 3016471 2621675 2225574 1858516 1545267 
1955.583 1302860 1141774 1068494 1084172 1181342 1340782 1535491 1729257 
1959.441 1888465 1994404 2046600 2064211 2076862 2112454 2184711 2292321 
1963.298 2421480 2556411 2685750 2803587 2905279 2976101 2985676 2891770 
1967.156 2654211 2255549 1719311 1108521 507346 -5036 -369916 -563807 
1971.013 -597260 -506555 -334822 -123108 103257 335910 575555 822568 1071251 
1975.353 1308211 1517303 1685714 1807141 1879447 1902043 1873990 1794564 
1979.210 1669648 1516206 1358564 1227128 1146558 1128552 1168385 1246367 
1983.068 1332506 1398717 1428934 1421255 1387548 1343108 1298540 1252481 
1986.925 1192306 1098887 958464 774137 570047 387410 277752 287665 439413 
1991.265 723222 1093207 1486714 1836255 2094807 2244491 2291554 2256714 
1995.122 2162533 2024629 1848034 1635856 1397254 1153368 940367 798037 
1998.979 753989 812842 949964 1124067 1286510 1405232 1474779 1518567 
2002.837 1573200 1675835 1842810 2061981 2297317 2502920 2641777 2697585 
2006.694 2681782 2619709 2540913 2465131 2396625 2332027 2268139 2205991 
2010.552 2153542 2116549 2092011 2062913 2006387 1898249 1730854 1518135 
2014.409 1297643 1113304 1004193 989747 1060954 1184997 1315922 1415471 
2018.266 1461713 1457790 1425443 1395492 1393797 1434485 1515541 1623151 
2022.124 1737873 1844474 1938919 2032252 2145118 2299249 2508052 2763771 
2025.981 3038158 3285209 3457947 3524516 3479857 3351183 3191939 3064152 
2029.839 3009831 3039593 3126222 3218442 3256498 3198415 3033320 2783045 
2033.696 2489857 2197499 1936322 1717115 1532831 1368934 1211710 1051787 
2037.554 884253 709482 531297 360648 219734 143228 167392 320856 606843 
2041.893 995492 1423615 1807008 2064944 2137893 2008551 1707701 1307214 
2045.751 898198 566497 383994 385884 573829 912508 1343707 1793366 2187808 
2050.090 2473528 2616675 2610675 2475394 2251152 1987647 1735112 1536323 
2053.948 1415537 1380268 1421487 1519265 1649326 1787710 1916620 2025361 
2057.805 2112887 2185511 2257614 2344386 2456867 2593942 2740230 2866021 
2061.662 2933967 2913785 2788447 2565677 2275033 1963482 1678928 1458787 
2065.520 1322701 1270492 1288903 1357234 1457191 1573300 1693098 1805776 
2069.377 1898649 1959554 1979225 1956459 1898516 1822113 1748652 1697589 
2073.235 1682754 1709198 1772905 1861977 1959621 2048631 2112088 2137126 
2077.092 2117681 2054723 1956392 1837519 1716882 1611278 1533264 1489374 
2080.949 1478901 1496523 1533230 1579286 1623351 1655113 1664925 1647031 
2084.807 1601334 1534627 1460217 1393797 1347795 1326823 1326357 1332805 
2088.664 1330046 1308211 1265607 1212076 1163634 1136591 1139183 1169448 
2092.522 1214667 1257765 1281658 1275809 1238060 1174199 1095698 1015618 
2096.379 948934 909287 907262 948801 1030696 1138850 1249391 1335630 1375150 
2100.719 1358697 1295848 1213405 1146691 1125130 1164531 1259593 1387481 
2104.576 1515874 1616998 1676334 1696059 1690936 1682388 1686945 1710828 
2108.434 1748452 1785514 1804446 1789706 1733349 1635091 1503372 1353678 
2112.291 1206195 1084006 1006850 987954 1030995 1129748 1268864 1429665 
2116.148 1595348 1753443 1897517 2024496 2130966 2210521 2253084 2248055 
2120.006 2189540 2079293 1928834 1756037 1581414 1422418 1290066 1190446 
2123.863 1125728 1096994 1103704 1141575 1199882 1259127 1295582 1284582 
2127.721 1210747 1074805 895907 705067 535511 414903 353418 345493 372984 
2132.060 415135 455334 486348 508971 526686 539790 541947 521046 466512 
2136.400 374609 253449 122149 5831 -70039 -88425 -45026 50896 180087 316313 
2141.222 436329 526089 585342 628742 684060 783166 950960 1194566 1495691 
2145.561 1814594 2093908 2274833 2315771 2198931 1936955 1564388 1131575 
2149.419 687113 276657 -58908 -284296 -369486 -295720 -59736 317274 791597 
2153.758 1306948 1801484 2229737 2573510 2843107 3064319 3260437 3433232 
2157.616 3552777 3567843 3433967 3136067 2706754 2216848 1740701 1339419 
2161.473 1038335 828909 679514 556312 433709 304873 179855 77408 17594 13883 
2166.295 70514 184827 351429 562814 812709 1093573 1394628 1701315 1996001 
2170.635 2255682 2455901 2569510 2569177 2434142 2157871 1756969 1275111 
2174.492 784593 366020 91989 8747 121751 398453 776461 1190246 1583576 
2178.832 1926138 2215183 2464164 2687516 2888768 3053307 3152754 3157460 
2182.689 3045866 2815026 2479793 2069837 1617630 1158186 721263 327487 -5699 
2187.029 -267375 -453633 -567711 -619264 -627337 -614466 -599014 -591966 
2190.886 -591668 -584786 -552622 -477331 -351244 -179979 17892 219767 402201 
2195.226 551966 668164 760926 845973 939902 1054178 1190712 1344670 1506763 
2199.565 1667420 1819252 1958289 2083521 2193270 2283893 2348451 2377768 
2203.423 2364775 2307010 2207723 2076230 1925339 1765985 1604194 1442597 
2207.280 1281392 1124532 984168 878741 833026 869013 996024 1205431 1466899 
2211.620 1734414 1952032 2071402 2063246 1922577 1671112 1349390 1009573 
2215.477 699890 460509 316910 277519 336606 477491 676560 902613 1122705 
2219.817 1305220 1424579 1469226 1444592 1374983 1291960 1231414 1217226 
2223.674 1252880 1320874 1387182 1414141 1373388 1258330 1087228 899559 
2227.531 741509 652236 652169 736132 876915 1034250 1170046 1254342 1274945 
2231.871 1238126 1165129 1082777 1017411 989747 1007680 1068062 1156325 
2235.729 1251351 1330179 1374319 1374319 1332938 1262982 1182937 1112009 
2239.586 1063180 1037605 1026844 1015684 987157 928380 835250 712668 572270 
2243.926 429198 299800 196230 126988 95569 99811 134014 188871 255770 329212 
2248.747 409000 500877 615005 761026 942326 1152870 1377077 1592588 1775799 
2253.087 1909831 1987214 2010914 1990276 1936589 1857551 1755938 1631532 
2256.944 1484620 1320574 1151176 992105 858854 763283 708619 692390 707889 
2261.284 748944 811315 894778 999843 1126526 1271556 1428801 1589462 1744527 
2265.624 1885104 2002759 2089680 2137126 2137360 2086750 1987946 1853192 
2269.481 1702545 1561861 1454166 1394263 1384191 1413642 1463342 1510919 
2273.338 1538551 1536423 1504103 1448947 1383293 1320674 1272353 1247098 
2277.196 1249424 1278401 1327953 1388047 1445689 1487911 1506763 1500645 
2281.053 1475377 1442065 1412911 1395758 1391304 1392368 1386983 1363948 
2284.911 1317550 1250488 1174266 1105797 1060190 1047569 1068693 1115231 
2288.768 1172073 1222841 1254907 1261819 1245138 1212342 1174664 1143136 
2292.625 1126061 1127921 1148219 1183469 1227626 1275477 1321538 1362585 
2296.483 1397686 1427139 1452238 1474912 1496356 1516140 1533164 1545201 
2300.340 1550388 1548327 1541444 1533929 1531668 1539748 1559799 1588697 
2304.198 1618827 1638882 1637851 1609449 1555044 1484387 1413277 1360226 
2308.055 1339618 1357965 1411282 1487845 1571870 1647829 1706371 1744394 
2311.913 1765552 1775833 1781688 1786945 1792202 1796427 1798656 1798224 
2315.770 1796261 1794065 1792235 1790139 1786978 1782287 1777662 1777396 
2319.627 1786778 1811000 1852426 1909531 1976862 2047000 2110956 2161035 
2323.485 2191238 2196367 2172956 2119113 2035581 1928102 1807739 1691502 
2327.342 1597809 1544569 1541809 1589129 1673773 1774568 1867501 1931563 
2331.200 1956192 1942114 1900146 1844607 1790871 1748852 1722072 1708234 
2335.057 1701947 1697223 1690304 1681656 1676567 1684317 1714920 1776831 
2338.915 1873457 1999630 2142055 2280796 2392727 2456234 2457500 2393393 
2342.772 2272502 2113719 1941881 1784483 1663861 1594217 1577723 1605658 
2346.629 1660801 1724001 1779093 1813196 1819585 1796860 1748619 1683253 
2350.487 1614504 1559466 1534959 1554445 1621555 1730588 1865770 2007286 
2354.344 2137759 2245490 2327530 2388462 2435141 2472662 2499621 2506553 
2358.202 2479926 2406220 2278431 2101333 1892459 1676600 1479068 1321040 
2362.059 1212076 1151740 1131642 1140711 1169249 1211145 1262716 1321239 
2365.917 1382363 1439572 1487047 1522258 1548460 1574796 1613107 1672076 
2369.774 1753343 1850496 1948171 2028424 2076629 2083920 2049297 1978559 
2373.631 1879946 1762425 1633594 1501975 1376479 1268930 1191941 1155594 
2377.489 1164664 1214435 1291495 1375349 1444558 1483090 1483090 1447816 
2381.346 1388944 1322768 1264045 1223240 1203636 1202307 1212076 1224470 
2385.204 1233208 1234803 1228955 1217957 1205663 1195762 1191808 1196360 
2389.061 1210547 1233807 1263846 1296812 1327820 1351949 1365909 1368735 
2392.918 1362585 1351384 1340682 1334965 1337159 1346997 1361621 1375848 
2396.776 1383725 1380634 1363516 1332606 1291229 1246035 1204766 1175462 
2400.633 1164431 1174432 1204035 1247264 1295649 1339718 1371360 1386717 
2404.491 1386418 1375449 1360790 1350454 1349523 1358929 1375515 1393033 
2408.348 1404035 1402107 1385354 1355639 1319743 1286377 1265242 1263215 
2412.206 1283087 1321837 1371593 1421255 1458688 1474712 1465304 1433388 
2416.063 1387880 1342743 1313196 1310571 1340948 1401775 1482824 1568644 
2419.920 1642940 1692433 1709864 1696392 1659304 1610879 1562492 1523787 
2423.778 1498784 1486182 1480397 1474180 1461247 1437610 1403636 1363184 
2427.635 1323100 1290165 1270658 1267335 1279199 1301431 1326457 1347030 
2431.493 1357001 1354243 1340682 1322037 1304987 1295416 1295516 1303824 
2435.350 1314659 1320741 1316221 1298241 1268498 1232743 1199251 1176591 
2439.208 1171176 1186559 1222310 1274580 1337292 1403304 1464938 1515674 
2443.065 1550721 1567879 1568212 1555210 1535192 1514810 1499615 1492898 
2446.922 1494129 1499083 1501011 1493397 1470257 1429499 1373056 1307281 
2450.780 1241350 1185462 1149116 1137821 1152338 1187655 1234604 1281292 
2454.637 1316719 1333470 1329515 1309075 1280428 1254342 1240220 1243775 
2458.495 1266039 1303392 1349490 1396390 1437743 1468595 1486016 1489441 
2462.352 1479766 1459452 1432158 1403670 1380169 1366840 1367338 1381133 
2466.209 1403769 1426773 1440902 1437843 1413675 1369998 1314060 1256668 
2470.067 1208720 1179316 1173036 1189217 1223240 1268465 1317583 1364779 
2473.924 1406329 1439572 1462677 1474845 1474812 1462677 1439904 1409819 
2477.782 1377443 1348526 1328152 1319644 1323998 1340383 1366275 1399116 
2481.639 1436281 1475144 1512682 1544835 1566051 1570440 1553780 1515275 
2485.497 1459452 1395459 1336494 1295815 1282655 1299803 1341746 1396124 
2489.354 1445855 1474546 1470590 1429532 1356004 1262450 1166525 1085800 
2493.211 1035479 1024519 1053813 1116161 1198686 1286244 1363416 1419559 
2497.069 1449545 1454233 1439372 1413077 1383958 1358431 1340981 1333503 
2500.926 1336461 1349290 1370662 1398384 1428468 1456360 1476607 1484819 
2504.784 1479034 1461247 1436580 1411947 1394695 1389908 1398584 1418496 
2508.641 1444758 1471853 1495093 1512416 1523554 1529872 1533330 1535359 
2512.499 1536655 1537819 1538750 1539349 1539083 1536522 1529573 1515874 
2516.356 1493663 1463741 1430031 1400279 1383426 1388113 1419493 1476109 
2520.213 1549557 1626211 1690437 1728426 1733283 1705639 1654448 1592721 
2524.071 1533729 1487047 1455696 1437012 1424546 1412911 1399481 1387349 
2527.928 1382462 1392434 1421188 1467664 1524186 1580150 1624415 1649060 
2531.786 1652386 1638483 1614903 1589462 1568412 1553946 1545534 1540978 
2535.643 1538783 1539016 1543239 1553281 1569908 1591391 1614105 1633428 
2539.500 1645268 1647863 1642541 1632962 1623949 1620258 1624847 1637818 
2543.358 1656543 1676500 1691934 1697722 1691103 1672043 1644004 1612808 
2547.215 1585837 1570041 1569542 1585970 1617896 1662065 1714255 1770709 
2551.073 1827703 1880878 1925073 1953563 1959687 1939418 1892825 1825740 
2554.930 1749384 1678163 1625080 1598707 1600702 1626311 1665990 1709365 
2558.788 1748619 1779259 1801052 1815292 1823810 1827204 1824542 1814860 
2562.645 1798390 1777396 1756337 1740734 1736310 1746589 1772506 1811898 
2566.502 1859747 1909332 1952664 1982387 1993039 1982354 1952065 1908100 
2570.360 1859980 1816823 1787610 1777097 1785947 1811300 1848334 1891993 
2574.217 1938419 1985050 2029489 2069305 2101167 2121544 2127936 2120312 
2578.075 2101600 2077628 2054590 2038144 2031287 2034150 2044270 2058185 
2581.932 2072068 2081823 2083754 2073566 2047466 2003225 1941681 1868199 
2585.790 1791702 1724267 1676600 1655645 1662963 1694562 1742464 1798124 
2589.647 1854789 1908000 1955427 1996001 2027858 2048797 2057386 2055322 
2593.504 2047299 2041407 2047499 2071902 2116449 2176353 2241826 2300548 
2597.362 2342521 2361910 2358645 2337524 2304645 2266773 2227972 2190939 
2601.219 2157472 2129102 2108225 2096972 2096972 2106760 2123408 2142954 
2605.077 2161401 2177452 2192437 2210820 2236697 2273401 2320601 2374902 
2608.934 2430110 2479860 2520083 2549979 2572743 2593409 2617842 2649144 
2612.792 2687316 2728093 2765605 2793016 2805755 2803321 2788748 2768506 
2616.649 2749033 2735928 2730694 2731660 2734328 2733928 2726892 2713022 
2620.506 2694518 2675848 2660712 2651011 2645810 2642210 2636176 2625009 
2624.364 2608675 2589575 2572243 2561644 2560777 2570643 2589109 2612308 
2628.221 2635576 2655345 2670080 2680415 2689350 2701386 2720991 2751533 
2632.079 2794183 2846576 2904379 2960121 3006895 3038325 3050971 3044965 
2635.936 3023978 2993950 2960988 2930898 2906747 2889469 2877761 2869022 
2639.793 2860751 2850845 2839139 2826599 2815827 2809657 2811224 2822096 
2643.651 2842507 2871090 2905046 2941139 2976801 3010899 3043764 3076432 
2647.508 3109302 3141474 3170277 3191572 3201586 3199049 3185731 3167273 
2651.366 3150986 3143977 3150919 3172413 3204857 3242243 3278298 3308312 
2655.223 3330248 3344839 3354289 3361001 3367044 3373322 3380702 3389985 
2659.081 3402541 3419306 3441214 3467799 3497326 3527689 3556251 3581540 
2662.938 3603190 3620997 3635365 3646157 3653374 3657150 3659222 3662697 
2666.795 3671886 3690666 3720776 3760078 3803061 3842004 3869249 3880181 
2670.653 3874865 3858217 3837959 3821913 3815930 3821680 3836856 3856913 
2674.510 3876704 3892116 3901176 3903550 3899939 3890946 3877172 3859253 
2678.368 3838761 3818203 3801992 3793869 3797513 3813858 3841736 3876971 
2682.225 3914015 3946948 3970722 3981724 3978815 3962563 3935346 3900374 
2686.083 3861861 3823919 3790560 3765259 3749851 3745105 3750018 3762217 
2689.940 3778193 3793769 3804966 3808409 3801824 3784510 3757204 3721845 
2693.797 3681109 3637837 3594269 3552309 3513192 3477385 3445389 3417636 
2697.655 3394193 3374892 3359197 3346542 3336325 3329046 3325974 3329614 
2701.512 3342135 3364874 3396798 3434167 3470806 3500098 3516232 3516766 
2705.370 3502303 3477319 3448161 3420909 3399970 3387614 3383407 3385544 
2709.227 3392123 3401506 3412794 3425484 3438743 3451334 3462389 3470939 
2713.084 3477519 3483231 3489911 3498862 3509919 3521209 3529827 3533001 
2716.942 3529393 3520073 3508750 3500733 3500900 3512791 3537377 3573155 
2720.799 3616988 3665404 3715462 3764958 3811652 3853403 3887168 3909835 
2724.657 3918628 3913112 3895359 3870285 3844711 3825123 3816398 3820242 
2728.514 3835452 3858117 3883524 3907495 3926987 3940295 3946915 3946280 
2732.372 3938054 3921905 3898200 3868647 3836120 3804866 3779263 3762485 
2736.229 3755666 3757505 3764222 3771475 3774951 3772144 3762852 3749617 
2740.086 3736449 3727860 3727526 3737151 3755767 3780032 3805334 3826827 
2743.944 3840667 3845647 3842539 3834315 3824387 3815830 3810214 3807139 
2747.801 3805301 3803061 3799919 3796744 3795808 3799551 3809613 3825992 
2751.659 3846483 3868112 3888070 3904687 3918361 3930665 3943270 3956946 
2755.516 3970655 3981623 3986806 3984131 3974434 3960791 3948787 3944072 
2759.374 3950359 3968482 3995835 4027003 4055597 4076501 4086602 4085966 
2763.231 4077002 4064493 4053457 4048640 4053557 4069845 4097405 4134200 
2767.088 4176718 4220579 4261499 4296100 4322335 4340240 4351418 4358279 
2770.946 4363768 4369759 4377858 4388937 4403229 4421505 4444569 4473425 
2774.803 4508845 4550931 4598681 4649918 4702402 4753886 4802931 4849234 
2778.661 4893464 4936626 4979793 5022964 5065771 5106938 5146031 5183250 
2782.518 5220439 5261085 5308745 5366708 5435852 5514403 5597701 5679571 
2786.375 5753666 5815753 5864213 5901191 5930547 5956949 5984226 6014731 
2790.233 6049000 6087103 6129375 6177164 6232555 6297265 6371601 6453550 
2794.090 6539920 6627284 6713857 6800549 6891129 6990315 7101176 7222981 
2797.948 7350414 7475087 7587387 7681065 7754795 7813964 7867336 7924765 
2801.805 7993508 8075797 8168399 8265276 8360689 8451393 8538736 8627348 
2805.663 8723618 8832420 8955320 9090369 9233107 9378297 9522316 9664113 
2809.520 9805211 9948422 10096904 10252832 10417096 10589640 10770131 
2812.895 10958513 11155034 11359876 11573048 11793339 12018783 12246661 
2816.271 12474864 12701924 12928353 13156231 13389388 13632621 13890973 
2819.646 14168821 14469353 14793952 15142536 15512896 15902061 16306644 
2823.021 16723555 17150720 17587454 18035158 18496360 18975186 19476926 
2826.396 20006344 20568194 21166012 21800990 22472312 23177038 23911092 
2829.771 24670026 25450980 26253158 27078226 27929950 28813022 29732126 
2833.147 30691232 31694338 32745636 33851748 35022776 36272536 37617056 
2836.522 39074788 40663412 42398716 44294952 46364268 48619444 51075160 
2839.897 53748228 56658940 59829104 63279480 67028588 71088552 75464672 
2843.272 80152280 85137832 90398736 95900512 101603616 107459128 113410224 
2846.648 119398384 125355896 131209600 136883936 142293840 147352432 
2849.541 151974000 156071696 159568112 162394448 164492304 165818896 
2852.434 166348640 166077392 165024064 163233680 160774016 157724224 
2855.327 154176416 150219792 145936800 141406784 136699328 131879416 
2858.220 127010792 122149168 117347096 112651264 108098128 103719272 
2861.113 99539936 95579320 91854392 88377544 85156904 82197320 79499440 
2864.488 77061080 74878504 72946848 71260424 69811376 68588872 67576296 
2867.864 66750184 66081168 65531716 65060780 64625768 64183196 63696264 
2871.239 63134840 62478708 61720280 60864244 59926772 58931584 57908684 
2874.614 56888380 55898012 54962124 54099024 53321920 52640300 52059660 
2877.989 51582876 51210956 50943436 50778824 50714992 50750000 50880956 
2881.365 51104976 51418508 51817564 52298192 52857144 53491432 54199540 
2884.740 54979156 55827128 56738980 57707200 58723444 59780052 60871372 
2888.115 61994752 63151508 64344556 65576688 66848108 68156400 69496256 
2891.490 70862648 72251592 73662536 75097256 76559184 78049960 79569072 
2894.865 81113368 82679088 84263184 85865552 87488936 89137488 90813968 
2898.241 92518840 94248984 95999904 97768408 99555608 101367344 103214992 
2901.616 105111352 107069064 109097904 111203592 113388976 115654640 
2904.509 118000264 120425336 122928936 125510216 128169360 130908224 
2907.402 133732808 136653264 139682912 142835696 146123664 149553824 
2910.295 153127664 156841888 160690784 164667520 168764432 172972528 
2913.188 177277520 181659088 186091216 190540528 194972224 199350736 
2916.081 203637312 207793184 211772928 215523824 218991968 222120192 
2918.974 224857552 227164768 229013168 230385296 231271104 231666048 
2921.867 231569552 230986832 229931920 228426192 226500272 224190672 
2924.760 221534112 218569136 215333168 211861664 208191584 204356912 
2927.654 200388384 196312144 192147600 187909920 183613088 179270976 
2930.547 174901472 170524896 166160016 161824144 157529952 153284672 
2933.440 149093568 144961600 140895184 136903824 132997248 129185032 
2936.333 125475256 121873240 118382520 115006592 111748528 108612408 
2939.226 105602200 102720792 99969968 97350416 94862648 92507392 90286264 
2942.601 88201288 86254072 84445256 82773696 81237640 79834832 78564776 
2945.976 77428416 76428344 75567144 74846104 74263136 73811272 73479656 
2949.352 73252192 73109648 73031160 72994160 72975576 72954648 72910752 
2952.727 72826728 72688872 72486280 72211600 71859240 71424904 70904936 
2956.102 70295552 69594872 68802264 67919888 66952348 65905624 64787752 
2959.477 63606644 62369756 61084056 59755564 58388296 56985952 55551364 
2962.853 54087092 52597476 51088280 49567856 48046560 46534000 45039444 
2966.228 43568988 42126020 40712136 39328380 37977008 36662200 35389680 
2969.603 34165608 32995276 31881072 30823286 29819598 28867126 27963096 
2972.978 27105556 26293568 25526032 24801244 24115840 23464636 22841716 
2976.354 22240402 21654722 21081518 20519594 19970502 19438532 18929430 
2979.729 18449028 18002866 17594630 17224870 16891836 16590381 16314214 
2983.104 16055584 15807349 15563961 15322356 15082258 14846339 14619697 
2986.479 14408518 14219250 14057237 13925289 13824130 13751655 13705282 
2989.854 13682440 13682337 13706650 13759213 13844347 13965765 14124697 
2993.230 14319370 14545615 14798135 15072516 15367186 15683044 16023163 
2996.605 16391385 16789778 17217044 17668026 18134122 18604942 19068548 
2999.980 19515152 19936402 20326672 20683096 21005420 21295410 21556204 
3003.355 21790574 21999658 22181712 22330668 22437734 22492516 22485644 
3006.731 22411672 22270360 22066306 21807192 21501366 21155608 20772796 
3010.106 20353236 19895608 19399170 18865994 18301294 17713580 17113324 
3013.481 16510317 15913405 15329256 14761591 14212436 13681209 13166545 
3016.856 12665318 12174278 11690565 11212356 10740310 10277564 9829647 
3020.232 9402675 9002745 8634142 8298339 7993879 7717119 7463255 7226855 
3024.089 7003043 6787894 6577999 6371164 6166443 5964205 5766526 5577160 
3027.947 5400591 5241398 5103050 4987033 4892291 4815294 4750637 4692387 
3031.804 4634011 4570821 4499370 4418961 4330300 4236739 4142630 4052186 
3035.661 3969753 3897900 3837290 3786917 3744604 3708043 3675294 3645589 
3039.519 3619026 3595806 3576262 3559324 3542588 3523280 3498495 3466297 
3043.376 3426920 3382906 3338429 3298930 3269551 3253326 3250589 3257700 
3047.234 3268850 3276161 3272289 3253059 3218009 3171412 3120749 3075164 
3051.091 3041562 3023811 3020975 3028782 3040861 3051072 3055943 3054809 
3054.948 3049970 3044198 3040160 3038158 3036757 3032920 3023878 3008163 
3058.806 2986243 2960021 2932399 2905980 2882097 2861118 2842707 2826432 
3062.663 2812625 2802454 2796985 2797084 2802354 2810257 2816860 2817928 
3066.521 2809424 2789781 2760070 2724058 2687350 2655211 2631043 2615209 
3070.378 2604242 2592775 2575009 2546546 2506986 2459399 2409885 2365174 
3074.236 2330162 2306511 2292520 2283927 2275400 2262676 2243458 2216948 
3078.093 2183845 2144752 2100301 2051327 2000029 1950135 1906137 1873457 
3081.950 1855288 1851761 1859414 1872525 1885038 1893058 1896752 1899481 
3085.808 1906469 1921878 1946507 1977328 2007918 2030687 2040308 2034283 
3089.665 2014010 1982620 1944643 1903408 1861145 1819451 1779692 1744094 
3093.523 1714753 1693398 1679660 1671478 1664925 1656943 1646166 1634060 
3097.380 1625080 1624082 1634359 1655778 1684151 1712891 1734946 1745691 
3101.238 1744959 1736443 1726097 1719943 1721373 1730422 1743462 1755106 
3105.095 1760296 1755073 1738372 1711227 1676434 1637352 1596944 1557604 
3108.952 1520695 1486914 1456294 1428468 1402872 1379703 1359827 1344936 
3112.810 1337990 1341613 1358298 1388246 1429067 1474612 1517071 1547096 
3116.667 1556474 1540579 1500147 1441500 1375116 1314127 1270492 1251717 
3120.525 1259028 1288238 1329980 1373554 1410318 1435483 1448647 1452936 
3124.382 1451939 1448116 1441167 1428867 1408822 1380435 1346897 1313894 
3128.240 1288836 1278135 1283619 1303758 1332805 1363450 1388645 1404268 
3132.097 1409121 1405166 1395293 1383227 1372058 1363848 1359993 1361555 
3135.954 1367937 1378507 1390805 1401875 1408190 1407858 1400046 1386318 
3139.812 1369898 1354043 1341679 1334434 1332539 1335198 1341912 1352016 
3143.669 1364513 1378706 1392434 1403570 1409886 1409819 1403869 1393697 
3147.527 1381498 1369233 1357434 1345136 1331210 1314625 1296347 1278667 
3151.384 1264909 1257233 1255970 1258130 1259393 1255273 1243144 1224038 
3155.241 1202108 1183768 1174133 1176757 1190944 1213538 1239489 1264079 
3159.099 1283951 1298008 1306317 1309773 1308976 1303824 1294087 1279830 
3162.956 1261321 1240087 1218389 1198586 1182871 1173402 1171608 1178718 
3166.814 1194632 1219286 1250787 1286743 1323865 1358098 1385720 1403071 
3170.671 1407227 1396490 1370729 1331542 1283187 1232511 1186924 1154299 
3174.529 1139947 1145163 1167222 1198486 1230783 1255705 1268266 1267601 
3178.386 1256203 1238425 1218057 1197290 1175495 1150877 1121975 1088557 
3182.243 1053215 1019769 992536 975268 969556 974736 989182 1009806 1034184 
3186.583 1059559 1084072 1105465 1122074 1132804 1137588 1137854 1136292 
3190.440 1136259 1140478 1150412 1166026 1185628 1206959 1227095 1243908 
3194.298 1255538 1260091 1256402 1243476 1221446 1192041 1159282 1128386 
3198.155 1104833 1093240 1095300 1109085 1130014 1151840 1168551 1176325 
3202.013 1174266 1165162 1153003 1142405 1136724 1136957 1141973 1148717 
3205.870 1153966 1154996 1150611 1141342 1128120 1112839 1095931 1077529 
3209.728 1056935 1033752 1008610 983371 961420 946211 940168 943322 952520 
3214.067 962449 966534 959129 937345 901617 855966 806568 760096 722525 
3218.407 698164 689005 695244 714858 745393 783199 824129 864199 900289 
3222.746 930405 954347 973408 989846 1004857 1019238 1031394 1039000 1039166 
3227.086 1030597 1013891 992503 970818 953583 943854 941795 945414 950428 
3231.426 952388 947539 933892 912276 885182 856862 831963 815199 809854 
3235.765 817290 835847 861245 887407 907328 915430 908557 887639 856464 
3240.105 821838 790568 768063 757142 757839 767565 782800 799995 816859 
3244.444 831996 845110 856464 866922 877081 887540 898264 909022 918252 
3248.784 924030 923864 915629 898662 874093 844745 814701 787979 767664 
3253.124 754753 748679 747152 748147 750239 753093 756976 762354 768793 
3257.463 774867 778352 777323 771150 761225 750106 741775 739120 743501 
3261.803 753790 766868 778552 785224 785688 780908 774635 771316 775365 
3266.142 789340 812908 843616 877247 909121 935220 953317 962781 964143 
3270.482 958697 947539 931866 912541 890860 869013 850056 837839 835715 
3274.822 846305 870209 905801 949532 996156 1040793 1078525 1106129 1121808 
3279.161 1125330 1118088 1102010 1080219 1055607 1031294 1009474 991440 
3283.019 976928 964375 951026 934290 912242 884452 852546 819481 789605 
3287.358 767034 754753 754753 766370 787614 815199 844811 872234 893748 
3291.698 905801 906631 895907 875222 847898 818684 793323 776394 771349 
3296.037 779680 799763 828245 861012 893084 920809 941994 955575 962383 
3300.377 963778 961486 957269 952388 947241 941429 933128 919415 898098 
3304.717 867121 826851 780278 733477 693419 667036 659470 671516 699890 
3309.056 738356 780012 818884 851783 878874 902016 923034 942359 958531 
3313.396 968095 968128 957402 937511 912707 889133 871337 862274 861875 
3317.735 867187 874724 881464 886112 889299 892785 897699 903942 909686 
3322.075 911512 906764 893782 872865 846869 819182 794020 774170 761159 
3326.415 754553 753126 755217 758902 764013 770353 779083 791630 809390 
3330.754 832627 860946 892254 923100 950229 970220 981444 983869 978887 
3335.094 968460 954845 938541 919182 895541 866922 833690 798667 766137 
3339.433 741244 728565 730490 747019 775332 810817 847799 881098 905801 
3343.773 918817 918618 905203 880766 849592 817357 790535 774403 771946 
3348.113 782601 802352 824295 841558 849359 846504 836279 824925 819979 
3352.452 827249 848828 882360 922502 961719 993433 1013791 1021530 1018707 
3356.792 1008145 993334 976297 958332 940002 922303 906631 894778 887971 
3361.131 886079 887407 888901 887540 881497 871470 860415 852447 851218 
3365.471 858024 871669 888237 903477 914666 921340 926288 933161 945082 
3369.811 963147 984666 1004592 1017411 1018673 1007083 984566 955443 925624 
3374.150 899492 880434 870009 868217 874159 886112 901285 915729 925159 
3378.490 925026 912740 888303 855899 822071 794352 778718 777987 790667 
3382.829 811979 835980 857493 873462 883821 890295 895641 901651 909487 
3387.169 918684 928645 938308 945813 949432 946377 934091 911047 878442 
3391.509 840462 804775 780012 772909 786452 817523 859087 901651 936880 
3395.848 960656 973275 979983 986891 999444 1019504 1044712 1069258 1086697 
3400.188 1091646 1080917 1054942 1016614 970851 923067 878708 842255 816361 
3404.527 802120 798468 803049 811879 821971 831200 839333 847832 858788 
3408.867 873595 891623 909852 923200 926620 916094 891059 854173 811381 
3413.207 769921 737261 718708 716584 729694 753292 781108 805240 819415 
3417.546 819747 806070 782137 754520 731652 719538 721794 737195 760628 
3421.886 784991 803912 814070 815232 810817 805207 802817 806302 816493 
3426.225 832362 852281 874093 895475 914301 927118 930073 920377 896338 
3430.565 859551 814966 770220 732946 709382 702114 709349 726043 745625 
3434.905 762685 774071 779647 781705 783431 787580 795414 806336 819315 
3439.244 832860 846039 859087 872831 888204 905602 925889 948602 973906 
3443.584 1002234 1034018 1069623 1109119 1151674 1194865 1235634 1270359 
3447.441 1295948 1310870 1315356 1311202 1301564 1289002 1275975 1264079 
3451.299 1254243 1246733 1242114 1241449 1246633 1259460 1281791 1314094 
3455.156 1355340 1402706 1452537 1500080 1541277 1573466 1594849 1605126 
3459.013 1605325 1596978 1582944 1565585 1548260 1533430 1522623 1516505 
3462.871 1513945 1513313 1512948 1512549 1513280 1518068 1529772 1551087 
3466.728 1581747 1619060 1657741 1690703 1711826 1716783 1704508 1677032 
3470.586 1639248 1597809 1559633 1530969 1516439 1518700 1537786 1571271 
3474.443 1614571 1662530 1709265 1749983 1782220 1805011 1819318 1826472 
3478.301 1827470 1823111 1813229 1797725 1776764 1751480 1723569 1694928 
3482.158 1667087 1640944 1616932 1594949 1575295 1558668 1545700 1536988 
3486.015 1531767 1527611 1521892 1511352 1493796 1468861 1437943 1403769 
3489.873 1369499 1337591 1310039 1288039 1272553 1264079 1262550 1267601 
3493.730 1276972 1286776 1291894 1287308 1269495 1237628 1193802 1143535 
3497.588 1093307 1049362 1016448 997485 993101 1002068 1022393 1050126 
3501.445 1080518 1107790 1125363 1127821 1112042 1078459 1031693 978555 
3505.302 927616 886112 858721 847467 851185 866125 886577 907129 922403 
3509.642 928944 925624 913504 894944 873197 851517 832826 819780 813672 
3513.982 815033 823764 838304 856530 875155 890727 900688 903576 899526 
3518.321 890860 881597 875222 874425 879604 889000 899061 906133 908059 
3522.661 905203 900455 897533 900156 909420 923997 940533 954911 964409 
3527.000 968327 968261 966600 965936 967530 970486 973574 975434 976231 
3531.340 977426 981278 989880 1003861 1022393 1042354 1060755 1074373 
3535.198 1081183 1080718 1073676 1061353 1045044 1025648 1004094 980980 
3539.055 957966 936747 919182 906764 900322 899957 905203 916194 932597 
3543.395 953948 978788 1003861 1023854 1033220 1027242 1004725 969323 929708 
3547.734 895940 878276 882925 910682 956837 1012496 1066202 1106694 1126293 
3552.074 1123436 1103638 1075768 1049694 1032058 1023356 1019736 1014057 
3555.931 1000142 975035 940599 903676 873197 857194 859983 880003 910283 
3560.271 939968 958631 959461 940433 905104 859784 812510 770021 737692 
3564.610 719007 716252 731154 764411 814634 877280 944086 1006020 1054942 
3568.950 1085468 1095798 1086564 1060223 1020600 973508 924760 881464 849592 
3573.290 832959 832494 845508 867121 890528 910184 922403 925790 921838 
3577.629 912508 900223 887473 876218 868781 867619 875587 893881 921241 
3581.969 953118 981843 998614 995559 968759 920178 857194 791630 737925 
3586.308 708851 710444 739451 783464 827515 859352 873429 870242 852247 
3590.648 822668 782734 733278 675266 611853 548913 494873 459845 452117 
3594.988 475966 530004 607307 697799 789273 870341 931866 967796 977061 
3599.327 963711 936847 907926 888436 886079 902348 932597 968294 1000042 
3603.667 1020201 1024851 1013260 987821 951989 909287 863104 816162 771647 
3608.006 733876 707158 695742 701317 723222 757939 800626 845608 886444 
3612.346 917389 933394 931302 910781 874691 827249 774037 720766 672976 
3616.686 636075 614839 611786 626917 655853 691527 725943 752960 769921 
3621.025 777390 777556 772643 764743 754487 741841 726906 709581 690465 
3625.365 671483 655421 646462 650079 671217 712037 767830 825025 865361 
3629.704 877944 862639 827880 784460 741244 706030 683496 676494 684956 
3634.044 706395 735203 765640 792460 811448 820411 818253 805672 785257 
3638.384 760329 735435 714427 700156 694182 696638 706860 723354 743965 
3642.723 765474 784593 797306 800028 789970 766071 730457 688009 648552 
3647.063 623533 623864 655654 717148 798634 885747 963910 1022028 1054776 
3651.402 1062150 1047303 1014920 970054 918120 865295 817921 783033 765673 
3655.742 766403 780278 799398 816228 827780 836179 845110 858356 876716 
3660.082 897467 915895 926421 925225 911446 888004 860149 832926 810684 
3664.421 795680 788742 789705 798037 813937 837341 867254 901783 936714 
3668.761 966766 986193 991407 981943 961320 933228 899692 861344 817755 
3673.100 769324 719670 675266 647324 645566 670819 710610 747351 768959 
3677.440 771349 757209 731386 699525 667169 638232 616332 603690 602330 
3681.780 613711 638730 676029 722126 771813 817755 853642 875421 881729 
3686.119 873661 854339 828245 799730 773075 750305 731419 714825 698795 
3690.459 682865 667998 656848 652136 656251 669989 692556 720898 750637 
3694.798 776892 794219 799364 791730 773241 747982 720732 694713 671649 
3699.138 651904 634914 620944 611388 608601 614640 629638 650975 673972 
3703.478 693817 706727 711340 707922 698364 685421 672279 661361 655189 
3707.817 655886 665211 684392 714061 752562 795879 837806 870873 889299 
3712.157 890926 878044 855866 830137 805838 785954 771880 763416 759632 
3716.496 759034 759499 759897 760130 762121 769357 785423 812444 849426 
3720.836 890959 928911 953384 957701 941131 909918 875288 848529 838105 
3725.176 845840 866656 890163 905668 906266 891524 866025 837175 811414 
3729.515 792792 782834 780908 785091 793157 803315 813871 822834 827814 
3733.855 825291 812676 790070 762453 738721 727470 732515 751102 775896 
3738.194 797306 808062 803215 781838 747152 705665 665476 634250 618953 
3742.534 625192 655620 707391 768594 820577 847168 844479 820178 785821 
3746.874 750604 721695 703939 699525 708453 726806 748911 768129 780344 
3751.213 785224 785124 782601 779083 773971 766370 755450 741078 724284 
3755.553 707125 692257 682102 679381 685553 700853 723819 751533 779348 
3759.892 802485 817357 822701 820178 813904 808991 810319 821108 842022 
3764.232 869843 897998 917289 920510 904639 872068 828577 781539 738622 
3768.572 705466 685487 678784 681704 688507 693950 695012 691793 687146 
3772.911 684823 689038 702512 726076 757541 792194 823996 846637 855966 
3777.251 850289 830868 801987 770519 742704 723520 715190 716617 726242 
3781.590 742571 764843 792626 824627 857991 887241 906664 910914 898065 
3785.930 869843 831698 791132 754985 729262 717281 719670 734871 759731 
3790.270 790501 823232 854903 882792 905469 921805 931966 936681 936980 
3794.609 934489 930937 927815 926055 925491 925923 926421 926786 928181 
3798.949 931767 940002 954247 973740 994496 1009042 1010503 997186 973275 
3803.288 946145 923465 911379 913272 929276 955609 983603 1001968 1001935 
3807.628 982208 949067 911744 878177 852745 835814 824759 816062 806369 
3811.968 794252 780908 769324 764113 769258 787580 818286 855899 891989 
3816.307 917887 929741 929741 924163 920012 925425 947075 990112 1054045 
3820.647 1129648 1199284 1243343 1252348 1228357 1180910 1120546 1057002 
3824.504 997817 947639 910449 887506 878276 880999 893284 913139 939437 
3828.844 970220 1003197 1034250 1057865 1068627 1062847 1040129 1004326 
3832.701 961852 918750 879870 847400 821905 802850 789605 782369 781838 
3837.041 788643 802784 822801 846272 869777 890229 905502 913405 912873 
3841.380 902946 883987 857227 826320 795879 770984 755151 749674 753325 
3845.720 763316 776560 790867 804809 817755 829839 840429 849193 855966 
3850.060 861577 868383 881397 906664 948934 1006452 1066169 1106959 1112441 
3854.399 1083740 1034981 984234 943754 920278 915065 924694 943289 964010 
3858.739 981710 992702 995691 991042 979087 960324 934855 902846 866656 
3863.078 830403 800958 785224 788112 809556 844977 886842 929276 969124 
3867.418 1006518 1043384 1081847 1121676 1158750 1186791 1200712 1200447 
3871.275 1190977 1179183 1170976 1169913 1176359 1186990 1195961 1197888 
3875.133 1189748 1172471 1149780 1125994 1105365 1090118 1080950 1076698 
3878.990 1074639 1070454 1060024 1040926 1013127 979053 942094 905668 872798 
3883.330 846736 831432 830403 846338 878110 919315 959793 991308 1009142 
3887.669 1013824 1008145 996920 985131 976463 973640 976729 983039 988684 
3892.009 990477 987157 979950 971150 963014 956804 952487 949565 946875 
3896.349 943621 939537 934622 929110 923001 916260 908955 902580 899326 
3900.688 902381 914700 936814 967098 1000009 1028537 1045775 1047469 1034848 
3905.028 1013227 989747 970021 956804 949797 946709 944684 942094 938773 
3909.367 936117 936216 940931 951093 965405 981810 997352 1009441 1016581 
3913.707 1018242 1014256 1004924 991009 973541 954546 936581 922602 914201 
3918.047 911877 914268 918983 923598 926188 926587 925126 923034 920776 
3922.386 918850 916991 915563 915231 918020 926022 940765 961719 986426 
3926.726 1010902 1031095 1044380 1049528 1047768 1041690 1033885 1026080 
3930.583 1018341 1009075 996887 981843 966534 955077 951790 959295 976696 
3934.923 1000341 1025283 1046107 1059028 1062715 1058430 1048964 1037505 
3938.780 1026611 1017378 1009673 1002699 995758 988352 980349 971548 962084 
3943.120 952155 942824 936283 934921 941529 957867 983138 1014157 1044845 
3947.459 1068893 1080850 1079422 1067564 1052617 1042819 1044380 1059626 
3951.317 1086099 1117889 1146923 1166990 1173900 1167189 1148883 1123337 
3955.174 1095134 1067929 1044314 1025249 1011068 1001503 995824 993400 
3959.032 993699 996123 1000540 1007747 1018707 1034649 1056038 1082544 
3962.889 1111743 1140644 1165827 1184565 1195795 1200048 1198686 1193436 
3966.747 1184997 1173136 1156591 1134233 1106029 1073941 1041490 1013526 
3970.604 994097 985728 988186 999311 1015020 1031360 1044679 1052750 1054411 
3974.944 1049429 1038103 1021696 1002101 982474 966866 959527 963711 980614 
3979.283 1008677 1043882 1080352 1112308 1135130 1147056 1148485 1142206 
3983.141 1131874 1120480 1110514 1103339 1099153 1097924 1099253 1102674 
3986.998 1107458 1112939 1118221 1122938 1126692 1129515 1131475 1132206 
3990.855 1131409 1128187 1121941 1112806 1102176 1092576 1087560 1090052 
3994.713 1101478 1121244 1146624 1173601 1197589 1215365 1225633 1229420 
3998.570 1229288 1228756 1230916 1237595 1247896 
##END=
