##TITLE=bd_0 Sep 15 13:09:06 2026 (GMT+02:00)
##JCAMP-DX=5.01  $$ Nicolet v. 970
##DATATYPE=INFRARED SPECTRUM
##ORIGIN=Vojna akademija
##OWNER=Nicolet
##LONGDATE=2026/09/15
##TIME=13:09:30
##SPECTROMETER/DATA SYSTEM=Nicolet iS20
##DATA PROCESSING=
Ratio against background
%Transmittance->Absorbance
Truncated
ElementMultiply or ElementDivide
##COMMENTS=
Number of sample scans: 8
Collection length: 11,90 sec
Sample gain: 8,0
Background collected on: Tue Sep 15 13:08:04 2026 (GMT+02:00);
Number of background scans: 8
Background gain: 8,0
Sample spacing:  1,000
Number of scan points: 12415
Resolution points: 8286
Number of FFT points: 65536
Apodization: N-B strong;
Phase correction: Mertz;
Laser frequency: 15798,00 cm-1
Number of rejected sample scans: 0
Number of rejected background scans: 0
Bench serial number: BER2010005;
##RESOLUTION= 4,000
##XUNITS=1/CM
##YUNITS=ABSORBANCE
##FIRSTX=400.156891
##LASTX=4000.123047
##FIRSTY=0.021106
##MAXX=4000.123047
##MINX=400.156891
##MAXY=0.218486
##MINY=-0.000206
##XFACTOR=1.000000
##YFACTOR=1.000000E-009
##NPOINTS=7468
##DELTAX=0.482117
##ZPD=6100
##XYDATA=(X++(Y..Y))
400.157 21105622 18869212 17567166 17168336 17627064 18848724 20673750 
403.532 22855160 25078440 27009182 28322736 28834478 28551726 27677698 
406.907 26511592 25351070 24405778 23758336 23393296 23223280 23144678 
410.281 23051830 22868468 22559974 22140950 21681226 21309332 21187582 
413.656 21436336 22090360 23053472 24127540 25037652 25488328 25223582 
417.031 24079836 22093744 19603742 17307066 15920313 15735539 16447749 
420.406 17513414 18494390 19195662 19590468 19698420 19528702 19066264 
423.781 18304646 17305790 16228078 15313775 14789736 14802454 15369794 
427.155 16378861 17623510 18874852 19968214 20827230 21476578 21986132 
430.530 22412684 22747222 22913524 22802462 22350516 21577724 20605124 
433.905 19608700 18789176 18307826 18241576 18564894 19153414 19838932 
437.280 20448458 20863974 21033834 20965118 20715904 20392578 20138798 
440.655 20101074 20408206 21111952 22154722 23357736 24473112 25267690 
444.030 25584860 25394698 24772374 23869538 22858792 21919460 21212212 
447.404 20842872 20855876 21218094 21836388 22574564 23295046 23885642 
450.779 24274642 24454956 24478056 24435746 24408652 24437428 24506170 
454.154 24569068 24585582 24561354 24555534 24672094 25008518 25593542 
457.529 26330708 27020818 27439602 27449944 27055550 26357394 25489276 
460.904 24562652 23658572 22825162 22098100 21520202 21138356 20992520 
464.278 21092162 21396618 21810082 22192034 22402182 22334296 21960900 
467.653 21334944 20570070 19783096 19053974 18423550 17902272 17497822 
471.028 17238178 17163818 17300272 17619128 18023968 18364232 18499438 
474.403 18356490 17939114 17317686 16593065 15869755 15222589 14688342 
477.778 14269512 13947528 13700392 13511740 13368681 13247805 13108590 
481.152 12901079 12578880 12131957 11600477 11079978 10688417 10532502 
484.527 10663457 11054452 11604016 12173392 12648227 12959963 13109102 
487.902 13150459 13173615 13266662 13496017 13885500 14406394 14981996 
491.277 15498027 15838517 15910964 15685380 15211298 14614145 14053062 
494.652 13664146 13534642 13665719 13975893 14320260 14548630 14546848 
498.027 14278962 13793005 13202750 12650171 12260124 12124836 12271576 
501.401 12656073 13164531 13651802 13975893 14031330 13778947 13243774 
504.776 12511659 11705543 10978461 10477986 10304774 10490477 10976422 
508.151 11635359 12303888 12848415 13190556 13317771 13270967 13117844 
511.526 12921184 12713217 12489731 12218204 11864637 11414400 10890659 
514.901 10356215 9904013 9619632 9555237 9698536 9976426 10274511 10481346 
518.758 10535490 10439496 10257309 10078862 9992293 10045155 10238685 
522.132 10535761 10883796 11232009 11549330 11827318 12072164 12291072 
525.507 12480968 12623291 12695715 12685412 12598049 12456485 12288686 
528.882 12115160 11940001 11754256 11545588 11312329 11072432 10863854 
532.257 10726861 10692084 10762795 10913866 11096429 11261728 11375148 
535.632 11428517 11438587 11437362 11454917 11508636 11603505 11736111 
539.007 11904548 12112775 12367770 12674017 13024215 13398410 13768652 
542.381 14108713 14404304 14655954 14870442 15049327 15179455 15232163 
545.756 15175166 14990708 14692352 14324540 13954611 13642878 13426159 
549.131 13307419 13259488 13241212 13218291 13180207 13140282 13127338 
552.506 13167843 13275544 13446082 13660179 13893676 14127573 14350088 
555.881 14555037 14735574 14880661 14976715 15014648 14994584 14927742 
559.255 14829916 14711752 14569976 14386152 14133871 13795980 13376643 
562.630 12909476 12449699 12064431 11812405 11728690 11822517 12077411 
566.005 12462554 12938559 13468401 14017881 14554043 15047681 15476017 
569.380 15827451 16106129 16331518 16531520 16731681 16951262 17196188 
572.755 17461500 17734670 17999860 18238328 18431224 18563164 18628112 
576.130 18641810 18644784 18703206 18888798 19252946 19807406 20508650 
579.504 21262214 21936154 22410660 22609326 22528706 22228544 21805868 
582.879 21351058 20914768 20507470 20111070 19705770 19294060 18910324 
586.254 18610856 18453420 18470292 18656060 18967018 19341000 19710382 
589.629 20023484 20254978 20400878 20472180 20488608 20474542 20455126 
593.004 20456550 20502052 20603354 20757086 20939770 21114562 21236812 
596.378 21267920 21185460 20984244 20672048 20262130 19771028 19217342 
599.753 18628840 18047316 17521108 17099746 16817606 16683094 16675521 
603.128 16751895 16860730 16953260 16999498 16990574 16933278 16840546 
606.503 16722281 16582394 16419703 16234614 16033752 15830647 15642544 
609.878 15485666 15369692 15299222 15274066 15291844 15347929 15434816 
613.253 15538891 15637873 15708603 15729045 15689570 15597618 15476738 
616.627 15357540 15265862 15215828 15207008 15232094 15286249 15371751 
620.002 15499778 15677445 15897663 16129924 16322849 16421940 16384434 
623.377 16202420 15906839 15563892 15246747 15014991 14895371 14874283 
626.752 14908676 14944854 14942899 14884672 14778285 14649648 14533280 
630.127 14458562 14443730 14491997 14593482 14725394 14856659 14954869 
633.501 14989165 14940602 14807083 14607875 14378857 14162214 13999265 
636.876 13918925 13933945 14042795 14233082 14485179 14771361 15062191 
640.251 15321773 15515678 15621833 15636876 15582575 15500191 15440206 
643.626 15439210 15507230 15621867 15738631 15810819 15813295 15756393 
647.001 15687613 15672224 15762132 15978334 16294397 16648941 16965664 
650.375 17189708 17303894 17334616 17335064 17364894 17466776 17649288 
653.750 17888426 18139408 18356626 18506178 18580386 18595396 18587892 
657.125 18598128 18659726 18787828 18973836 19187006 19382920 19522428 
660.500 19581940 19566202 19506140 19451040 19448234 19524890 19679144 
663.875 19883918 20099582 20292542 20451582 20592062 20756878 21006570 
667.250 21397940 21933436 22527832 23043620 23400394 23617846 23775068 
670.624 23947432 24189612 24527344 24960684 25470970 26029456 26610678 
673.999 27197194 27781288 28358600 28919502 29447444 29922104 30329698 
677.374 30669328 30952218 31195022 31408292 31591308 31733726 31825270 
680.749 31866986 31878396 31894516 31959244 32108810 32364364 32727596 
684.124 33184324 33712896 34292988 34913136 35565964 36244516 36936756 
687.498 37620888 38270956 38863048 39380512 39819128 40185236 40493052 
690.873 40760396 41008676 41260488 41535448 41848164 42201456 42586752 
694.248 42983184 43366468 43716340 44023628 44291540 44531824 44757000 
697.623 44972336 45176304 45361940 45525652 45672272 45814372 45966432 
700.998 46138996 46333632 46544180 46767116 47009144 47293500 47657424 
704.373 48136204 48750616 49492248 50324168 51186348 52017788 52777560 
707.747 53454144 54068664 54662856 55286244 55976328 56756084 57629592 
711.122 58586420 59604380 60655136 61707752 62731072 63702708 64615384 
714.497 65483212 66337952 67220944 68168416 69198040 70306344 71473568 
717.872 72678840 73907888 75157176 76423800 77686448 78891992 79955904 
721.247 80772904 81255768 81356656 81079144 80464784 79571464 78445168 
724.621 77108008 75569976 73848416 71986160 70062976 68174464 66406048 
727.996 64812636 63398704 62125784 60931148 59759404 58574548 57371024 
731.371 56163812 54972992 53809992 52672808 51549000 50425304 49294704 
734.746 48158308 47023584 45899292 44794360 43716636 42676636 41687512 
738.121 40760724 39900880 39099404 38334108 37572688 36787680 35965464 
741.496 35113872 34259108 33436506 32676078 31991058 31375490 30807672 
744.870 30262444 29717014 29158622 28585520 28002358 27416910 26840388 
748.245 26288358 25779712 25335932 24973562 24694820 24483628 24304672 
751.620 24116050 23878568 23573802 23209998 22821530 22452320 22144228 
754.995 21923086 21792908 21739886 21741034 21774548 21822800 21873080 
758.370 21914338 21932112 21911062 21838966 21714004 21547674 21363762 
761.744 21190400 21048232 20944984 20873812 20818332 20760876 20689700 
765.119 20601268 20495870 20372298 20223664 20038368 19808032 19534456 
768.494 19234348 18934378 18664154 18441352 18264972 18114018 17958902 
771.869 17775950 17561024 17333926 17135142 17011076 16992504 17082616 
775.244 17248898 17431906 17554882 17547466 17365204 16997052 16471323 
778.619 15847350 15209239 14638339 14200454 13929497 13819650 13828338 
781.993 13889092 13935108 13911056 13792731 13589304 13336767 13080349 
785.368 12857425 12688073 12569467 12482536 12402136 12309138 12194247 
788.743 12059048 11909928 11753065 11592581 11431715 11277268 11143000 
792.118 11047688 11011051 11043950 11141640 11280941 11428280 11546404 
795.493 11609324 11611536 11567263 11503839 11450086 11426102 11434981 
798.867 11465088 11495844 11509249 11498634 11472743 11452161 11465700 
802.242 11537421 11678278 11882072 12125961 12377248 12600334 12769072 
805.617 12870668 12908520 12896574 12853296 12793437 12722258 12637959 
808.992 12536862 12421570 12306172 12215614 12177685 12215171 12333271 
812.367 12517252 12735224 12951122 13133383 13267960 13358909 13423459 
815.742 13480739 13540863 13599662 13643015 13654298 13624552 13560827 
819.116 13485797 13432173 13429371 13497692 13639459 13841713 14079654 
822.491 14326527 14561410 14771395 14953051 15110698 15252067 15383869 
825.866 15510938 15633374 15747597 15848551 15932446 16000129 16059848 
829.241 16124766 16208438 16319271 16454358 16597506 16722005 16801900 
832.616 16818880 16772386 16679067 16569657 16476933 16424866 16425382 
835.990 16478103 16575510 16711984 16887150 17104984 17366962 17664574 
839.365 17973822 18257440 18477828 18605080 18632056 18575856 18473228 
842.740 18365820 18286536 18251080 18254260 18275788 18289924 18279348 
846.115 18239366 18180384 18124486 18098956 18127836 18225198 18393682 
849.490 18622164 18890668 19172010 19440888 19678174 19875248 20035662 
852.865 20172326 20299762 20426334 20548842 20652100 20713886 20713540 
856.239 20641400 20503372 20320978 20121966 19933904 19776958 19658862 
859.614 19579028 19533208 19519932 19543328 19612168 19734550 19911320 
862.989 20131510 20371014 20596090 20773734 20877464 20895266 20831262 
866.364 20705234 20546586 20385182 20247618 20149314 20093890 20076296 
869.739 20087922 20120820 20171284 20239356 20325596 20426472 20531370 
873.113 20621454 20674410 20672638 20608670 20489930 20337992 20182982 
876.488 20050756 19958986 19911112 19897966 19903690 19912674 19915484 
879.863 19909864 19898278 19882980 19863314 19833176 19783338 19704418 
883.238 19591506 19445636 19275322 19093478 18916900 18763538 18649004 
886.613 18585678 18578520 18624068 18709572 18815126 18916968 18992182 
889.987 19026002 19014232 18964042 18889456 18807306 18729774 18661282 
893.362 18597644 18530832 18452520 18360430 18262070 18173820 18119752 
896.737 18121928 18196140 18342354 18543178 18762710 18955388 19079628 
900.112 19105318 19026970 18866268 18668442 18484604 18360048 18317950 
903.487 18352652 18433542 18516276 18562336 18547742 18473300 18358978 
906.862 18235806 18130150 18054880 18007908 17975480 17940566 17892224 
910.236 17830356 17765354 17714030 17691942 17709542 17768426 17861910 
913.611 17975962 18093050 18193650 18258130 18271848 18226754 18126108 
916.986 17985252 17831010 17695220 17605154 17577618 17612918 17695082 
920.361 17795074 17882004 17929412 17920848 17852416 17729838 17564232 
923.736 17368514 17156926 16944888 16750723 16598022 16512623 16519403 
927.110 16637200 16869858 17204324 17607846 18037436 18445190 18790422 
930.485 19049474 19217826 19309788 19351220 19374154 19404922 19459148 
933.860 19540936 19643920 19756360 19865186 19960270 20033858 20081502 
937.235 20100830 20092676 20063282 20024454 19995968 19999820 20055788 
940.610 20174236 20352018 20572222 20809502 21039780 21245824 21424048 
943.985 21582180 21735462 21898238 22077846 22273430 22478106 22683436 
947.359 22883590 23077548 23266522 23451942 23632470 23804746 23964764 
950.734 24112478 24252570 24392460 24538180 24689630 24838922 24973106 
954.109 25080440 25158238 25218422 25285670 25388236 25550700 25782208 
957.484 26072344 26392426 26704358 26970924 27161954 27263482 27275864 
960.859 27213350 27099032 26962252 26834256 26740194 26696288 26703760 
964.233 26748228 26803664 26842116 26844300 26805390 26738220 26665532 
967.608 26610220 26583164 26578340 26575768 26552450 26491694 26392708 
970.983 26270158 26147680 26046098 25974754 25929204 25896774 25864560 
974.358 25827954 25794196 25779114 25798452 25860128 25959980 26083074 
977.733 26211590 26329474 26429820 26514376 26590070 26663662 26739418 
981.108 26818852 26901862 26990316 27087290 27195358 27313442 27434486 
984.482 27545890 27633416 27686456 27702348 27686102 27647398 27596200 
987.857 27538546 27475710 27407416 27335530 27266902 27213632 27189116 
991.232 27203330 27259106 27351232 27468088 27595210 27720006 27832190 
994.607 27924546 27992076 28031444 28043392 28034026 28017238 28011442 
997.982 28035192 28101254 28211380 28354992 28512272 28662144 28785546 
1001.356 28871304 28916420 28923186 28897616 28849598 28796024 28761046 
1004.731 28776694 28876192 29081382 29394508 29790536 30224042 30637076 
1008.106 30979544 31225428 31378482 31467818 31532764 31609230 31714440 
1011.481 31845276 31984850 32115552 32228090 32327026 32427304 32546994 
1014.856 32699298 32887612 33106684 33346944 33598432 33851100 34097076 
1018.231 34326052 34527552 34693904 34824816 34930732 35031040 35148864 
1021.605 35301224 35492896 35713756 35947036 36176448 36394880 36607148 
1024.980 36825188 37058200 37304484 37547796 37763128 37930072 38041236 
1028.356 38109092 38161184 38230868 38339936 38492188 38669844 38841920 
1031.731 38973108 39033824 39007472 38888232 38678572 38385356 38021056 
1035.106 37603764 37156836 36711412 36297824 35940844 35656524 35447524 
1038.481 35306036 35217852 35166972 35136220 35108732 35067208 34992788 
1041.857 34871020 34697460 34483320 34255412 34049952 33902756 33833264 
1045.232 33838996 33894948 33966244 34018772 34037944 34033680 34038840 
1048.607 34095932 34242076 34498316 34863228 35315096 35820288 36345556 
1051.982 36861040 37343480 37775884 38144432 38440020 38662780 38824456 
1055.358 38948752 39069204 39221604 39432972 39715968 40064616 40457120 
1058.733 40860964 41243072 41578180 41852980 42068084 42236620 42380816 
1062.108 42524228 42686868 42880696 43106772 43355852 43613604 43866128 
1065.483 44103356 44322804 44527200 44721044 44907732 45087412 45259476 
1068.859 45427052 45599836 45796404 46037048 46341112 46718520 47167940 
1072.234 47677688 48232352 48819204 49431352 50068796 50733872 51426828 
1075.609 52144608 52881696 53636792 54417656 55242400 56134548 57112308 
1078.984 58180604 59324540 60513996 61709812 62877952 64000212 65074020 
1082.359 66109136 67118840 68112944 69095080 70065304 71023848 71971848 
1085.735 72910472 73833736 74727992 75573528 76356248 77076664 77759336 
1089.110 78443936 79173912 79975072 80841472 81731776 82583744 83339064 
1092.485 83959320 84440672 84806528 85092200 85324432 85512024 85647368 
1095.860 85717352 85714688 85644264 85517112 85342736 85120056 84838312 
1099.236 84484256 84054720 83563160 83035568 82497952 81961528 81415728 
1102.611 80835688 80196240 79493232 78753536 78034576 77403832 76916288 
1105.986 76602456 76459792 76466160 76593216 76824096 77157280 77600632 
1109.361 78159112 78823848 79568680 80359792 81165256 81968808 82771288 
1112.737 83583728 84414312 85258048 86095648 86901544 87652176 88335152 
1116.112 88946600 89479480 89911720 90203952 90302376 90161704 89765312 
1119.487 89136184 88331456 87422880 86475688 85524656 84574744 83607864 
1122.862 82602944 81549672 80458880 79357768 78286784 77288376 76402112 
1126.238 75668256 75124352 74805840 74742744 74951936 75434272 76175552 
1129.613 77154512 78349952 79750784 81358536 83181128 85221920 87470816 
1132.988 89897088 92458160 95108568 97812688 100553096 103325440 106125800 
1136.363 108937944 111726160 114442248 117041968 119497544 121806344 
1139.256 123981248 126033544 127955200 129713520 131261808 132565752 
1142.150 133620400 134462224 135151024 135753504 136313312 136842560 
1145.043 137330464 137762848 138142624 138499792 138878784 139324288 
1147.936 139858864 140475792 141144768 141830432 142511664 143186736 
1150.829 143869952 144575696 145307184 146053024 146794848 147521376 
1153.722 148237424 148959872 149702576 150458208 151187936 151830144 
1156.615 152326800 152645152 152797888 152835616 152825552 152812544 
1159.508 152802144 152755696 152615440 152331520 151889712 151314848 
1162.401 150658832 149970240 149270256 148548480 147771296 146904640 
1165.294 145931568 144858720 143708800 142504672 141256176 139959840 
1168.187 138608384 137203024 135761792 134315440 132892968 131509584 
1171.080 130157648 128812536 127444744 126037120 124591408 123125104 
1173.973 121657904 120200056 118745816 117279120 115785520 114264872 
1176.866 112735144 111226376 109765520 108363744 107011744 105687016 
1179.759 104365600 103036472 101707760 100400888 99137608 97927592 96763088 
1183.135 95624040 94490728 93354456 92223688 91120544 90070408 89087856 
1186.510 88171888 87306232 86468440 85638936 84808424 83977976 83153720 
1189.885 82339680 81534080 80730216 79921256 79105256 78287136 77475904 
1193.260 76680016 75901808 75136920 74376728 73614128 72848680 72088088 
1196.636 71345664 70634912 69965840 69341608 68759136 68211528 67691288 
1200.011 67190312 66700532 66214940 65726460 65232480 64736208 64247428 
1203.386 63780568 63348136 62957004 62604680 62281752 61977556 61687472 
1206.761 61416896 61180212 60992568 60863328 60787936 60749216 60720828 
1210.137 60679444 60612352 60520964 60416732 60314956 60225196 60147976 
1213.512 60076776 60004640 59929852 59859528 59806288 59781800 59792104 
1216.887 59834772 59902012 59986648 60087504 60210044 60363080 60551132 
1220.262 60768764 61000580 61227132 61432164 61612052 61777500 61949580 
1223.638 62148724 62387200 62664008 62967308 63280896 63593336 63901664 
1227.013 64208628 64517848 64826720 65124296 65395804 65629980 65825344 
1230.388 65992208 66147952 66308072 66477136 66646256 66795700 66907240 
1233.763 66969784 66986100 66970832 66942996 66916168 66895372 66876128 
1237.139 66850580 66812708 66761776 66700144 66630036 66547224 66440412 
1240.514 66292940 66088572 65816820 65474196 65063404 64589128 64056112 
1243.889 63469068 62836096 62172124 61497172 60836000 60208296 59622432 
1247.264 59072588 58540536 58002968 57438752 56838296 56204424 55551292 
1250.640 54897524 54262384 53662400 53109220 52612024 52177192 51807672 
1254.015 51501988 51254352 51053732 50887252 50743776 50615988 50499956 
1257.390 50393896 50292992 50186864 50061544 49901280 49695860 49446052 
1260.765 49163068 48863660 48564380 48275788 48000740 47737524 47485404 
1264.141 47247356 47030156 46839780 46676868 46532856 46392472 46239232 
1267.516 46061696 45859556 45642456 45427052 45227928 45053156 44902036 
1270.891 44767176 44638964 44510900 44381480 44253016 44127928 44007312 
1274.266 43890540 43777724 43672448 43582652 43517012 43480352 43467644 
1277.641 43462296 43437980 43367236 43230616 43021744 42749456 42431088 
1281.017 42085568 41725156 41352896 40965200 40557908 40130720 39689684 
1284.392 39244016 38802248 38367588 37937412 37506544 37072312 36639668 
1287.767 36222544 35839540 35509004 35243292 35044040 34904344 34810884 
1291.142 34749968 34708836 34678188 34651056 34621344 34584384 34536916 
1294.518 34480092 34419508 34365136 34328092 34316796 34333652 34373136 
1297.893 34424208 34470620 34496448 34488484 34437944 34342472 34206616 
1301.268 34042924 33870376 33712180 33591020 33521146 33504934 33529594 
1304.643 33571440 33600328 33591164 33531100 33422622 33281866 33132646 
1308.019 32998386 32894116 32824286 32784120 32764074 32753248 32743424 
1311.394 32730024 32710768 32685262 32653932 32618854 32583174 32551210 
1314.769 32526926 32512210 32506392 32505068 32503034 32494142 32473362 
1318.144 32436512 32379106 32295116 32177634 32019768 31819210 31579688 
1321.520 31312526 31032532 30756206 30495588 30255944 30035000 29825314 
1324.895 29618212 29407128 29189664 28967776 28745504 28527452 28317502 
1328.270 28118964 27935748 27772740 27635536 27529226 27456650 27417896 
1331.645 27409850 27428626 27471192 27537276 27628826 27749180 27899176 
1335.021 28076016 28272730 28478520 28682246 28877288 29061682 29240626 
1338.396 29423120 29620162 29838444 30079280 30337126 30601948 30862808 
1341.771 31108982 31332646 31528238 31694230 31833186 31952750 32062824 
1345.146 32172780 32288228 32408454 32528068 32640822 32744064 32842044 
1348.522 32944408 33062060 33201422 33359430 33523512 33675228 33798452 
1351.897 33884992 33936472 33963232 33978284 33991972 34007628 34023000 
1355.272 34033320 34036404 34034252 34032712 34037120 34049268 34065900 
1358.647 34080444 34086324 34081988 34071020 34061776 34061952 34074604 
1362.023 34095320 34114136 34121880 34116324 34104208 34095932 34098764 
1365.398 34113564 34134316 34151736 34158048 34151808 34139624 34135108 
1368.773 34151736 34195936 34265736 34352980 34449924 34556184 34681308 
1372.148 34845136 35072708 35384180 35785096 36259716 36773976 37286216 
1375.524 37761572 38174968 38502324 38715772 38778916 38651084 38304612 
1378.899 37736636 36975504 36069288 35072924 34032460 32977510 31930498 
1382.274 30910624 29937404 29029622 28196918 27435472 26726592 26044126 
1385.649 25360484 24659118 23944492 23240340 22579346 21986692 21469686 
1389.025 21020548 20626042 20275530 19964778 19695508 19472802 19301648 
1392.400 19186346 19129280 19130596 19185066 19279304 19393212 19502536 
1395.775 19589844 19648808 19686076 19715652 19754420 19817048 19909100 
1399.150 20024454 20148308 20264524 20361396 20434844 20484162 20508408 
1402.526 20503198 20460266 20370354 20229636 20044544 19834076 19621976 
1405.901 19429038 19266004 19132776 19024824 18941162 18888140 18882674 
1409.276 18948152 19107326 19375886 19755044 20232100 20784892 21391642 
1412.651 22033538 22696354 23369098 24036514 24679460 25276470 25804288 
1416.026 26243724 26578234 26792420 26868268 26790764 26559846 26204868 
1419.402 25789170 25381736 25025894 24732314 24485942 24261958 24037914 
1422.777 23803382 23566772 23358294 23216570 23174348 23242472 23409310 
1426.152 23653290 23956606 24313784 24731788 25225970 25809774 26484580 
1429.527 27233670 28024446 28818934 29585790 30306746 30975666 31596116 
1432.903 32174994 32721092 33243268 33751428 34258960 34782060 35336588 
1436.278 35925980 36535208 37135432 37698540 38211148 38673936 39094872 
1439.653 39482396 39843136 40181200 40496652 40788892 41057328 41303812 
1443.028 41532752 41751928 41970592 42197584 42442560 42715272 43027120 
1446.404 43392576 43825148 44333848 44918392 45568524 46271816 47025464 
1449.779 47839388 48735900 49739624 50864528 52101648 53415212 54756028 
1453.154 56069512 57320772 58499476 59609400 60658604 61635496 62491072 
1456.529 63137220 63504352 63614436 63572392 63497180 63452736 63452080 
1459.905 63489244 63556552 63651032 63773200 63922584 64092672 64266332 
1463.280 64415760 64498320 64460344 64247200 63801140 63067868 62001096 
1466.655 60557344 58720068 56507432 53979656 51214496 48297448 45291104 
1470.030 42195356 38967344 35539028 31888596 28131052 24547330 21464324 
1473.406 19053456 17267620 15925743 14834990 13873869 12993043 12198132 
1476.781 11512345 10948829 10495331 10121831 9792841 9481845 9175201 8871410 
1480.638 8576483 8298812 8044945 7818113 7619656 7449974 7308123 7189663 
1484.496 7083696 6974624 6843800 6678189 6477058 6256724 6045506 5874120 
1488.353 5761758 5705823 5680141 5648217 5587799 5498900 5400256 5310422 
1492.211 5239286 5184524 5136711 5084208 5018238 4935621 4840556 4742027 
1496.068 4652062 4577417 4518956 4472454 4435731 4411262 4404166 4416484 
1499.925 4444000 4476739 4502819 4513331 4505865 4485209 4460837 4444702 
1503.783 4447816 4479852 4547516 4653770 4790100 4928047 5014919 5004529 
1507.640 4898759 4738309 4562952 4395865 4249621 4132293 4049075 4003092 
1511.498 3991756 4007573 4039644 4078073 4116103 4150290 4179662 4202479 
1515.355 4214958 4212148 4191907 4158954 4125503 4105701 4106972 4128479 
1519.213 4161095 4190468 4199434 4174176 4114163 4038239 3972595 3930765 
1523.070 3909300 3893988 3870619 3830404 3773514 3707675 3647928 3606965 
1526.927 3591596 3599080 3621332 3649432 3677801 3704501 3728696 3749651 
1530.785 3763989 3765793 3746943 3699956 3622969 3524917 3425852 3346409 
1534.642 3294690 3266647 3252492 3243779 3233731 3219110 3198315 3172380 
1538.500 3146513 3133331 3153456 3224451 3342302 3474680 3581707 3631890 
1542.357 3611542 3523948 3385678 3226020 3080403 2982173 2945309 2962923 
1546.214 3011666 3065186 3101326 3105331 3072261 3005460 2917788 2829033 
1550.072 2760003 2722591 2717523 2737729 2774408 2820095 2868822 2916587 
1553.929 2960688 3000422 3037725 3076899 3122117 3176252 3237336 3296460 
1557.787 3333787 3323470 3259936 3187066 3158295 3180490 3228690 3276629 
1561.644 3307144 3310249 3283205 3230193 3162467 3096687 3051072 3037691 
1565.502 3056978 3097789 3143676 3180323 3197179 3189369 3158195 3111604 
1569.359 3062016 3021075 2993983 2978837 2971030 2967360 2967894 2975500 
1573.216 2995318 3033287 3095753 3186532 3303104 3431128 3545394 3620563 
1577.074 3645155 3624506 3571317 3497192 3409354 3313287 3214537 3120048 
1580.931 3038926 2979537 2946543 2939304 2952348 2977235 3005861 3033787 
1584.789 3060114 3087778 3120515 3160631 3207126 3255496 3299064 3331750 
1588.646 3350249 3355524 3351685 3344071 3337026 3332585 3330115 3327911 
1592.504 3325674 3323904 3324672 3330248 3341434 3356226 3371653 3383207 
1596.361 3387414 3382238 3366310 3338395 3296693 3239606 3166672 3081470 
1600.218 2991814 2908281 2842574 2803121 2791549 2803354 2829434 2859417 
1604.076 2885599 2906247 2923959 2944708 2973832 3013801 3063685 3119214 
1607.933 3175551 3229525 3280868 3331784 3384509 3439812 3495723 3548701 
1611.791 3595739 3635598 3670215 3703364 3739558 3782839 3834649 3892584 
1615.648 3949690 3994230 4015265 4009680 3983429 3947751 3913246 3887569 
1619.505 3874431 3876236 3893152 3923677 3963867 4006570 4044159 4069477 
1623.363 4081852 4086468 4091786 4102891 4121254 4143834 4166113 4184011 
1627.220 4195854 4203215 4210877 4222821 4240554 4262403 4284822 4304365 
1631.078 4320093 4332944 4346197 4362964 4385255 4412166 4439815 4460469 
1634.935 4466462 4456218 4438309 4428434 4436735 4464085 4505129 4553677 
1638.793 4605378 4658224 4713321 4773316 4842030 4922719 5017802 5128362 
1642.650 5252734 5386601 5523766 5653924 5762900 5835029 5856488 5827103 
1646.507 5769582 5731305 5753264 5848428 6002065 6190608 6395878 6608006 
1650.365 6826701 7055205 7296127 7544736 7768828 7901212 7882823 7740797 
1654.222 7561020 7400865 7269104 7152407 7034932 6905470 6759321 6598687 
1658.080 6431388 6267111 6116471 5986578 5880602 5798593 5737785 5693570 
1661.937 5658892 5626735 5589981 5545411 5494470 5443703 5401564 5376772 
1665.795 5376772 5406529 5467593 5555043 5657952 5757024 5829487 5858772 
1669.652 5843458 5799030 5747992 5709550 5692831 5699612 5728619 5777909 
1673.509 5845741 5928363 6017687 6101518 6167687 6212388 6243143 6272758 
1677.367 6312192 6367566 6438315 6517922 6594920 6658539 6702551 6729673 
1681.224 6749528 6774970 6817512 6882545 6965162 7047863 7110674 7149745 
1685.082 7183464 7231841 7303776 7395641 7498178 7600436 7694691 7778205 
1688.939 7856844 7942582 8048725 8183019 8343192 8518226 8694342 8859574 
1692.797 9006838 9136082 9252773 9368343 9497593 9655135 9846118 10060516 
1696.654 10280855 10495399 10705295 10922223 11164621 11451957 11791739 
1700.029 12161261 12509306 12789854 12993043 13137789 13248761 13345412 
1703.404 13442802 13552998 13685380 13845099 14027976 14221680 14411600 
1706.780 14590056 14759466 14930280 15113546 15316728 15539440 15773743 
1710.155 16006697 16227528 16432814 16629418 16833278 17063972 17340132 
1713.530 17672132 18059128 18491070 18957844 19461992 20029070 20703010 
1716.905 21529116 22511850 23590874 24670026 25675296 26593416 27462686 
1720.281 28340632 29285782 30346150 31556566 32933828 34477152 36172988 
1723.656 37999644 39937680 41973584 44097668 46303440 48591244 50977564 
1727.031 53508672 56263896 59342884 62832036 66754392 71030216 75488440 
1730.406 79916192 84185224 88336776 92642752 97593232 103850088 111976496 
1733.782 121878064 132464376 142198720 150203824 156603776 162008352 
1736.675 167011936 172031648 177301584 182905184 188776192 194736416 
1739.568 200509568 205796912 210346336 213970432 216548912 218037408 
1742.461 218486000 218051344 216952096 215394176 213461168 211091424 
1745.354 208120752 204392064 199840864 194549216 188698416 182509952 
1748.247 176115488 169499648 162514176 155016576 147015952 138740800 
1751.140 130604032 123024192 116255240 110318256 105060656 100249640 
1754.033 95647248 91049024 86296800 81295008 76056008 70719712 65528944 
1757.408 60742436 56519544 52885852 49753488 46974400 44378840 41809856 
1760.784 39164488 36423272 33675836 31080436 28787706 26869996 25310608 
1764.159 24032418 22941328 21951766 21003196 20064742 19133400 18228100 
1767.534 17374860 16594304 15890686 15253336 14664076 14108302 13578432 
1770.909 13073862 12597878 12151890 11732367 11337190 10964086 10616021 
1774.285 10298057 10014197 9764544 9545280 9349993 9172730 9009274 8858019 
1778.142 8717329 8583344 8447542 8299251 8129945 7940929 7744642 7561256 
1781.999 7407336 7289489 7201757 7128592 7050389 6952301 6832255 6701339 
1785.857 6578873 6480555 6412825 6370962 6342584 6314847 6279045 6234370 
1789.714 6185600 6139592 6099435 6059449 6006130 5923258 5803596 5653152 
1793.572 5486518 5318572 5158873 5011769 4878419 4759145 4654708 4566468 
1797.429 4494784 4438476 4395062 4361927 4338098 4325649 4328125 4347268 
1801.286 4379297 4413605 4436133 4434794 4403765 4345762 4271504 4194081 
1805.144 4123830 4065296 4015833 3968549 3917090 3859253 3798515 3741529 
1809.001 3692370 3647995 3596942 3524249 3419306 3284007 3134699 2997653 
1812.859 2897807 2849544 2854581 2902711 2976901 3058179 3132229 3190604 
1816.716 3231127 3254728 3262874 3255897 3233998 3199516 3158695 3119747 
1820.574 3090814 3075597 3071293 3068256 3054008 3015770 2945242 2842641 
1824.431 2717456 2586275 2467230 2375036 2317437 2297117 2313206 2363309 
1828.288 2442139 2537347 2630442 2699252 2729026 2720557 2689517 2656278 
1832.146 2635410 2633309 2646077 2663746 2673081 2663812 2630943 2576409 
1836.003 2506153 2427211 2345419 2264675 2188941 2124241 2077661 2056621 
1839.861 2063878 2095973 2140423 2179183 2188874 2147948 2043904 1882409 
1843.718 1691169 1511917 1386950 1339951 1369831 1459652 1587433 1733283 
1847.576 1879713 2013477 2122343 2196833 2233833 2235865 2212419 2176186 
1851.433 2141156 2118647 2114984 2130301 2159470 2193769 2223309 2240361 
1855.290 2240394 2221677 2185311 2134496 2074465 2010448 1948570 1893158 
1859.148 1847036 1811399 1785281 1766617 1752345 1739271 1724567 1706537 
1863.005 1685215 1662298 1642275 1630834 1634525 1659204 1707668 1777762 
1866.863 1862875 1948803 2017239 2050395 2037246 1978892 1885903 1771541 
1870.720 1647164 1518567 1389542 1264411 1149581 1055773 993898 974238 
1874.578 1002300 1076366 1186691 1315722 1444625 1553880 1628705 1661666 
1878.435 1652452 1606123 1533197 1447816 1363848 1294984 1251351 1237761 
1882.292 1255239 1299238 1361721 1432225 1500113 1557305 1599937 1628871 
1886.150 1648162 1664493 1682388 1704841 1730289 1754374 1770776 1775799 
1890.007 1771308 1765552 1770509 1797059 1851728 1933227 2031719 2130367 
1893.865 2209321 2250553 2243692 2190406 2103231 1999996 1895521 1799222 
1897.722 1714188 1639614 1574763 1521260 1482625 1461314 1456693 1462145 
1901.579 1465669 1455895 1424878 1374152 1316619 1273981 1268432 1316885 
1905.437 1424280 1580649 1762991 1939151 2078827 2158504 2168660 2113919 
1909.294 2013444 1892659 1776199 1682321 1617697 1578288 1554744 1538451 
1913.152 1527012 1526813 1550887 1615169 1730887 1897484 2097438 2296751 
1917.009 2451102 2517217 2475294 2340189 2159836 1990110 1878116 1847069 
1920.867 1893823 1990043 2092577 2156506 2149780 2069738 1942513 1812364 
1924.724 1721706 1697789 1745458 1848733 1973966 2080391 2135262 2117648 
1928.581 2026393 1879181 1708333 1549757 1435217 1384889 1401742 1475111 
1932.439 1580749 1690837 1776831 1817488 1803447 1740102 1644004 1538351 
1936.296 1450409 1401010 1400512 1444592 1514012 1578986 1605857 1567281 
1940.154 1446553 1243842 978356 690332 428070 233956 132954 124601 189070 
1944.493 296485 420210 543108 661759 786585 935951 1132107 1388778 1707568 
1948.833 2072601 2452368 2801153 3073061 3226788 3235500 3094785 2823564 
1952.690 2465431 2074099 1709564 1420789 1240652 1182472 1241516 1400844 
1956.548 1634792 1916720 2223209 2531448 2819028 3056210 3206926 3233798 
1960.405 3109702 2828166 2412884 1918317 1416335 981112 677323 536937 556876 
1964.745 700322 913770 1138850 1331609 1467398 1538085 1545534 1495226 
1968.602 1394927 1260889 1124466 1040594 1074240 1287673 1708400 2307377 
1972.460 2988111 3613179 4052018 4209739 4070246 3698953 3231027 2818094 
1976.317 2580443 2564744 2736895 3004026 3254228 3408319 3429024 3326375 
1980.174 3135333 2892004 2614575 2303579 1951233 1555942 1133004 713862 
1984.032 336275 38569 -148448 -206309 -120657 110383 476662 944451 1460749 
1988.371 1956392 2356846 2600575 2650044 2504287 2200163 1808172 1415936 
1992.229 1094868 895242 830735 890594 1045642 1263248 1508359 1744261 
1996.086 1937454 2057253 2084819 2018970 1880479 1708500 1544968 1423947 
1999.944 1359926 1346432 1363649 1393099 1424911 1459253 1500712 1546265 
2003.801 1575462 1558136 1461015 1273915 1026412 792493 669193 741742 
2007.659 1052285 1577723 2237597 2913719 3501034 3931233 4194817 4328995 
2011.516 4397941 4455214 4522371 4586491 4608593 4544904 4368420 4080046 
2015.373 3709981 3309781 2936736 2646877 2482659 2460699 2573176 2788014 
2019.231 3056177 3315757 3506278 3575493 3492416 3259736 2914719 2525282 
2023.088 2168394 1922078 1848500 1978293 2308509 2797018 3374224 3945009 
2026.946 4417053 4710206 4773818 4605646 4255109 3815295 3389952 3070692 
2030.803 2903445 2882064 2947844 3017071 3009097 2868389 2585376 2195168 
2034.661 1760429 1349124 1022991 824494 770320 858456 1069922 1377643 
2038.518 1746057 2134563 2498388 2791549 2977502 3036390 2971197 2803487 
2042.375 2567177 2301048 2035082 1794664 1595481 1448814 1363882 1349058 
2046.233 1409553 1545534 1745225 1985083 2229170 2441972 2592342 2666613 
2050.090 2668246 2616875 2540913 2466530 2411851 2380733 2362109 2334626 
2053.948 2276899 2173988 2026193 1849598 1673507 1529573 1442132 1421620 
2057.805 1461879 1545035 1646432 1743362 1821880 1876818 1911927 1935757 
2061.662 1956858 1981056 2013943 2058951 2117548 2189806 2269704 2345186 
2065.520 2397491 2406120 2356313 2244291 2082189 1895188 1718080 1581314 
2069.377 1508193 1506264 1568545 1675270 1802948 1928767 2034715 2108991 
2073.235 2144152 2136594 2087250 2001827 1894289 1782054 1686080 1623450 
2077.092 1601467 1616100 1653982 1696624 1727195 1738106 1730921 1714088 
2080.949 1698188 1689572 1687943 1689040 1688309 1685947 1689872 1714055 
2084.807 1770975 1867068 1996068 2139491 2271303 2364242 2399557 2368606 
2088.664 2273201 2121544 1925140 1695194 1443727 1187788 949797 758902 
2092.522 647490 640953 749143 960723 1243975 1552550 1839582 2071369 2230503 
2096.861 2318702 2348584 2336857 2295818 2232035 2148315 2048031 1938486 
2100.719 1832129 1741932 1678563 1645069 1637718 1647330 1665990 1689306 
2104.576 1717781 1754474 1801218 1854989 1908400 1950867 1973234 1972335 
2108.434 1949902 1911029 1860013 1795895 1712491 1602033 1459984 1290631 
2112.291 1109916 943920 818021 753923 758105 821805 921174 1024685 1100880 
2116.631 1124732 1084205 982640 840064 686549 561089 504460 545928 699757 
2120.970 955310 1279797 1619227 1914623 2115117 2188374 2131733 1970405 
2124.828 1753542 1534926 1362951 1267900 1254807 1305486 1384656 1453667 
2128.685 1476574 1435051 1331044 1188851 1048067 955077 949200 1048167 
2132.542 1239854 1479832 1707103 1851827 1863175 1722671 1451872 1104069 
2136.400 748845 452448 255836 172695 191026 284449 423891 585309 754686 
2140.740 922270 1078957 1211245 1303392 1337724 1305719 1211046 1071284 
2144.597 915032 776726 683396 652567 684292 763117 859751 942758 987256 
2148.937 984633 946842 904738 897699 957900 1093074 1278302 1461214 1571671 
2153.276 1551552 1377543 1073742 707988 369568 141372 67863 144256 323044 
2157.616 547387 777158 1012131 1287773 1645468 2092876 2587075 3034855 
2161.473 3328779 3387214 3181659 2752067 2192204 1619559 1129814 785423 
2165.331 603425 568587 652966 832694 1091712 1418130 1789340 2165963 2486458 
2169.670 2689317 2725525 2584009 2293053 1919316 1545234 1241283 1055507 
2173.528 1001503 1059991 1193702 1362353 1536356 1697922 1842643 1968008 
2177.385 2069305 2137826 2161135 2130467 2043437 1908034 1744460 1580982 
2181.242 1452604 1393697 1430230 1574397 1820749 2143120 2497555 2835203 
2185.100 3106432 3275226 3331183 3287145 3174516 3034155 2904546 2809890 
2188.957 2759569 2747599 2759136 2777743 2788581 2782912 2755135 2701186 
2192.815 2617109 2501654 2356313 2188974 2016473 1859514 1740668 1680957 
2196.672 1689839 1766550 1898016 2064378 2241294 2407453 2544812 2639377 
2200.530 2680815 2661279 2576709 2428944 2226207 1987114 1737042 1506564 
2204.387 1324995 1211810 1172804 1199749 1273284 1368834 1465835 1552450 
2208.244 1625313 1690105 1755272 1826772 1905538 1986149 2057586 2108259 
2212.102 2126705 2104763 2038777 1928734 1779792 1603330 1418496 1248394 
2215.959 1120513 1056703 1065671 1138817 1248959 1357434 1423548 1419061 
2219.817 1338488 1202042 1048133 922004 862274 884319 979020 1115364 1253445 
2224.156 1355340 1399149 1381698 1317251 1226297 1127888 1034084 948735 
2228.014 871636 806999 766370 771316 846570 1010271 1263979 1587832 1940682 
2232.353 2267073 2515618 2650411 2659245 2558411 2386763 2193769 2022498 
2236.211 1901378 1836388 1814693 1812996 1809070 1793333 1770143 1755039 
2240.068 1766650 1815725 1896652 1987680 2054823 2067274 2006420 1876352 
2243.926 1702179 1526846 1393066 1331010 1350088 1435948 1555642 1670380 
2247.783 1749151 1775467 1750914 1690604 1616001 1546731 1493829 1460317 
2251.640 1442198 1432158 1423416 1411249 1392368 1364646 1326723 1278634 
2255.498 1223506 1167488 1118453 1084305 1067896 1066501 1073443 1081017 
2259.355 1086431 1095798 1124898 1194034 1319710 1505799 1736443 1980124 
2263.213 2191505 2326764 2357112 2274034 2093875 1852693 1596845 1366973 
2267.070 1193237 1088457 1048233 1057965 1098422 1152405 1208255 1260722 
2270.927 1310970 1363649 1424114 1495791 1579918 1673374 1770410 1863474 
2274.785 1946307 2013278 2062047 2091778 2102199 2091711 2057220 1993538 
2278.642 1897817 1770343 1617996 1452969 1292193 1153036 1047303 980548 
2282.500 950561 950462 971382 1006817 1053879 1111045 1177322 1247597 
2286.357 1312033 1358198 1373089 1348958 1286377 1196061 1095931 1007348 
2290.215 949200 933327 962416 1030464 1125695 1234471 1343241 1442464 
2294.072 1525782 1590194 1635357 1663628 1679461 1688442 1697256 1710961 
2297.929 1730488 1752112 1766650 1761859 1726263 1654348 1549823 1427438 
2301.787 1308976 1221080 1185994 1216595 1312000 1458555 1631665 1801418 
2305.644 1942280 2034649 2070537 2052692 1993039 1908533 1816257 1730987 
2309.502 1661233 1609515 1572635 1543671 1515342 1481860 1442497 1401310 
2313.359 1366242 1346332 1348626 1376180 1426806 1494228 1572203 1656011 
2317.217 1744693 1839349 1940749 2044469 2139258 2207357 2229404 2192204 
2321.074 2095939 1956891 1804512 1675003 1598042 1587466 1638982 1732650 
2324.931 1840281 1935291 2001727 2033650 2036180 2018570 1990276 1956159 
2328.789 1915954 1867401 1810069 1749084 1695693 1662697 1660501 1691069 
2332.646 1746523 1809370 1857784 1872026 1837785 1751513 1621289 1466766 
2336.504 1313894 1192306 1129383 1143070 1238425 1403902 1614371 1832461 
2340.361 2018271 2139923 2178384 2132831 2020435 1871094 1716716 1586203 
2344.219 1498517 1459519 1463475 1495725 1539615 1579386 1604261 1609682 
2348.076 1595913 1567680 1532698 1501809 1486748 1498717 1545301 1627408 
2351.933 1736909 1858117 1973633 2067973 2134996 2177652 2206557 2234666 
2355.791 2269804 2313406 2357579 2388995 2392727 2359278 2285459 2177585 
2359.648 2047799 1910297 1777296 1654581 1540778 1430762 1319311 1205929 
2363.506 1098622 1013526 970552 985496 1064608 1198088 1363217 1526780 
2367.363 1656676 1730089 1737541 1684550 1587699 1467597 1341845 1224237 
2371.220 1123901 1046273 997219 981511 1000839 1052152 1125064 1202606 
2375.078 1265076 1295948 1286344 1237495 1159548 1067896 979020 904772 
2378.935 852878 826353 825390 849691 898563 969755 1058098 1154996 1247464 
2383.275 1321638 1366341 1374950 1347795 1290863 1213937 1127556 1040328 
2387.132 958730 887639 831631 795547 784161 800394 842719 905203 976463 
2391.472 1043483 1095333 1125861 1134964 1127888 1112906 1096994 1085003 
2395.329 1078492 1077064 1080120 1087892 1101545 1121476 1145927 1170312 
2399.187 1187655 1191443 1177787 1148485 1110049 1072945 1048233 1043517 
2403.044 1061652 1100548 1153767 1212774 1269562 1317018 1349623 1363716 
2406.902 1356968 1329348 1284084 1227659 1170046 1122406 1094636 1092908 
2410.759 1117390 1162039 1216728 1270359 1312665 1338090 1345069 1335331 
2414.616 1312066 1278003 1234371 1181209 1119217 1051089 982872 923598 
2418.474 883223 869246 884319 924130 978489 1032224 1071683 1087029 1076366 
2422.813 1045144 1005356 970685 951425 952587 971449 999975 1026545 1040992 
2427.153 1036409 1010503 965272 905801 839167 772145 712203 666107 638995 
2431.493 633620 649481 680775 718442 751898 772212 774734 761358 739352 
2435.832 719571 711473 721496 750836 796178 851749 912408 974670 1036774 
2440.172 1097991 1156059 1206760 1244839 1265607 1267236 1252249 1227294 
2444.029 1200712 1179017 1164631 1154664 1142239 1118653 1078226 1019803 
2447.887 948071 871835 802518 750205 721662 720168 744994 792327 856597 
2452.226 930771 1006684 1075635 1130246 1164398 1175395 1164697 1137987 
2456.084 1103970 1072048 1050691 1045377 1057367 1083707 1118819 1154897 
2459.941 1183867 1199749 1197789 1176425 1136392 1080585 1013227 939371 
2463.799 864233 793057 730623 681571 649680 638133 647822 677755 723919 
2468.138 779846 838968 894280 941330 978422 1006252 1026943 1042587 1053713 
2472.478 1058795 1055142 1040029 1011898 972246 925225 876849 834154 803547 
2476.817 789572 795082 820377 863170 918385 978721 1034250 1074207 1089686 
2481.157 1074938 1030829 964508 889432 822402 778452 768892 797439 859684 
2485.497 944385 1037306 1122606 1187422 1224470 1231913 1214535 1181641 
2489.354 1146624 1122739 1120712 1145761 1195529 1260257 1324230 1371959 
2493.211 1390706 1375648 1331243 1269927 1207457 1157621 1129017 1122871 
2497.069 1134432 1156192 1182472 1211079 1243376 1281359 1325626 1372191 
2500.926 1413144 1438940 1442564 1422152 1382662 1333237 1283486 1240519 
2504.784 1205829 1176126 1146857 1114733 1081050 1051023 1030896 1024652 
2508.641 1031062 1043251 1050957 1045742 1024751 993433 963280 949067 962350 
2512.981 1007315 1079156 1164730 1248893 1316420 1358165 1372092 1362718 
2516.838 1338522 1309574 1284749 1269562 1266239 1272951 1285945 1299205 
2520.696 1306948 1305353 1293323 1272486 1247896 1225001 1208089 1198918 
2524.553 1196194 1196559 1196725 1195430 1194267 1197789 1211245 1238592 
2528.410 1280960 1336262 1399747 1465370 1527877 1582046 1623816 1648960 
2532.268 1653550 1634991 1593386 1532831 1462245 1392667 1335530 1298374 
2536.125 1282721 1283752 1293057 1300966 1301099 1292093 1277438 1263348 
2539.983 1255106 1254940 1260423 1266073 1264776 1251351 1224436 1186824 
2543.840 1144465 1105697 1078293 1068095 1078093 1107923 1154465 1211976 
2547.698 1273815 1334002 1387980 1433455 1470822 1501144 1525184 1542441 
2551.555 1550222 1544503 1522324 1482891 1428934 1366474 1302395 1243011 
2555.412 1192273 1151242 1119948 1099519 1093805 1109384 1153136 1228523 
2559.270 1331808 1450908 1567181 1658905 1708999 1709464 1664326 1587666 
2563.127 1499814 1420390 1361854 1327255 1311368 1304223 1296081 1282090 
2566.985 1264644 1251351 1251651 1272619 1314958 1372790 1434186 1484886 
2570.842 1513480 1513812 1486349 1438076 1380501 1325261 1282323 1257998 
2574.699 1253943 1267668 1293755 1325327 1356104 1380767 1397354 1407160 
2578.557 1414939 1427571 1452437 1494428 1553880 1625612 1699951 1764987 
2582.414 1810035 1829001 1822213 1795695 1758200 1719045 1684250 1655546 
2586.272 1630934 1607154 1581880 1555410 1530504 1510986 1499881 1497587 
2590.129 1502009 1509689 1517869 1525583 1534028 1545899 1562725 1584274 
2593.987 1607453 1627275 1639514 1641809 1634658 1621688 1607387 1595681 
2597.844 1587799 1582478 1575827 1563989 1542807 1510487 1467165 1415670 
2601.701 1361223 1311634 1276540 1265242 1285280 1339485 1423216 1524419 
2605.559 1626044 1709265 1758765 1767349 1738339 1684317 1622386 1570606 
2609.416 1542175 1542574 1569675 1616632 1674804 1736909 1798623 1858449 
2613.274 1915488 1968474 2013278 2043804 2054290 2039476 1998065 1933028 
2617.131 1851794 1764554 1682355 1615236 1570473 1551685 1558901 1589096 
2620.989 1636754 1694895 1757002 1816224 1867301 1906370 1931330 1942014 
2624.846 1940483 1930465 1916287 1902975 1894688 1893857 1902043 1918583 
2628.703 1942580 1972202 2005755 2040941 2075298 2105462 2127803 2138925 
2632.561 2137326 2124174 2103963 2083021 2069138 2068672 2084453 2115051 
2636.418 2155907 2199597 2238729 2267606 2283893 2287824 2282228 2270703 
2640.276 2257380 2245390 2236897 2233100 2235066 2242393 2255116 2272469 
2644.133 2293586 2317503 2343120 2369072 2394226 2417149 2436708 2452268 
2647.990 2464698 2475727 2488524 2506120 2530282 2560311 2592509 2621175 
2651.848 2639877 2643444 2630209 2602342 2565677 2526815 2493089 2469329 
2655.705 2456900 2455001 2460766 2470796 2481892 2491790 2498988 2503087 
2659.563 2504420 2504387 2505753 2511685 2525516 2549379 2583176 2624309 
2663.420 2668347 2709955 2744164 2768406 2781811 2785813 2782645 2774875 
2667.278 2764405 2752767 2741430 2732027 2726159 2725459 2730460 2740630 
2671.135 2753868 2767639 2779877 2789381 2796618 2802887 2809590 2817661 
2674.992 2826632 2835637 2843608 2850145 2855581 2861118 2867788 2875527 
2678.850 2883398 2889335 2890903 2886633 2875593 2858249 2835837 2809657 
2682.707 2781245 2752200 2724458 2700219 2682082 2671647 2668780 2671414 
2686.565 2675948 2677681 2673381 2662512 2647811 2634510 2628442 2633843 
2690.422 2651711 2678681 2708321 2733094 2746365 2744064 2726126 2695351 
2694.280 2656778 2615809 2577376 2545446 2522250 2508552 2503953 2506786 
2698.137 2514584 2525016 2535981 2546379 2556711 2568310 2582709 2600842 
2701.994 2621875 2643410 2661612 2672847 2674347 2665846 2649144 2627709 
2705.852 2605809 2587309 2574510 2568210 2567943 2571943 2578309 2585009 
2709.709 2590442 2593309 2592942 2589609 2584009 2577509 2571610 2567577 
2713.567 2565777 2565610 2566210 2566243 2565110 2563177 2561477 2561644 
2717.424 2564844 2570876 2578076 2584276 2586942 2584742 2578376 2570343 
2721.281 2564577 2564844 2573576 2590909 2614575 2640443 2664246 2682215 
2725.139 2692184 2694484 2690450 2682582 2673447 2665813 2661646 2663412 
2728.996 2673114 2692117 2720991 2757969 2799652 2839906 2872558 2892004 
2732.854 2895906 2885132 2864420 2841273 2823097 2815693 2821596 2839672 
2736.711 2865854 2894972 2922959 2947177 2967861 2986109 3003725 3021142 
2740.569 3036891 3047768 3049804 3039293 3014402 2975600 2926428 2872458 
2744.426 2819829 2774775 2742130 2724125 2720491 2728626 2744198 2762270 
2748.283 2778610 2789982 2795350 2795684 2793116 2790482 2790115 2793616 
2752.141 2801487 2813292 2828033 2845042 2863519 2882864 2902744 2922458 
2755.998 2941339 2958553 2973699 2986543 2997253 3006128 3013134 3018172 
2759.856 3020408 3019774 3016471 3012066 3009130 3010432 3019040 3035823 
2763.713 3059847 3087510 3114074 3134098 3143410 3140773 3127924 3109602 
2767.571 3092483 3083840 3089079 3111338 3150185 3202320 3261806 3321500 
2771.428 3375125 3417436 3445857 3460552 3463558 3458815 3450933 3444287 
2775.285 3442250 3447159 3460051 3481193 3510219 3546697 3590126 3639909 
2779.143 3694910 3753494 3812688 3869583 3920601 3962630 3994230 4015833 
2783.000 4029946 4040280 4051417 4066668 4087939 4114765 4144771 4174945 
2786.858 4202612 4226334 4246409 4264745 4283383 4304566 4329363 4358513 
2790.715 4392184 4430844 4475534 4527427 4586994 4652732 4721795 4790032 
2794.573 4853523 4910186 4961326 5010897 5064899 5128228 5203202 5288318 
2798.430 5378382 5466284 5546183 5615289 5674770 5728855 5782878 5840973 
2802.287 5904818 5973409 6044498 6116471 6189633 6266068 6349376 6441645 
2806.145 6543115 6650532 6758581 6861573 6955601 7039714 7116063 7189393 
2810.002 7264657 7345763 7435413 7534318 7642756 7760766 7888897 8027596 
2813.860 8177110 8336336 8503358 8675074 8849226 9023990 9199432 9377078 
2817.717 9559912 9750481 9951812 10165482 10392118 10630995 10880161 
2821.092 11136949 11398175 11661260 11925322 12191146 12461872 12742458 
2824.468 13038521 13355184 13696083 14063192 14456952 14876992 15322768 
2827.843 15793158 16287003 16801866 17334582 17881244 18438692 19005336 
2831.218 19582460 20173506 20783816 21418582 22081470 22774982 23501044 
2834.593 24262588 25065908 25921288 26841728 27842646 28939052 30143522 
2837.969 31467174 32919742 34511516 36255756 38167984 40266440 42569944 
2841.344 45094652 47852856 50851308 54089980 57560924 61249448 65132916 
2844.719 69178608 73349128 77599968 81881856 86148128 90348352 94431880 
2848.094 98346968 102034232 105429752 108467256 111078800 113204848 
2850.987 114797864 115825136 116271912 116139592 115445040 114217632 
2853.880 112499728 110344440 107810248 104963608 101870656 98593456 95192432 
2857.256 91718328 88216264 84725576 81277144 77897824 74609656 71428768 
2860.631 68369464 65443836 62661672 60033784 57570232 55279844 53171572 
2864.006 51251404 49523252 47988236 46644364 45486020 44503964 43685380 
2867.381 43012524 42464080 42016436 41642580 41316784 41014100 40710828 
2870.757 40387256 40026864 39616676 39149912 38625512 38049916 37435100 
2874.132 36799400 36163444 35547264 34969376 34444080 33981328 33588192 
2877.507 33268630 33024520 32855734 32760252 32734170 32772508 32870170 
2880.882 33022982 33228818 33487610 33800060 34166364 34585460 35053776 
2884.258 35566756 36119768 36709432 37334380 37995020 38691284 39422052 
2887.633 40183632 40970696 41776808 42597240 43430144 44276828 45141084 
2891.008 46027396 46939296 47878084 48842748 49830852 50839164 51865052 
2894.383 52906812 53963264 55034520 56121016 57224144 58345888 59489192 
2897.759 60656892 61851268 63073420 64322308 65594988 66887760 68197880 
2901.134 69523632 70867408 72234176 73633400 75075864 76572936 78134920 
2904.509 79767664 81472408 83245016 85079104 86966384 88902160 90886952 
2907.884 92927400 95034376 97220384 99495104 101861688 104316680 106850136 
2911.260 109449976 112104256 114803640 117542544 120315432 123115248 
2914.153 125930976 128744888 131533056 134265888 136907184 139418880 
2917.046 141758048 143880512 145745808 147317584 148568320 149481072 
2919.939 150047792 150267056 150141232 149675680 148878832 147764464 
2922.832 146354960 144678784 142770608 140666544 138397520 135990720 
2925.725 133467496 130846072 128145632 125386896 122590896 119778160 
2928.618 116963368 114155616 111357328 108568368 105788288 103019800 
2931.511 100269880 97548272 94865288 92228640 89642568 87107320 84621240 
2934.886 82182952 79792624 77454040 75173320 72957896 70815568 68752888 
2938.261 66774064 64881420 63074796 61353088 59713516 58152572 56666756 
2941.637 55252636 53906876 52627624 51413400 50263716 49178992 48160232 
2945.012 47209012 46328100 45520612 44790024 44140180 43573384 43090124 
2948.387 42688256 42362916 42105724 41905528 41750176 41625440 41516784 
2951.762 41410884 41294920 41159424 40997896 40806580 40584648 40331444 
2955.138 40045652 39723336 39358420 38943388 38472416 37942692 37356260 
2958.513 36719816 36043364 35336912 34608820 33864356 33105076 32329916 
2961.888 31537964 30729390 29907124 29077200 28247588 27427602 26625720 
2965.263 25847680 25096028 24369434 23663260 22971056 22287138 21608508 
2968.639 20936500 20276606 19637646 19028806 18456392 17922162 17422904 
2972.014 16951642 16500749 16064696 15642820 15238785 14858441 14507071 
2975.389 14186759 13893916 13620484 13356175 13092438 12823570 12549412 
2978.764 12274098 12003931 11745200 11502274 11277268 11069679 10878700 
2982.140 10702985 10541600 10394087 10259549 10136753 10023928 9919302 
2985.515 9821377 9729980 9645412 9569227 9503587 9450994 9415339 9400813 
2989.372 9411140 9449301 9515136 9605268 9711987 9825749 9937845 10043120 
2993.230 10142757 10244757 10362425 10509690 10698027 10932383 11209976 
2996.605 11521191 11852992 12192680 12530074 12860258 13181642 13495333 
2999.980 13802171 14101456 14389851 14662774 14915019 15142124 15341509 
3003.355 15511076 15649483 15754297 15822057 15848104 15828826 15761787 
3006.731 15647629 15490266 15296442 15073648 14829059 14567509 14291256 
3010.106 13999949 13690885 13361505 13009295 12633797 12236710 11822381 
3013.481 11396917 10968198 10544452 10132683 9738113 9362486 9004978 8662432 
3017.339 8331033 8008290 7694151 7390889 7102624 6833096 6583852 6352805 
3021.196 6135189 5924669 5715425 5504604 5292880 5084410 4884819 4698918 
3025.053 4529938 4378595 4244201 4125703 4022655 3935112 3862763 3803396 
3028.911 3751957 3701059 3642649 3570081 3481560 3380735 3275894 3177320 
3032.768 3094585 3033387 2994584 2974233 2966059 2963223 2959821 2951914 
3036.626 2937570 2916020 2887334 2852179 2812258 2769340 2726326 2685783 
3040.483 2649644 2618909 2593642 2573443 2558444 2548612 2544213 2544612 
3044.341 2547646 2549712 2546946 2536181 2517417 2493689 2471062 2455967 
3048.198 2452835 2461698 2477994 2493922 2501454 2495589 2476161 2448337 
3052.055 2419881 2397958 2387063 2387029 2393526 2400323 2402189 2397025 
3055.913 2386363 2374469 2366374 2365574 2373003 2387130 2404221 2420781 
3059.770 2434108 2442139 2443971 2438873 2426012 2404954 2376468 2343087 
3063.628 2308876 2279230 2258147 2248155 2247522 2252018 2254549 2249054 
3067.485 2231635 2202228 2163998 2122909 2085219 2055855 2037479 2030354 
3071.343 2032751 2042073 2055023 2068872 2080990 2089614 2092910 2090213 
3075.200 2082489 2071802 2061648 2055755 2056254 2063778 2075830 2087882 
3079.057 2094441 2090546 2073067 2042505 2001361 1954894 1909065 1869431 
3082.915 1840447 1824376 1821015 1827836 1840514 1853591 1861877 1861810 
3086.772 1852426 1835556 1815559 1797691 1785414 1780391 1780524 1781588 
3090.630 1778694 1768280 1749450 1724733 1698653 1675802 1659404 1650191 
3094.487 1646399 1644370 1640878 1633794 1623184 1610480 1597510 1586602 
3098.344 1578853 1575229 1576027 1580882 1588797 1597776 1604926 1606522 
3102.202 1599904 1583509 1558835 1529373 1500479 1477871 1465137 1463641 
3106.059 1472451 1488743 1509357 1532299 1556241 1580716 1605092 1627608 
3109.917 1645767 1657109 1660169 1655745 1646765 1637951 1633627 1636787 
3113.774 1647896 1664559 1682787 1697656 1705439 1703676 1692234 1672642 
3117.632 1648062 1623051 1602099 1589429 1587899 1597743 1616333 1638683 
3121.489 1658273 1669083 1667520 1653750 1631100 1605392 1582279 1566017 
3125.346 1557671 1555875 1557671 1560397 1562393 1563590 1565053 1567547 
3129.204 1571105 1574098 1573899 1567747 1553348 1530138 1498750 1461912 
3133.061 1423216 1386783 1357367 1338655 1333736 1343507 1367704 1403437 
3136.919 1446387 1492034 1536622 1577291 1612775 1642508 1665092 1678662 
3140.776 1679793 1665856 1636188 1593752 1544835 1499016 1466234 1452703 
3144.634 1460915 1487080 1523588 1560397 1588897 1603695 1604028 1592555 
3148.491 1574131 1554412 1537320 1525150 1518600 1517104 1518800 1522224 
3152.348 1525283 1526613 1526015 1524419 1524685 1530171 1544336 1568711 
3156.206 1602132 1639714 1674471 1699419 1709232 1702379 1681124 1651255 
3160.063 1619193 1590094 1567081 1550488 1539315 1532499 1531102 1537121 
3163.921 1552849 1579884 1616566 1658439 1698853 1730388 1747720 1748752 
3167.778 1735112 1710496 1680359 1649958 1622785 1601933 1589096 1585604 
3171.635 1592455 1609482 1634692 1664360 1693265 1716517 1730189 1733715 
3175.493 1729191 1721174 1714587 1713024 1717215 1725299 1732750 1735345 
3179.350 1729756 1715252 1693597 1668850 1646166 1629736 1623118 1627009 
3183.208 1639980 1657774 1675037 1686546 1688442 1680059 1664559 1647796 
3187.065 1636155 1634559 1643905 1660335 1676201 1682454 1674006 1649858 
3190.923 1615934 1582977 1563091 1565286 1592488 1640579 1699186 1755405 
3194.780 1796793 1815592 1809802 1782886 1742863 1700450 1666156 1648594 
3198.637 1653384 1681589 1729224 1787510 1845305 1889630 1909698 1900113 
3202.495 1861777 1802582 1734680 1672409 1627175 1605458 1607287 1627608 
3206.352 1657608 1687610 1710496 1721606 1720508 1709331 1692866 1676301 
3210.210 1664726 1661599 1668584 1685448 1709697 1738805 1769345 1799122 
3214.067 1826106 1848600 1864772 1872426 1868632 1851362 1820150 1777263 
3217.925 1727461 1676966 1632264 1596978 1571937 1554944 1542707 1532765 
3221.782 1524884 1521526 1526015 1540812 1565120 1594916 1623517 1643971 
3225.639 1651820 1646366 1631565 1614238 1601368 1598740 1609449 1633561 
3229.497 1668983 1712558 1760728 1809037 1852892 1886668 1905804 1907368 
3233.354 1891094 1860379 1820150 1776465 1733715 1693730 1655612 1617830 
3237.212 1579485 1542607 1511817 1493963 1494228 1515109 1554611 1606223 
3241.069 1661732 1712957 1754075 1782686 1798922 1804179 1799422 1785281 
3244.927 1761627 1729390 1690870 1649991 1612475 1583310 1565951 1560730 
3248.784 1565918 1577922 1593519 1610447 1628472 1648561 1671877 1698787 
3252.641 1728525 1758865 1787045 1811167 1830898 1847102 1862043 1877251 
3256.499 1893158 1908133 1919083 1922244 1915455 1898283 1873557 1846037 
3260.356 1821847 1805776 1800486 1804878 1815625 1827703 1836255 1838717 
3264.214 1835623 1829633 1824942 1825241 1832395 1846270 1864306 1883440 
3268.071 1901078 1915821 1927536 1936955 1944809 1950468 1952864 1950135 
3271.928 1941015 1925672 1906336 1885803 1867567 1853525 1843974 1837286 
3275.786 1830698 1821847 1809869 1795861 1782453 1773238 1770543 1775034 
3279.643 1785015 1797458 1808638 1815958 1818586 1817588 1815259 1813662 
3283.501 1813396 1813063 1809270 1798157 1776698 1744527 1704907 1664094 
3287.358 1630035 1610846 1611345 1632863 1671910 1721140 1771507 1814760 
3291.216 1845039 1860878 1864639 1862176 1860479 1865437 1880778 1906270 
3295.073 1939052 1973301 2003258 2023896 2032385 2029090 2016806 2000528 
3298.930 1984950 1974033 1969905 1971869 1977927 1984584 1988945 1989444 
3302.788 1986415 1982288 1980457 1984484 1996634 2017072 2043704 2072268 
3306.645 2098137 2117115 2126305 2125306 2115717 2099802 2080358 2059084 
3310.503 2036313 2011779 1985183 1957524 1930864 1908832 1894755 1891194 
3314.360 1897750 1911828 1927902 1939085 1939484 1924641 1893091 1847901 
3318.218 1794464 1741267 1696957 1670513 1667919 1692101 1741333 1810235 
3322.075 1889131 1966743 2033184 2080824 2106794 2113453 2107126 2096106 
3325.932 2087483 2086151 2092810 2104197 2115317 2121277 2118680 2107126 
3329.790 2088881 2067740 2048364 2034050 2026693 2026626 2032485 2042672 
3333.647 2054989 2067307 2077794 2084586 2086218 2081889 2071469 2056421 
3337.505 2040108 2026893 2021533 2027924 2047832 2079226 2117781 2155940 
3341.362 2185277 2199431 2194768 2171857 2135362 2092544 2051061 2017738 
3345.219 1996667 1990043 1997832 2019303 2053225 2098104 2150912 2206924 
3349.077 2259645 2301214 2324832 2325998 2304679 2264575 2213618 2160435 
3352.934 2111954 2073533 2047133 2032518 2029090 2036680 2055888 2087716 
3356.792 2131333 2183379 2237497 2285559 2318936 2332127 2323666 2297217 
3360.649 2260211 2221943 2190972 2172157 2166662 2171857 2183379 2197033 
3364.507 2210554 2224408 2240861 2262876 2292987 2330295 2372171 2413317 
3368.364 2447703 2471162 2481259 2478760 2466764 2449303 2430143 2411651 
3372.221 2394259 2377434 2359877 2341122 2321501 2302280 2285359 2272136 
3376.079 2263442 2259379 2259112 2261810 2267206 2274634 2284260 2296384 
3379.936 2311574 2330795 2355080 2385730 2423180 2466630 2513451 2559144 
3383.794 2598542 2626309 2639243 2636843 2621175 2595742 2564377 2529848 
3387.651 2493922 2457333 2421580 2388929 2363009 2346851 2341755 2345785 
3391.509 2353614 2357645 2350183 2327430 2290222 2244491 2199198 2163998 
3395.366 2146117 2148415 2169926 2206457 2252418 2301980 2350316 2393460 
3399.223 2427611 2449369 2456367 2447737 2425279 2394259 2362109 2336225 
3403.081 2322966 2325531 2342687 2370105 2402522 2434642 2463698 2488424 
3406.938 2510019 2530581 2551578 2573910 2597909 2622776 2647411 2670813 
3410.796 2691884 2709254 2721357 2726892 2724458 2713455 2694518 2668880 
3414.653 2639143 2607708 2577243 2548979 2522783 2497655 2471829 2443872 
3418.510 2413817 2383298 2355946 2336891 2330561 2339123 2361310 2392760 
3422.368 2426745 2457033 2478827 2490690 2494256 2493456 2492356 2494422 
3426.225 2501054 2512118 2526349 2542013 2557878 2573543 2587842 2599509 
3430.083 2606875 2608708 2604708 2597109 2588842 2584609 2587409 2597175 
3433.940 2610575 2621875 2624309 2613175 2587475 2551012 2511052 2476227 
3437.798 2453801 2448103 2460199 2487824 2527549 2576009 2630176 2687850 
3441.655 2745898 2800519 2846976 2880730 2898275 2898675 2883898 2857816 
3445.512 2825398 2791382 2759403 2730927 2706754 2687416 2674614 2671414 
3449.370 2681749 2707754 2749433 2802187 2857783 2905446 2935768 2943574 
3453.227 2929497 2901010 2870223 2848644 2844575 2859517 2888168 2919756 
3457.085 2942307 2946843 2929864 2893538 2844842 2792949 2746065 2709721 
3460.942 2687250 2679315 2685683 2704987 2735595 2774542 2817527 2860384 
3464.800 2899575 2933800 2964658 2995618 3031118 3072627 3117445 3159597 
3468.657 3190637 3203789 3196445 3172046 3139405 3108801 3089112 3084107 
3472.514 3091648 3104663 3114441 3114775 3103762 3084174 3061883 3043664 
3476.372 3033521 3032786 3039693 3051405 3064919 3077433 3087143 3091114 
3480.229 3085975 3067455 3032152 2978937 2910817 2834669 2760170 2697352 
3484.087 2654178 2635209 2640577 2667080 2708554 2756802 2803487 2841373 
3487.944 2865554 2874459 2870056 2856582 2839806 2824564 2813659 2807523 
3491.802 2803754 2798552 2788481 2771541 2748432 2722324 2698252 2680782 
3495.659 2673614 2677948 2692784 2715423 2741530 2767606 2789815 2805155 
3499.516 2812225 2810291 2800152 2784179 2766072 2749699 2738763 2735061 
3503.374 2737829 2743931 2748566 2747065 2735428 2711088 2673547 2623542 
3507.231 2564244 2500554 2439906 2390061 2358944 2351582 2368473 2405221 
3511.089 2454168 2505720 2551178 2584009 2601175 2602475 2590809 2570443 
3514.946 2546646 2524149 2506619 2496888 2495822 2502987 2516784 2534281 
3518.803 2552911 2570343 2585409 2598342 2609242 2618442 2624675 2625976 
3522.661 2619209 2602008 2574576 2539980 2504220 2474428 2457733 2458566 
3526.518 2477494 2511118 2552511 2592842 2623242 2638010 2634910 2615842 
3530.376 2585442 2550312 2517584 2492356 2478527 2476527 2484392 2497422 
3534.233 2510119 2516118 2511318 2493922 2466164 2433475 2402888 2381466 
3538.091 2374203 2383198 2407486 2443572 2486291 2529615 2568110 2597709 
3541.948 2616042 2622809 2619842 2610809 2599542 2590409 2587009 2591509 
3545.805 2604142 2624409 2650411 2680282 2712055 2744198 2774442 2800719 
3549.663 2819662 2827332 2819728 2793516 2747299 2683316 2607375 2527282 
3553.520 2451335 2386363 2336125 2302647 2286158 2285692 2299715 2326264 
3557.378 2362776 2405554 2449636 2488691 2515751 2524616 2511185 2475994 
3561.235 2424079 2364675 2309808 2270670 2257114 2274467 2323333 2398524 
3565.093 2489790 2581376 2653745 2690350 2682849 2637010 2569243 2499754 
3568.950 2444205 2410319 2399390 2407853 2428811 2453335 2472662 2479293 
3572.807 2468496 2439940 2397791 2349317 2302580 2265441 2242393 2234999 
3576.665 2241427 2258013 2281095 2306944 2332560 2356146 2375036 2386863 
3580.522 2389428 2381766 2364075 2339423 2312706 2290189 2278331 2281595 
3584.380 2301714 2336291 2379034 2418981 2442605 2438140 2400723 2336724 
3588.237 2260511 2188774 2131999 2093742 2072467 2063911 2063279 2067041 
3592.094 2073500 2082788 2096239 2115484 2141355 2173089 2207923 2241793 
3595.952 2270270 2290156 2298050 2292321 2271769 2236431 2188041 2130500 
3599.809 2070137 2013976 1969373 1940616 1928401 1929100 1936655 1944144 
3603.667 1945375 1935557 1912427 1875021 1824376 1763556 1697988 1635490 
3607.524 1586569 1561661 1568013 1607487 1675902 1764887 1863873 1962982 
3611.382 2051893 2120045 2159270 2163799 2134762 2079892 2012645 1947073 
3615.239 1893956 1860246 1848533 1857418 1881178 1910663 1933194 1936023 
3619.096 1911461 1860013 1790172 1714288 1644370 1588697 1551020 1532565 
3622.954 1531501 1545068 1568811 1598840 1631200 1663828 1697157 1735079 
3626.811 1782886 1845805 1923243 2001660 2055788 2060682 2009782 1917452 
3630.669 1805710 1692600 1591823 1512449 1459552 1435782 1439273 1464273 
3634.526 1501809 1542940 1580283 1608484 1624149 1624814 1610181 1582079 
3638.384 1545800 1509423 1481229 1468229 1472983 1493198 1521526 1548959 
3642.241 1567713 1574630 1572602 1568811 1573333 1594184 1636554 1700217 
3646.098 1779293 1860646 1926704 1960086 1948504 1890995 1797525 1685647 
3649.956 1574530 1479666 1410119 1367073 1346798 1342776 1348061 1355173 
3653.813 1356902 1347363 1322701 1283652 1238891 1202241 1187489 1201576 
3657.671 1243044 1303758 1373521 1441699 1500313 1542707 1565785 1569043 
3661.528 1554512 1525849 1486947 1441334 1391603 1339585 1287042 1235036 
3665.385 1185396 1140213 1101943 1073643 1058463 1059160 1077197 1111710 
3669.243 1157720 1206926 1251119 1285879 1313196 1337525 1364280 1396722 
3673.100 1436746 1483090 1531036 1569609 1583542 1562093 1507794 1433621 
3676.958 1352980 1273616 1198852 1130844 1072812 1028139 999477 986924 
3680.815 987356 996256 1008743 1021895 1034881 1048997 1065538 1085733 
3684.673 1109085 1133004 1154000 1168418 1173435 1169415 1159315 1150445 
3688.530 1151342 1167488 1198154 1236432 1271655 1294286 1297975 1281259 
3692.387 1245902 1196260 1137688 1075768 1015153 959594 911180 870109 834619 
3696.727 802286 770984 740082 711572 689204 678053 682434 705233 745658 
3701.067 799696 860282 919780 972711 1016581 1050060 1072679 1083109 1080286 
3705.406 1064608 1038933 1008743 981112 963213 958863 966800 980050 987887 
3709.746 979884 950628 903776 852712 812842 794120 797904 817755 846205 
3714.085 878409 912873 950428 991739 1034781 1073875 1100449 1106096 1084903 
3718.425 1038103 972943 902281 838005 789141 758437 743202 736365 730324 
3722.765 720367 705433 687047 667666 649349 632923 619982 613844 619683 
3727.104 642679 685520 747052 821672 900555 974006 1031626 1065438 1072679 
3731.444 1058430 1035645 1021995 1032523 1072447 1133070 1193104 1226098 
3735.301 1209783 1139349 1031593 915065 814269 741708 699990 684989 690432 
3739.641 708751 733909 760329 784261 802883 813805 814203 801323 773938 
3743.980 736265 698928 674602 669890 683396 709979 745359 786518 832362 
3748.320 883389 939935 1001304 1064143 1121078 1161774 1177422 1164265 
3752.177 1125961 1073377 1018341 971150 938408 923067 925192 942924 972445 
3756.517 1008710 1045044 1074108 1089520 1086331 1062980 1021795 969024 
3760.375 912707 861377 820311 791365 773705 765175 763183 765772 771647 
3764.714 780079 790767 802518 813672 822436 827316 827814 824826 820909 
3769.054 819382 823232 833324 847699 862805 874558 881032 881364 876118 
3773.393 866092 851783 832992 809556 781771 751068 720998 696074 681936 
3777.733 683098 702114 736597 780112 823697 859319 883854 898231 905834 
3782.073 910151 913239 915862 917920 919182 920643 923963 931003 941861 
3786.412 954015 962682 962283 948602 919813 878774 832362 789605 758702 
3790.752 745758 751334 771681 799530 827548 849160 861278 863867 859751 
3795.091 853509 850189 854306 867719 890163 919248 953085 990311 1030231 
3799.431 1072546 1115729 1154996 1183136 1191443 1175528 1138286 1086896 
3803.288 1028670 968394 909188 853708 805904 771083 754520 758238 778452 
3807.628 806900 834387 855999 871205 883024 894446 908656 926686 947739 
3811.968 969489 989016 1004326 1014555 1020500 1024020 1027707 1033652 
3815.825 1042553 1053448 1064276 1073742 1081847 1088823 1094868 1099186 
3819.682 1099917 1093373 1076665 1049927 1017777 986692 961154 943289 932597 
3824.022 927151 924694 922536 917920 909354 897035 883987 874857 875322 
3828.362 889698 920510 967032 1025050 1087228 1142870 1181110 1194400 
3832.219 1181675 1148883 1106029 1065206 1036376 1026976 1040760 1077429 
3836.076 1132904 1197789 1259493 1303259 1315922 1290664 1230152 1145362 
3839.934 1050691 960623 884352 825656 783962 755947 737294 724815 717546 
3844.273 716816 725313 745359 777722 821639 874757 933460 994097 1053315 
3848.613 1108022 1156425 1196958 1227892 1246533 1247829 1224137 1166757 
3852.470 1072081 953118 840163 766370 744331 766171 814867 875288 935386 
3856.810 986260 1022825 1041922 1043882 1031294 1008776 981278 954048 931003 
3861.150 914268 904373 900389 900289 902680 906332 910582 914832 918916 
3865.489 922635 926952 933859 946543 969224 1005887 1058729 1125197 1194964 
3869.829 1251484 1280428 1277836 1248627 1202208 1146126 1086398 1027475 
3873.686 973640 929409 897500 877480 866756 861377 857460 853044 847566 
3878.026 842819 843118 852945 875587 910184 949698 983437 1003031 1005223 
3882.365 993267 973773 955111 944916 947905 964608 988551 1010636 1021364 
3886.705 1018109 1003463 982972 961453 941861 925026 909752 894180 876218 
3891.045 855667 834885 818054 809157 811016 824560 848961 883157 925358 
3895.384 974039 1027109 1082046 1135462 1183303 1220981 1244174 1250022 
3899.242 1238425 1212574 1177787 1140179 1104833 1074772 1049993 1028770 
3903.099 1008046 984898 957966 928645 900555 878044 864299 861012 867353 
3907.439 880667 897035 912973 925026 931833 933427 931302 926985 921938 
3911.778 916194 908590 897965 883190 864797 844213 824660 809190 801323 
3916.118 802717 813307 831299 854571 880766 909487 939968 971515 1002898 
3920.458 1031593 1055042 1070653 1077230 1074705 1064242 1048167 1029368 
3924.315 1010968 995426 984168 978223 977758 983171 994928 1012529 1034615 
3928.655 1058430 1078957 1090151 1086663 1064940 1025615 973640 917887 
3932.512 867320 829440 807531 801091 807099 821705 842188 866922 894778 
3936.852 924130 952554 975865 990013 992337 982042 962615 939371 918983 
3941.191 907494 908192 920278 939039 959095 975832 988584 999975 1013592 
3945.531 1032855 1058397 1087261 1113636 1130379 1132472 1118121 1090948 
3949.388 1058696 1029866 1011002 1005821 1013360 1029733 1049562 1067763 
3953.246 1080120 1084903 1082013 1073676 1062781 1052285 1045244 1043483 
3957.103 1047037 1054909 1064741 1073875 1079920 1081648 1079356 1074440 
3960.960 1069391 1066468 1066734 1070719 1077064 1084338 1091480 1097957 
3964.818 1104069 1110846 1118387 1126825 1134665 1140811 1144232 1145561 
3968.675 1146358 1149880 1158285 1172804 1191476 1210680 1225134 1230451 
3972.533 1224071 1206793 1181708 1154132 1127821 1105730 1087959 1073045 
3976.390 1059260 1046340 1035545 1029733 1031294 1041723 1059393 1081050 
3980.248 1101346 1115397 1119616 1112673 1095200 1069590 1039000 1007116 
3984.105 978190 956837 947838 955111 979585 1019006 1066866 1113969 1151076 
3988.445 1171043 1171641 1155661 1129848 1101811 1077197 1057832 1041125 
3992.302 1022559 998415 967829 933991 903045 881397 874093 881862 901983 
3996.642 928579 955443 977493 991308 996057 992038 980315 962582 940732 
##END=
