##TITLE=bd_1a Sep 15 13:55:20 2026 (GMT+02:00)
##JCAMP-DX=5.01  $$ Nicolet v. 970
##DATATYPE=INFRARED SPECTRUM
##ORIGIN=Vojna akademija
##OWNER=Nicolet
##LONGDATE=2026/09/15
##TIME=13:55:46
##SPECTROMETER/DATA SYSTEM=Nicolet iS20
##DATA PROCESSING=
Ratio against background
%Transmittance->Absorbance
Truncated
ElementMultiply or ElementDivide
##COMMENTS=
Number of sample scans: 8
Collection length: 11,90 sec
Sample gain: 8,0
Background collected on: Tue Sep 15 13:25:44 2026 (GMT+02:00);
Number of background scans: 8
Background gain: 8,0
Sample spacing:  1,000
Number of scan points: 12415
Resolution points: 8286
Number of FFT points: 65536
Apodization: N-B strong;
Phase correction: Mertz;
Laser frequency: 15798,00 cm-1
Number of rejected sample scans: 0
Number of rejected background scans: 0
Bench serial number: BER2010005;
##RESOLUTION= 4,000
##XUNITS=1/CM
##YUNITS=ABSORBANCE
##FIRSTX=400.156891
##LASTX=4000.123047
##FIRSTY=0.020414
##MAXX=4000.123047
##MINX=400.156891
##MAXY=0.273201
##MINY=-0.003789
##XFACTOR=1.000000
##YFACTOR=1.000000E-009
##NPOINTS=7468
##DELTAX=0.482117
##ZPD=6100
##XYDATA=(X++(Y..Y))
400.157 20413694 19844932 18891116 17772464 16844196 16446579 16765738 
403.532 17790864 19284536 20857300 22021826 22393566 21824264 20470930 
406.907 18718634 17042848 15844358 15319370 15454146 16044892 16813058 
410.281 17488198 17917396 18074120 18015194 17812438 17501306 17065764 
413.656 16463649 15666315 14694545 13619150 12557325 11642847 11005749 
417.031 10767244 11001672 11703398 12739591 13897303 15001547 16022613 
420.406 17029648 18104828 19260704 20428626 21463174 22182758 22430862 
423.781 22129060 21347578 20293654 19256654 18481596 18110424 18165700 
427.155 18578588 19227420 19983584 20748814 21453462 22066446 22584966 
430.530 23025486 23420186 23816158 24267740 24814540 25459236 26143456 
433.905 26753022 27123086 27089616 26561538 25574598 24311294 23035864 
437.280 22015934 21407930 21231628 21382834 21693382 21977384 22082970 
440.655 21939222 21561462 21047154 20534634 20170730 20046904 20173438 
444.030 20477494 20837172 21121868 21231594 21134738 20879480 20588552 
447.404 20404838 20441652 20714688 21129902 21504814 21646816 21424188 
450.779 20822086 19967624 19100160 18490344 18304196 18537264 19010942 
454.154 19474952 19689856 19529326 19003638 18248350 17459568 16815918 
457.529 16399816 16159706 15957709 15664529 15238889 14720012 14187342 
460.904 13711882 13343874 13115386 13062490 13255798 13792081 14765807 
464.278 16220374 18099680 20222068 22289440 23981712 25019996 25286690 
467.653 24862150 23991656 22968960 22021720 21269382 20703914 20243244 
471.028 19792946 19308022 18810664 18374326 18062756 17887908 17794108 
474.403 17693392 17501686 17175262 16710812 16132744 15471210 14743149 
477.778 13948999 13084105 12157377 11213818 10333412 9628371 9212597 9162950 
481.635 9494545 10140654 10968504 11795654 12454201 12819919 12844900 
485.009 12571377 12116421 11633998 11257851 11080556 11125289 11354501 
488.384 11682567 12010369 12253171 12361293 12333987 12207606 12035917 
491.759 11861471 11703569 11554605 11392223 11196784 10968674 10732397 
495.134 10535558 10432267 10470858 10678365 11046023 11526465 12036428 
498.509 12480251 12758461 12791833 12541261 12024812 11327871 10587059 
501.884 9966899 9591007 9504671 9664317 9967442 10291814 10538952 10666071 
505.740 10682983 10644883 10623151 10686073 10872347 11185496 11598060 
509.115 12065249 12532360 12935862 13214022 13305848 13171053 12807019 
512.490 12259374 11614599 10971359 10423307 10025115 9782945 9658523 9588568 
516.347 9510835 9392145 9242246 9106237 9041040 9084244 9244581 9499659 
520.204 9812938 10147743 10479344 10793127 11074063 11300154 11437940 
523.579 11449201 11306208 11005342 10577485 10079065 9582708 9147756 8802732 
527.436 8547624 8366262 8247615 8199462 8247716 8424298 8747079 9200278 
531.293 9725304 10233732 10638261 10871463 10914613 10799751 10602949 
534.667 10415263 10318449 10357912 10528870 10780491 11032292 11206508 
538.042 11241836 11113459 10833517 10444655 10000532 9549852 9130668 8764390 
541.899 8463995 8242077 8115630 8109723 8251971 8563135 9046588 9679155 
545.756 10409494 11158196 11836988 12367702 12693156 12793506 12686162 
549.131 12425900 12089164 11766817 11539497 11455154 11523743 11717695 
552.506 11987036 12275836 12543308 12768697 12948937 13085915 13169960 
555.881 13170131 13043267 12747576 12270860 11648054 10966227 10341488 
559.255 9880827 9654491 9666349 9857948 10123831 10358319 10481685 10467260 
563.112 10343218 10179117 10059465 10056142 10220875 10572121 11098707 
566.487 11761949 12505009 13257506 13943217 14502069 14898079 15135297 
569.862 15253199 15316007 15383835 15490130 15631691 15772816 15866973 
573.237 15880100 15812917 15707470 15638972 15683938 15902681 16313216 
576.612 16888252 17567338 18280488 18968540 19583014 20087192 20447486 
579.986 20631254 20618848 20415012 20059084 19615460 19162072 18766410 
583.361 18466730 18269500 18154056 18089906 18050562 18030012 18044070 
586.736 18122654 18293932 18572918 18952272 19403778 19882114 20335908 
590.111 20720802 21002952 21168760 21227730 21211830 21164308 21126286 
593.486 21121972 21148166 21176518 21163786 21073588 20888032 20618294 
596.861 20295804 19958118 19624888 19289628 18922162 18489582 17980280 
600.235 17423110 16881364 16437391 16157297 16061567 16119780 16261134 
603.610 16405767 16489528 16492557 16438114 16378276 16362105 16413270 
606.985 16519094 16640676 16728099 16744422 16678929 16542293 16355533 
610.360 16134361 15882334 15592948 15262019 14899863 14536603 14219558 
613.735 14000018 13912664 13966963 14139519 14382659 14633198 14832796 
617.109 14941871 14943482 14844384 14667401 14443593 14200693 13959401 
620.484 13728844 13508117 13289687 13066315 12838074 12616776 12424127 
623.859 12284766 12218784 12228735 12300241 12403022 12507124 12593547 
627.234 12665249 12743141 12858245 13032990 13268882 13540556 13803710 
630.609 14009873 14120727 14123260 14028831 13868326 13676455 13485524 
633.984 13318967 13191615 13114976 13101043 13161286 13304925 13533582 
637.358 13838429 14199426 14590980 14983677 15348375 15658826 15890548 
640.733 16024230 16049189 15968161 15799548 15573371 15326613 15089394 
644.108 14878741 14696808 14538283 14401633 14300638 14264273 14331150 
647.483 14528141 14852133 15258106 15666693 15989851 16155029 16136561 
650.858 15960461 15697576 15431279 15238820 15169402 15235937 15425821 
654.232 15715336 16082954 16512450 16990298 17497788 18003694 18470946 
657.607 18862602 19152618 19335700 19423874 19441580 19413860 19361302 
660.982 19298774 19238920 19200962 19211628 19301164 19496438 19810008 
664.357 20240362 20776308 21410472 22141334 22971894 23896668 24857624 
667.732 25717376 26294942 26487926 26353486 26045076 25709992 25436680 
671.107 25273624 25247110 25367334 25633468 26028260 26519834 27060912 
674.481 27600966 28097012 28518536 28859406 29140338 29409256 29724144 
677.856 30141888 30697420 31390518 32183238 33006896 33785376 34448704 
681.231 34957992 35310316 35537196 35690912 35835580 36036888 36346744 
684.606 36797056 37390604 38100264 38870476 39630436 40317192 40886848 
687.981 41336972 41705020 42056840 42454432 42932340 43481268 44053072 
691.355 44577424 44991264 45265988 45415020 45488676 45549972 45658432 
694.730 45845196 46109736 46423628 46745052 47033036 47260732 47423052 
698.105 47538412 47644592 47786860 48010364 48342220 48782872 49301756 
701.480 49847392 50361708 50797448 51138412 51404448 51646240 51921212 
704.855 52279580 52744480 53311020 53955236 54649708 55375176 56122900 
708.229 56889740 57667768 58436932 59170808 59846752 60463344 61048280 
711.604 61657532 62357404 63200256 64211620 65382168 66678628 68058152 
714.979 69488760 70955416 72456640 73993016 75556376 77124392 78670288 
718.354 80168904 81605688 82972904 84255744 85416424 86389648 87088128 
721.729 87435120 87386168 86946064 86161704 85104136 83842304 82423080 
725.104 80877080 79225880 77496656 75729864 73970944 72255776 70600016 
728.478 68994400 67416016 65845428 64283348 62755004 61299436 59948188 
731.853 58709900 57561908 56459584 55352292 54207536 53019924 51810804 
735.228 50611408 49446984 48324188 47230768 46143860 45045180 43930792 
738.603 42813044 41714284 40656828 39656684 38719760 37845292 37029264 
741.978 36267388 35554384 34881144 34234980 33600972 32969110 32341302 
745.352 31733226 31168856 30668546 30236262 29851540 29472230 29045706 
748.727 28533856 27925180 27245876 26548646 25900294 25355146 24938714 
752.102 24642776 24430768 24253934 24065406 23838910 23571074 23280854 
755.477 22998444 22758676 22590374 22508884 22514712 22592260 22713286 
758.852 22840248 22936996 22975214 22941538 22840528 22690488 22515548 
762.227 22333668 22150956 21959748 21744726 21490086 21189598 20849618 
765.601 20488194 20126166 19782542 19468644 19185862 18928426 18686500 
768.976 18449858 18208510 17954760 17684384 17399448 17110808 16837788 
772.351 16606526 16440041 16349718 16328042 16347997 16367678 16343560 
775.726 16247306 16073773 15843535 15593050 15363547 15182886 15059240 
779.101 14980556 14923010 14862454 14782845 14681830 14566755 14449005 
782.475 14335704 14227329 14118297 14000531 13868600 13722757 13568757 
785.850 13415189 13270386 13139872 13026536 12930366 12850122 12783097 
789.225 12726046 12672687 12615923 12549651 12471284 12384305 12299185 
792.600 12230337 12189749 12183615 12206413 12242571 12268849 12262237 
795.975 12208356 12104632 11963160 11806242 11663915 11562534 11520647 
799.350 11544465 11627498 11753302 11901313 12054415 12202255 12343976 
802.724 12486628 12638948 12803572 12971433 13118459 13212519 13222322 
806.099 13130480 12943952 12697762 12450824 12265713 12200756 12288209 
809.474 12526596 12879780 13287946 13684286 14006964 14220242 14315020 
812.849 14310432 14243045 14159202 14100224 14091496 14139656 14232739 
816.224 14348445 14460207 14548664 14605681 14634946 14647420 14655475 
819.598 14668018 14687073 14710963 14737734 14769990 14816751 14890742 
822.973 15002986 15156913 15345663 15551014 15748354 15916154 16039699 
826.348 16116513 16153790 16165208 16165415 16165208 16171880 16189214 
829.723 16220650 16270559 16343353 16441967 16565252 16705889 16849706 
833.098 16978894 17076688 17131076 17139312 17108740 17057218 17008562 
836.473 16987990 17018932 17116598 17287342 17527868 17828490 18173578 
839.847 18544216 18920810 19280796 19601108 19861580 20045412 20145324 
843.222 20166774 20129218 20060818 19993436 19952706 19949896 19982680 
846.597 20038682 20106486 20182114 20272474 20390842 20546654 20734462 
849.972 20929164 21088264 21169072 21142426 21007820 20796328 20563504 
853.347 20370320 20261018 20255602 20344312 20498960 20683514 20870198 
856.721 21043502 21198366 21333448 21444620 21522256 21555856 21539562 
860.096 21478424 21387360 21287060 21195478 21119466 21055120 20990988 
863.471 20915290 20823962 20723444 20630176 20565796 20548288 20589874 
866.846 20693176 20852016 21051884 21273104 21491480 21679416 21811896 
870.221 21869666 21844334 21742010 21581346 21388264 21186642 20995128 
873.596 20823128 20674200 20549920 20453632 20389420 20359172 20357784 
876.970 20371360 20380146 20367644 20328582 20275078 20232828 20234564 
880.345 20303270 20441962 20628648 20823268 20980278 21062492 21054562 
883.720 20964352 20817532 20643344 20468428 20307854 20164656 20034760 
887.095 19911390 19789512 19667356 19547382 19434166 19335492 19259910 
890.470 19216164 19209930 19240512 19298946 19369478 19434894 19481500 
893.844 19507388 19522150 19544298 19590882 19669262 19770750 19872992 
897.219 19945906 19963148 19912778 19799880 19643296 19467812 19297560 
900.594 19149500 19033098 18953346 18912644 18912228 18950056 19019078 
903.969 19106114 19195144 19274352 19341346 19406412 19488328 19607936 
907.344 19775224 19983964 20209536 20418416 20577156 20664646 20678094 
910.719 20630974 20545542 20442242 20336360 20234114 20135570 20040208 
914.093 19949376 19866574 19796412 19740894 19699010 19666872 19640454 
917.468 19615840 19589426 19556082 19506832 19430804 19318206 19166918 
920.843 18986020 18797652 18631676 18513752 18458604 18462996 18508806 
924.218 18570358 18626316 18670034 18710400 18765788 18853294 18978266 
927.593 19129418 19281626 19406272 19485624 19519032 19524646 19529500 
930.967 19559860 19628008 19728032 19838378 19933038 19993262 20015816 
934.342 20015192 20018764 20057280 20151120 20306082 20510424 20741446 
937.717 20972002 21181562 21360976 21514632 21656394 21803846 21973270 
941.092 22173692 22407068 22668704 22951598 23246560 23543194 23829492 
944.467 24087926 24297208 24436798 24490920 24458600 24358076 24228044 
947.841 24115664 24068662 24120220 24279198 24530852 24843028 25180078 
951.216 25511028 25819796 26103836 26368766 26620472 26859808 27081540 
954.591 27278970 27448144 27592526 27721524 27848442 27983806 28132608 
957.966 28293772 28462068 28630820 28792450 28937990 29055058 29126908 
961.341 29137966 29078830 28955450 28790324 28622148 28493060 28434438 
964.716 28458920 28555336 28694776 28840816 28965402 29054136 29107316 
968.090 29133180 29138532 29122728 29078794 28998202 28880050 28735310 
971.465 28584776 28450500 28346256 28270962 28209718 28140458 28045300 
974.840 27921366 27782100 27653296 27561036 27523296 27541616 27603190 
978.215 27685750 27769384 27842752 27905996 27968114 28041166 28133776 
981.590 28247128 28375046 28506116 28628696 28733114 28813482 28868790 
984.964 28901052 28913622 28910224 28893084 28862168 28816312 28755064 
988.339 28681610 28606400 28547762 28527098 28565880 28676124 28855086 
991.714 29083400 29331474 29565394 29757996 29898568 29992218 30056340 
995.089 30109960 30166714 30227170 30281024 30310832 30301488 30247524 
998.464 30156768 30047640 29946774 29881566 29872198 29929310 30050446 
1001.839 30222408 30422976 30628332 30818984 30983636 31123504 31249888 
1005.213 31380724 31530626 31705956 31900364 32098606 32281480 32434944 
1008.588 32556138 32654290 32744780 32841154 32948770 33061202 33165012 
1011.963 33246130 33298862 33328552 33351344 33385228 33445596 33539616 
1015.338 33666812 33822700 34004724 34213324 34451144 34718956 35011788 
1018.713 35318004 35624440 35919972 36201512 36472316 36737664 36996500 
1022.087 37237944 37441416 37586416 37664136 37685932 37682064 37694132 
1025.463 37759692 37895760 38094116 38323324 38543672 38718632 38828624 
1028.838 38873120 38864208 38816632 38739972 38636884 38505728 38347428 
1032.213 38170300 37988076 37817348 37669380 37547036 37445788 37358140 
1035.588 37280328 37213904 37164164 37134240 37117892 37098220 37049504 
1038.964 36946964 36777256 36545084 36273044 35992320 35735412 35523708 
1042.339 35362504 35242644 35148112 35063292 34981188 34905812 34851920 
1045.714 34840432 34892028 35024072 35245448 35555176 35940556 36379388 
1049.089 36842936 37299284 37723984 38104680 38446864 38771128 39109736 
1052.464 39496620 39955588 40496580 41111380 41776696 42457796 43117128 
1055.840 43719016 44232180 44636064 44922760 45100204 45190864 45231016 
1059.215 45261756 45318836 45429588 45606828 45849796 46148500 46487016 
1062.590 46846496 47205800 47542736 47833836 48059144 48208064 48285712 
1065.965 48314336 48328000 48367480 48466272 48643536 48904488 49242636 
1069.341 49648012 50113380 50636800 51218408 51854936 52534612 53236964 
1072.716 53937676 54619308 55276496 55919980 56572872 57263192 58014368 
1076.091 58841200 59750700 60743804 61819556 62974200 64198524 65472728 
1079.466 66765756 68041600 69266472 70422720 71514424 72565576 73605456 
1082.842 74657304 75726040 76797800 77848032 78855360 79814208 80737552 
1086.217 81651272 82581736 83548144 84555544 85599264 86669928 87759632 
1089.592 88861864 89966168 91054616 92097912 93061944 93919096 94655264 
1092.967 95274120 95790200 96218600 96564608 96821760 96979144 97031048 
1096.343 96986144 96864824 96687776 96463144 96178040 95803880 95309152 
1099.718 94679536 93930160 93105208 92259872 91443320 90684272 89986720 
1103.093 89342136 88743616 88198280 87729016 87364408 87122824 87003832 
1106.468 86987432 87043952 87149152 87297240 87502920 87793656 88193328 
1109.844 88712592 89344168 90069432 90869424 91733640 92662776 93659664 
1113.219 94717768 95813584 96904672 97944280 98891888 99725200 100440048 
1116.594 101039944 101520232 101860184 102022832 101969112 101675680 
1119.487 101144456 100403136 99492568 98452856 97310704 96080384 94771928 
1122.862 93401616 91999456 90607160 89267320 88019984 86895112 85915424 
1126.238 85106552 84499472 84132416 84045680 84267360 84808824 85659472 
1129.613 86795520 88189104 89821744 91688912 93796288 96148056 98735264 
1132.988 101526680 104475672 107529024 110641744 113789800 116965656 
1135.881 120168328 123388624 126599800 129760248 132828904 135774192 
1138.774 138584672 141260336 143796640 146169920 148335040 150237264 
1141.667 151841008 153149344 154211280 155101936 155900144 156655200 
1144.560 157374528 158035744 158611168 159093984 159513856 159927248 
1147.453 160400224 160982448 161690032 162507536 163400080 164333664 
1150.347 165281712 166229248 167163376 168064064 168906272 169667984 
1153.240 170343872 170953520 171537216 172139920 172787168 173475840 
1156.133 174174320 174841216 175443360 175972656 176441904 176869456 
1159.026 177256736 177576144 177773776 177795584 177606672 177209904 
1161.919 176640464 175948704 175171648 174317488 173369344 172301552 
1164.812 171103296 169791552 168405664 166992560 165584752 164186880 
1167.705 162780752 161339872 159848112 158307248 156733824 155142816 
1170.598 153535536 151895104 150195024 148416960 146566704 144676112 
1173.491 142793424 140959136 139190800 137476080 135784208 134083016 
1176.384 132360144 130629312 128924488 127280416 125716400 124227640 
1179.277 122789856 121371416 119948200 118512744 117070816 115632328 
1182.170 114201680 112775480 111347264 109916616 108496776 107111920 
1185.063 105789432 104547952 103387072 102288656 101224008 100169760 
1187.956 99115584 98068224 97043856 96057856 95114224 94203872 93308656 
1191.332 92412080 91505128 90588216 89665384 88738488 87802216 86846096 
1194.707 85862808 84856760 83846288 82862944 81937040 81086376 80309520 
1198.082 79586784 78888848 78189816 77478632 76760712 76054272 75379688 
1201.457 74753528 74183768 73672424 73219608 72826464 72494936 72222000 
1204.833 71996368 71796488 71593616 71363392 71092576 70786088 70464152 
1208.208 70155880 69886792 69670032 69505200 69380600 69279928 69188056 
1211.583 69095048 68994792 68882440 68753512 68605992 68443504 68278408 
1214.958 68133304 68034504 68005016 68058064 68191640 68390912 68632920 
1218.334 68896264 69164240 69428256 69685864 69937000 70182520 70423384 
1221.709 70662824 70906576 71161536 71432048 71716984 72006928 72288648 
1225.084 72552736 72799264 73043080 73307976 73619704 73993056 74424464 
1228.459 74891024 75358680 75793656 76171768 76485880 76741968 76953312 
1231.835 77131120 77281920 77408416 77513488 77604360 77691608 77784496 
1235.210 77885176 77984848 78063920 78097752 78066856 77960544 77779144 
1238.585 77529608 77220368 76856880 76442608 75983224 75490296 74981192 
1241.960 74475280 73984536 73507760 73028568 72522232 71964144 71340472 
1245.336 70653000 69916560 69150872 68370744 67584464 66793612 66000620 
1248.711 65214380 64452240 63735552 63083000 62501280 61984508 61516828 
1252.086 61082032 60669576 60280084 59921256 59602136 59324996 59081852 
1255.461 58856412 58632192 58397924 58153520 57905316 57661716 57424800 
1258.837 57188764 56941336 56672832 56383668 56086248 55799888 55541804 
1262.212 55317852 55119300 54926400 54716412 54475684 54201076 53900688 
1265.587 53586036 53266816 52946220 52623804 52299388 51977936 51670644 
1268.962 51392212 51153732 50958676 50801428 50670864 50555008 50448112 
1272.338 50352256 50274944 50223988 50201184 50201036 50211528 50218184 
1275.713 50207952 50173252 50109660 50015364 49887600 49722796 49518092 
1279.088 49273620 48994016 48686676 48358040 48010992 47643076 47248320 
1282.463 46820996 46360212 45870420 45360984 44840464 44315684 43790184 
1285.839 43267364 42755344 42268756 41827260 41450692 41149552 40921872 
1289.214 40752168 40619500 40504616 40397004 40297592 40213224 40148892 
1292.589 40101100 40055132 39990936 39892308 39754852 39589892 39422452 
1295.964 39281156 39185880 39142696 39141752 39164196 39189400 39203396 
1299.339 39201440 39184324 39154084 39109772 39047232 38961908 38853152 
1302.715 38726640 38591976 38459172 38334108 38215632 38097516 37974224 
1306.090 37845796 37719356 37606508 37517924 37456444 37414728 37377568 
1309.465 37328208 37257256 37165604 37064156 36967564 36887948 36828724 
1312.840 36783752 36741164 36691008 36629788 36561876 36495780 36439704 
1316.216 36396320 36362092 36328772 36288172 36234824 36167876 36088692 
1319.591 35997788 35893196 35769952 35623436 35451444 35255256 35039732 
1322.966 34809632 34567232 34311992 34041672 33754652 33453934 33146702 
1326.341 32844010 32557708 32296508 32066032 31868522 31705208 31578444 
1329.717 31491614 31447974 31446584 31480462 31536504 31596724 31645902 
1333.092 31674806 31683002 31677834 31671740 31676944 31702284 31753614 
1336.467 31835970 31955890 32125290 32358866 32669042 33058412 33512916 
1339.842 34001036 34482172 34922652 35301868 35616492 35875812 36095284 
1343.218 36292060 36481400 36677088 36888456 37119624 37368576 37626704 
1346.593 37880320 38113396 38313372 38474084 38598352 38695052 38776164 
1349.968 38850724 38921388 38985216 39036980 39073084 39094328 39105316 
1353.343 39112204 39119344 39126812 39132000 39132252 39128592 39126452 
1356.719 39133340 39153900 39186100 39219460 39237052 39219536 39153104 
1360.094 39032988 38867468 38674952 38484548 38329220 38237488 38226636 
1363.469 38298136 38438824 38626200 38837248 39049776 39244596 39408848 
1366.844 39536104 39629532 39700720 39766256 39838848 39921296 40004484 
1370.220 40073408 40115492 40129704 40131556 40155540 40252480 40475120 
1373.595 40864644 41428492 42131348 42902056 43658632 44329260 44851812 
1376.970 45177152 45262088 45072156 44597360 43858796 42910724 41819964 
1380.345 40651696 39452132 38245700 37046764 35867820 34724200 33632120 
1383.721 32599780 31621848 30680636 29752778 28821448 27888576 26979880 
1387.096 26137474 25398914 24778056 24259330 23811046 23401024 23005432 
1390.471 22611946 22216758 21821058 21427006 21041380 20678998 20363928 
1393.846 20130504 20008632 20007628 20103954 20252686 20409456 20549224 
1397.222 20675488 20814472 21003056 21266354 21602274 21976548 22339110 
1400.597 22641232 22853974 22967004 22980104 22897316 22722678 22464358 
1403.972 22138474 21774686 21414476 21097274 20850070 20678580 20571182 
1407.347 20508650 20477008 20476486 20525152 20654256 20899610 21288034 
1410.723 21824786 22490702 23246770 24050522 24864080 25661342 26428484 
1414.098 27154936 27830706 28442894 28974576 29409078 29729786 29919832 
1417.473 29962750 29848312 29584762 29210184 28789298 28385516 28033566 
1420.848 27736216 27476030 27229578 26980092 26724902 26481482 26286422 
1424.224 26179282 26187130 26310324 26527864 26811664 27142168 27515882 
1427.599 27943980 28446784 29042376 29736812 30517484 31357288 32225274 
1430.974 33097136 33957964 34799756 35617716 36404428 37152972 37861160 
1434.349 38533028 39185880 39850432 40564784 41349512 42188200 43027780 
1437.724 43807812 44491996 45075172 45573120 46009972 46410652 46794532 
1441.100 47173220 47549096 47917152 48269676 48602360 48916688 49220996 
1444.475 49526820 49846496 50191068 50570420 50995264 51477184 52026864 
1447.850 52652196 53354552 54133856 54996116 55955936 57037408 58265092 
1451.225 59649992 61174336 62788004 64423068 66003860 67478016 68822960 
1454.601 70037312 71132544 72115512 72981336 73707088 74284600 74742312 
1457.976 75126048 75477648 75809160 76114752 76385880 76619928 76820816 
1461.351 76995048 77148568 77283152 77394560 77473688 77504216 77458512 
1464.726 77291144 76925192 76260824 75198336 73648040 71567368 68967712 
1468.102 65917084 62507024 58837292 54977464 50919852 46609320 41976176 
1471.477 37034244 32001614 27311078 23416584 20515494 18492210 17061078 
1474.852 15941074 14964471 14066067 13252485 12549889 11968474 11486759 
1478.227 11064717 10662133 10256394 9845440 9445068 9076124 8752591 8473151 
1482.085 8223301 7983282 7738739 7484694 7221869 6951122 6669778 6370928 
1485.942 6048463 5702802 5347890 5008652 4718312 4507271 4393556 4375884 
1489.800 4433355 4536333 4654775 4767018 4858917 4917692 4931097 4886963 
1493.657 4775326 4592720 4347234 4063356 3778026 3536709 3373623 3298196 
1497.515 3295091 3338696 3407684 3488207 3571351 3646792 3700758 3720475 
1501.372 3696982 3628649 3519539 3376294 3203855 2998554 2748899 2434242 
1505.229 2033450 1552916 1065106 721429 652003 833125 1125130 1406927 
1509.087 1631532 1798423 1929200 2047466 2169293 2296951 2418215 2511219 
1512.944 2554578 2532681 2440473 2281695 2071436 1836587 1613606 1445024 
1516.802 1359062 1354143 1397587 1445223 1457690 1406263 1279099 1085268 
1520.659 866357 688839 616697 662755 784626 919149 1022127 1077296 1090649 
1524.999 1083043 1082312 1113935 1188087 1297743 1423615 1545434 1648661 
1528.856 1726729 1777296 1798157 1784549 1729324 1625845 1473083 1283619 
1532.714 1093307 952554 904473 952388 1061187 1181907 1276507 1323798 
1536.571 1308610 1216628 1029036 724018 288461 -248533 -776960 -1124900 
1540.428 -1158211 -892673 -462503 -23126 327123 556411 678983 740680 795580 
1544.768 888004 1030331 1204799 1377643 1519664 1613240 1656011 1657674 
1548.625 1637386 1617264 1613140 1629071 1654581 1672708 1667287 1628206 
1552.483 1550322 1432158 1275344 1086564 876849 657645 438020 219701 -2650 
1556.822 -238201 -493019 -750036 -933739 -917142 -643053 -219523 205645 
1560.680 560625 836545 1045377 1199118 1308577 1383991 1435516 1473615 
1564.537 1506497 1537586 1565086 1583509 1587932 1576858 1553015 1524485 
1568.395 1501842 1497188 1516206 1554545 1598607 1635157 1656144 1658872 
1572.252 1642940 1607786 1550854 1468728 1359162 1225732 1082644 960125 
1576.109 893881 904406 983371 1101711 1229288 1345767 1441267 1511950 
1579.967 1558003 1581813 1589163 1587466 1584607 1587200 1597476 1613273 
1583.824 1628140 1634160 1624681 1596678 1552350 1498052 1442863 1394894 
1587.682 1361289 1346199 1350720 1373089 1409121 1452803 1496955 1533929 
1591.539 1556939 1560531 1543439 1508658 1463541 1418496 1385022 1372092 
1595.397 1384058 1419127 1469825 1525217 1572868 1603828 1612775 1600270 
1599.254 1572070 1538883 1513114 1504702 1518833 1553115 1598640 1642474 
1603.111 1672575 1681490 1668584 1638683 1599705 1559500 1523355 1494827 
1606.969 1477505 1475577 1495060 1541410 1616699 1716350 1830166 1942380 
1610.826 2035748 2097338 2119779 2102432 2048764 1962117 1843309 1690304 
1614.684 1503172 1291329 1083674 931103 885647 970220 1160179 1402872 
1618.541 1644370 1848400 1998265 2087882 2118880 2097205 2033950 1946207 
1622.399 1859581 1804279 1802150 1856486 1950967 2060649 2160902 2234766 
1626.256 2275233 2284859 2275333 2263276 2264974 2287524 2327130 2372071 
1630.113 2410252 2432976 2437241 2424246 2396392 2353881 2291954 2201562 
1633.971 2072967 1905238 1721573 1573699 1521559 1591224 1757834 1972734 
1637.828 2195767 2406687 2598942 2773575 2933366 3077967 3204089 3306509 
1641.686 3379834 3422011 3434301 3420942 3386780 3337961 3282705 3234465 
1645.543 3219644 3276228 3439110 3712254 4053089 4396033 4688970 4911459 
1649.401 5063290 5152771 5188649 5173996 5103955 4966286 4758576 4523309 
1653.258 4363266 4364270 4508175 4722164 4947317 5152536 5320149 5440281 
1657.115 5509000 5527659 5503162 5445851 5366037 5269402 5156560 5025545 
1660.973 4877447 4721930 4581603 4484138 4449021 4472755 4529871 4584315 
1664.830 4605545 4576714 4491436 4352689 4169091 3956812 3737285 3541185 
1668.688 3405848 3363338 3426419 3576863 3774149 3970488 4129149 4230683 
1672.545 4268794 4249755 4189397 4115100 4060146 4056668 4117675 4228609 
1676.402 4357442 4474563 4565061 4625705 4660568 4676846 4680664 4675138 
1680.260 4658860 4625873 4566032 4468470 4325883 4143499 3961326 3866307 
1684.117 3954572 4245673 4653201 5070263 5435013 5733824 5975425 6177803 
1687.975 6363195 6554182 6769148 7014424 7281807 7550535 7797602 8005354 
1691.832 8168264 8293071 8393692 8486531 8586352 8702996 8839082 8987523 
1695.690 9134119 9266311 9382800 9492445 9608283 9746754 9928387 10181797 
1699.547 10534233 10982199 11470089 11916740 12272189 12531404 12715504 
1702.922 12852955 12974642 13114259 13305027 13570637 13908490 14283790 
1706.297 14643274 14945094 15174205 15343191 15478798 15610910 15761444 
1709.673 15938908 16138831 16348926 16557163 16756888 16950918 17149446 
1713.048 17366514 17614986 17904136 18239710 18629324 19089392 19651270 
1716.423 20355978 21238484 22291324 23446206 24604132 25689076 26684062 
1719.798 27619752 28545320 29512692 30568034 31752046 33098354 34631428 
1723.174 36363140 38290320 40395184 42650348 45023640 47489100 50035404 
1726.549 52680064 55480844 58535724 61966320 65878748 70309344 75179856 
1729.924 80310552 85472376 90527528 95528664 100797128 106921840 114715048 
1733.299 124887848 137352688 150782448 163256656 173635056 182021104 
1736.193 189151216 195776880 202454864 209532416 217175824 225352080 
1739.086 233846448 242265632 250149584 257109168 262878112 267322832 
1741.979 270428672 272296768 273136096 273200736 272700192 271684480 
1744.872 270030848 267505888 263903968 259144272 253331568 246693648 
1747.765 239507376 231938416 223971248 215431952 206157936 196175920 
1750.658 185784912 175504960 165854720 157141392 149382256 142379792 
1753.551 135842320 129478384 123046712 116372176 109365792 102082144 
1756.444 94731416 87637664 81121352 75361280 70361320 65987156 62039240 
1759.819 58302760 54592820 50803592 46946680 43167924 39682600 36670744 
1763.194 34193428 32191728 30532768 29074580 27697650 26326940 24935768 
1766.570 23542914 22196740 20947836 19825648 18822496 17903688 17026514 
1769.945 16164141 15315046 14504261 13772244 13156914 12668558 12286846 
1773.320 11971777 11692881 11437566 11201510 10979039 10757462 10518211 
1776.695 10245605 9934319 9593175 9240892 8901408 8595510 8335525 8124104 
1780.553 7955575 7821925 7714961 7628423 7554749 7481357 7392675 7273552 
1784.410 7118218 6935400 6748182 6582876 6454357 6361245 6285062 6200053 
1788.268 6080886 5913249 5696591 5443938 5176108 4917793 4692018 4514704 
1792.125 4392551 4322971 4298509 4309150 4344155 4392250 4441187 4479852 
1795.983 4500709 4501044 4482531 4448284 4398811 4330300 4236271 4113561 
1799.840 3968148 3820242 3697784 3625575 3615919 3661962 3743100 3832610 
1803.697 3909300 3959755 3979650 3970087 3933206 3868981 3776088 3654009 
1807.555 3506745 3343637 3178521 3023411 2886600 2769973 2671047 2587275 
1811.412 2520083 2473795 2452868 2456667 2476827 2499288 2509619 2498255 
1815.270 2465531 2422380 2386330 2374136 2393127 2438940 2497988 2556078 
1819.127 2604209 2642643 2677348 2714122 2751867 2780878 2784046 2744998 
1822.984 2653211 2510252 2329629 2135229 1951100 1792801 1663329 1556374 
1826.842 1462810 1376413 1296380 1225932 1170611 1136625 1128386 1148950 
1830.699 1199550 1279598 1385022 1506597 1628838 1732018 1796194 1806808 
1834.557 1762059 1675602 1574131 1485817 1434253 1429565 1466367 1527212 
1838.414 1589528 1633361 1644071 1614670 1543073 1432491 1289634 1127024 
1842.272 965372 830137 748114 736199 791862 890661 999378 1092177 1156691 
1846.611 1193802 1211744 1219054 1223041 1228523 1239721 1260855 1296048 
1850.469 1347030 1411348 1481195 1545267 1592521 1616632 1619725 1611245 
1854.326 1603463 1604327 1613706 1623650 1623484 1605192 1569908 1526314 
1858.183 1488044 1464572 1456693 1455895 1448947 1425177 1382462 1327354 
1862.041 1272320 1226563 1191443 1157754 1110879 1036276 925657 780311 
1865.898 608634 423792 239161 68990 -69575 -156695 -173355 -110786 22531 
1870.238 200242 387542 551368 666007 722160 727835 706395 686217 692290 
1874.578 735535 808759 890594 953683 976895 951823 884319 790269 690166 
1878.917 602430 541814 518691 537899 598614 692290 804311 914135 1001105 
1883.257 1051687 1064907 1052983 1036010 1033187 1050359 1077794 1091978 
1887.114 1066966 984732 847035 676593 513914 399780 356502 380711 448037 
1891.454 525923 586935 617394 614474 584148 533785 471521 405783 347847 
1895.793 312334 315650 370430 479449 631529 802286 956240 1060556 1092875 
1900.133 1049495 945779 812842 687777 601832 576550 616432 710411 834652 
1904.473 960822 1062648 1120845 1129881 1097359 1043251 991806 965272 974936 
1908.812 1018374 1080618 1141342 1184200 1201875 1196692 1176558 1147986 
1912.670 1112108 1066169 1007913 941197 880733 850754 877745 985031 1180977 
1917.009 1452803 1762159 2056654 2285825 2417815 2447037 2385797 2254449 
1920.867 2073267 1865138 1656311 1475111 1348094 1288637 1292392 1337225 
1924.724 1395625 1442730 1463375 1454898 1424213 1380169 1329781 1275776 
1928.581 1219652 1166990 1131874 1133170 1187057 1297045 1448049 1607054 
1932.439 1733549 1798723 1796094 1748519 1695992 1680625 1723136 1813429 
1936.296 1912194 1967942 1938020 1806009 1587600 1324430 1066833 854605 
1940.154 713796 654724 674801 763150 902946 1070719 1236531 1370064 1447783 
1944.493 1459818 1416435 1344404 1279398 1249956 1267668 1321472 1386916 
1948.351 1436680 1459685 1468462 1494960 1575960 1735112 1969839 2252251 
1952.208 2537014 2779010 2952148 3050738 3087444 3077766 3032086 2950380 
1956.066 2829000 2670447 2490857 2317736 2182680 2104496 2083488 2097837 
1959.923 2116483 2111089 2071103 2008417 1952864 1935723 1981222 2101233 
1963.780 2295552 2558577 2883198 3259636 3667241 4066701 4400217 4596303 
1967.638 4598178 4386560 3987977 3464894 2893238 2344819 1868565 1490771 
1971.495 1215664 1034881 929575 883024 884485 930804 1028571 1193071 1444592 
1975.835 1796926 2246922 2762671 3282571 3721778 3991187 4034126 3838594 
1979.692 3449631 2945709 2415649 1925506 1509689 1174066 911047 712668 
1983.550 582157 529506 562914 672478 828046 981478 1085368 1116560 1091015 
1987.889 1058197 1081781 1210448 1450376 1756902 2045768 2227039 2237497 
1991.747 2077029 1806142 1528675 1345036 1312565 1435217 1668418 1939052 
1995.604 2170692 2307943 2317270 2189706 1933959 1571105 1135362 673109 
1999.462 249504 -61459 -189121 -81700 271154 824693 1479334 2113186 2608409 
2003.801 2887201 2937269 2809123 2599542 2411818 2328863 2374436 2515451 
2007.659 2674014 2772641 2763104 2649977 2485125 2349683 2315205 2409219 
2011.516 2603908 2821396 2965025 2947010 2723525 2311274 1782087 1231813 
2015.373 754155 414439 231237 180386 208628 259715 294031 303812 309449 
2019.713 350633 469696 696671 1041324 1490837 2011879 2558278 3085208 
2023.570 3547866 3909501 4143633 4233929 4176016 3979450 3663098 3252926 
2027.428 2780144 2280929 1790971 1346399 973806 690000 501806 409796 414771 
2031.767 518426 718608 1002499 1339286 1684483 1986581 2200763 2303912 
2035.625 2301281 2222177 2108092 1997066 1907468 1834924 1759630 1663196 
2039.482 1542375 1418030 1326989 1309374 1391337 1570473 1821049 2102232 
2043.340 2377301 2621042 2824598 2988578 3109569 3173181 3151820 3014202 
2047.197 2743364 2348617 1872326 1377277 931733 587764 368739 273607 282393 
2051.537 367844 499716 650145 792261 899891 953384 943721 878808 783332 
2055.876 694182 647358 663020 740680 858157 983703 1087328 1156026 1196526 
2060.216 1231447 1283419 1364181 1464339 1556407 1602831 1571138 1446553 
2064.073 1237030 970884 685520 422167 213501 81318 36979 79396 195402 359520 
2068.895 537733 689337 778253 783730 706030 569616 413112 280238 202396 
2073.235 191192 237039 316644 399846 462864 494541 495835 476928 450691 
2077.574 428435 417756 421205 437523 462996 491788 516999 534184 542809 
2081.914 549345 567161 614507 707357 852779 1044413 1261487 1472950 1644603 
2086.253 1751446 1782054 1740601 1643838 1514244 1373355 1237262 1117191 
2090.111 1019902 950462 913936 913371 947772 1010038 1084936 1150279 1181110 
2094.450 1156558 1064741 906631 695808 456595 217480 4572 -160968 -269130 
2098.790 -319327 -319725 -282839 -222404 -150568 -74810 960 77275 157713 
2103.130 246719 349041 467938 603690 751799 905602 1055075 1191409 1308577 
2107.469 1404900 1482758 1546631 1598241 1635623 1650324 1631565 1571438 
2111.327 1470390 1340017 1203238 1087892 1017378 1003363 1041922 1116527 
2115.184 1202972 1278169 1325593 1336527 1307846 1237960 1125596 971150 
2119.042 782004 577877 388272 250300 193943 228685 336639 475601 590883 
2123.381 630965 569881 413941 202231 -11596 -172892 -245751 -222967 -124433 
2127.721 11033 141140 226032 240023 173590 32571 -163220 -378590 -566619 
2132.060 -677625 -667799 -515590 -231114 139019 522141 843417 1043716 
2135.918 1105465 1057633 968626 915596 963744 1142737 1438309 1796893 
2139.775 2144053 2411651 2551645 2552245 2436208 2255648 2071902 1941182 
2143.633 1899081 1947039 2053059 2160336 2209688 2155241 1986049 1730721 
2147.490 1452969 1229819 1121443 1156757 1323698 1577257 1857551 2118580 
2151.347 2337657 2522916 2700919 2898174 3123385 3360132 3564703 3687525 
2155.205 3687090 3546363 3278131 2924860 2547846 2209521 1967110 1853724 
2159.062 1870828 1990010 2162566 2339256 2479460 2563710 2591809 2576576 
2162.920 2532948 2468596 2377668 2245490 2058385 1817189 1542075 1273849 
2166.777 1055706 916426 858954 857227 869379 853808 788410 680741 563013 
2171.117 476695 457689 523800 670354 877978 1123868 1388013 1651987 1897451 
2175.456 2095240 2204892 2187076 2013477 1690171 1259293 799398 401007 
2179.314 138190 54144 147305 379749 691195 1021795 1326690 1578920 1767848 
2183.653 1888299 1936189 1907301 1805111 1644237 1452870 1268764 1128818 
2187.511 1060456 1080153 1190479 1385952 1652120 1969606 2308643 2628709 
2191.368 2884032 3026247 3020675 2858183 2560544 2175986 1765452 1391105 
2195.226 1094968 899990 810385 818518 911512 1074705 1291096 1534893 1773870 
2199.565 1972036 2095407 2126338 2066275 1936056 1766650 1585837 1409919 
2203.423 1239721 1066368 880999 683828 488206 317142 195137 140676 158277 
2207.762 240851 370099 525989 686947 831864 940931 993500 971117 865826 
2212.102 682998 445947 190927 -39195 -210515 -305024 -326777 -295786 -242539 
2216.441 -194883 -168884 -167195 -181006 -197367 -203461 -192499 -162326 
2220.299 -113899 -48406 34725 137461 259583 399515 550605 702943 844213 
2224.638 962848 1048897 1096795 1106362 1083408 1040195 993500 960490 954845 
2228.978 981278 1033386 1093141 1139615 1149913 1110813 1021131 893118 
2232.835 747650 609397 501143 438783 428866 468668 547653 647822 747616 
2237.175 826353 866059 857194 801323 712701 613014 527283 476165 469895 
2241.515 505389 568985 642447 708652 756744 785058 798468 803547 805140 
2245.854 804277 797672 782137 757275 727636 702612 693784 709349 751898 
2250.194 815796 889432 957037 1005356 1026545 1018474 986193 936648 877679 
2254.533 814601 749807 683761 618389 557606 508739 480112 478619 506782 
2258.873 560791 630766 705134 773008 828245 870906 906199 940898 979917 
2263.213 1023522 1066435 1100781 1118420 1115696 1094469 1063312 1033287 
2267.070 1016016 1020068 1048499 1098422 1161541 1226895 1280894 1311767 
2270.927 1311236 1275942 1209019 1118952 1019072 922137 839034 775730 731818 
2275.267 702711 682036 664315 646794 629804 614739 603491 597220 595329 
2279.607 597884 605847 621044 645964 681969 727337 778021 828013 870972 
2283.946 902348 921340 929642 931069 931269 935951 950130 979552 1028604 
2288.286 1099751 1190479 1293090 1394728 1479200 1533097 1548792 1527777 
2292.143 1479367 1417399 1354642 1296679 1241250 1180312 1106029 1015751 
2296.001 916493 823299 755616 728897 749044 810253 897899 992238 1075835 
2300.340 1138053 1175595 1190712 1187190 1167887 1133735 1085235 1025249 
2304.198 962184 908822 882028 896703 963080 1082611 1248161 1442896 1644769 
2308.537 1831463 1981722 2081124 2124907 2118580 2076629 2020168 1972002 
2312.395 1948304 1956059 1990642 2039509 2086850 2121910 2143486 2161601 
2316.252 2193570 2257514 2366674 2522983 2716690 2928062 3136000 3320832 
2320.110 3471674 3586919 3673189 3741897 3804732 3872959 3953435 4049644 
2323.967 4161095 4283617 4410860 4535462 4650990 4753852 4845012 4929488 
2327.824 5015054 5109989 5218729 5341013 5471317 5600285 5716667 5811690 
2331.682 5879057 5915734 5921679 5897899 5846883 5771932 5677355 5567930 
2335.539 5449441 5327260 5207394 5097920 5008987 4951640 4936191 4967191 
2339.397 5039557 5136107 5231103 5297575 5316292 5283992 5214738 5135671 
2343.254 5071536 5034361 5014249 4982340 4901473 4745243 4512361 4227706 
2347.112 3933072 3670951 3478989 3378765 3378765 3476216 3659990 3912644 
2350.969 4212315 4537940 4869271 5190862 5492759 5770186 6021719 6247177 
2354.826 6447362 6623953 6779143 6916614 7041397 7158369 7272204 7385935 
2358.684 7499358 7609810 7711217 7795038 7852727 7878133 7868889 7827728 
2362.541 7761913 7681538 7595614 7510179 7424795 7333969 7226586 7089421 
2366.399 6911261 6684145 6407243 6087203 5738322 5379288 5030439 4710440 
2370.256 4431179 4197828 4006971 3849726 3714125 3588957 3466464 3342736 
2374.114 3217207 3090280 2961956 2829634 2689017 2534747 2362343 2170159 
2377.971 1960120 1738206 1513945 1298873 1103937 938906 809589 716617 655289 
2382.311 617129 589788 560359 519156 460110 382800 292241 197689 109455 
2386.650 37277 -11994 -35816 -36346 -20178 3214 22399 26011 6328 -40156 
2391.472 -110786 -196639 -284031 -358362 -406993 -422717 -405338 -360613 
2395.329 -298931 -230121 -162425 -100682 -46484 -563 35355 58253 63588 47881 
2400.151 10470 -44828 -111282 -180344 -244096 -298170 -341345 -374617 
2404.009 -398783 -412786 -413249 -395771 -357534 -299097 -226147 -148050 
2407.866 -74180 -12226 34858 68692 93613 113465 129009 137130 132026 108262 
2412.688 63489 563 -72590 -144208 -203428 -241281 -253931 -242109 -210449 
2417.027 -166002 -115589 -66263 -23955 7024 24022 26209 15009 -6527 -34789 
2421.849 -66196 -98396 -130097 -159742 -185875 -205382 -214556 -210449 
2425.707 -193956 -169712 -147520 -137948 -150534 -188061 -245652 -309858 
2429.564 -364321 -392924 -386104 -343629 -274859 -194552 -118901 -61227 
2433.421 -27964 -18852 -28527 -48571 -70867 -88326 -96707 -93229 -77559 
2437.761 -50791 -16401 21007 55171 80125 91360 87316 69653 43142 14877 -8084 
2443.065 -20443 -19714 -7720 9642 22796 21007 -5036 -60995 -146527 -254229 
2447.887 -370479 -479780 -566884 -621282 -639182 -623102 -579988 -517874 
2451.744 -444762 -365976 -285422 -206939 -134437 -72723 -25678 5831 24784 
2456.084 37575 51427 71476 97557 123342 138190 131595 96894 34626 -47677 
2460.906 -137020 -219391 -284759 -327638 -348297 -350085 -337537 -313765 
2464.763 -280786 -239857 -192962 -143016 -94488 -50725 -13982 16004 41121 
2469.103 63423 83074 98319 105445 100904 82577 51625 12094 -30283 -69642 
2473.924 -101676 -124168 -137087 -140995 -137120 -127447 -114463 -102504 
2477.782 -97105 -103796 -126984 -167559 -222140 -282938 -341245 -387561 
2481.639 -415004 -420863 -405901 -373260 -327439 -272508 -211840 -148083 
2485.497 -83920 -22298 32870 77772 108991 124502 124867 112968 94144 74591 
2490.318 59910 53349 54442 58982 59313 48245 20841 -22298 -74346 -122876 
2495.140 -153582 -155768 -124698 -65070 10801 85162 142035 169944 165701 
2499.480 133219 82776 26242 -26506 -68118 -94620 -104989 -98463 -75008 
2503.819 -34789 20543 86753 156884 221756 272215 300895 304044 282791 243371 
2508.641 195070 148830 115288 101733 111112 140809 183999 230442 269231 
2512.981 292771 298242 288461 271121 255870 250598 258025 274602 291810 
2517.320 299071 287234 253682 202695 145515 95237 65146 62760 88244 134545 
2522.142 189667 240586 275298 287002 273906 238995 188208 129639 71078 19085 
2526.964 -20873 -45987 -55396 -50725 -36081 -17030 695 11994 14612 9642 1424 
2532.268 -3379 2915 25414 66538 124568 193711 265319 330306 380213 409365 
2537.090 416429 403627 377129 344929 315948 297214 292307 300132 315384 
2541.429 329676 333489 320159 287731 239757 184562 132490 93149 70746 64019 
2546.251 66107 67764 60540 40226 8515 -27434 -58808 -76963 -77195 -59802 
2551.073 -29455 6461 42214 74292 102793 130170 160066 194374 232663 271585 
2555.895 306432 332693 347350 349638 340685 323243 299635 272480 244001 
2560.234 216087 191490 173822 166232 170972 188540 216949 252190 290152 
2564.574 327321 361808 394308 425948 457192 487045 511493 526023 526222 
2568.913 510929 483064 449297 418518 397425 389599 392915 401903 409265 
2573.253 409696 402334 391190 382435 382269 392617 410161 426710 431685 
2577.593 417225 380545 325232 260544 198485 149659 119564 109256 114592 
2581.932 129938 149990 172231 197490 228618 268336 317606 374310 433112 
2586.272 486448 527084 549477 550904 532989 500313 460011 419480 385420 
2590.611 362405 352092 352921 361278 372387 381374 384491 380910 372022 
2594.951 362538 358890 368109 395203 442730 508242 585409 663684 731818 
2599.291 780676 804410 802750 780742 746919 710046 677755 654061 639593 
2603.630 631828 627382 623068 616929 607971 596689 584148 572469 563810 
2607.970 562549 572336 596590 636673 689337 747517 801854 842255 861444 
2612.309 857891 836445 807132 781871 770818 779879 808427 850720 897334 
2616.649 939603 970021 984965 984002 969224 943621 911080 876151 843516 
2620.989 818618 806501 810917 833358 871802 921108 974238 1023722 1063545 
2625.328 1090384 1103538 1105066 1097824 1084903 1068859 1051853 1036176 
2629.186 1024187 1018806 1022659 1037439 1063080 1097725 1137588 1178684 
2633.043 1217425 1252083 1282223 1308643 1332074 1352481 1367904 1376047 
2636.900 1374618 1363051 1343607 1320874 1301099 1289833 1290398 1302728 
2640.758 1323532 1347628 1369632 1386451 1397254 1403902 1408889 1414340 
2644.615 1420224 1424712 1424812 1418030 1404501 1387282 1371659 1364247 
2648.473 1370529 1392567 1428236 1471853 1515541 1551253 1573732 1581547 
2652.330 1577390 1567048 1557870 1556108 1565419 1585538 1612908 1642075 
2656.188 1667287 1684284 1692433 1693963 1693464 1696225 1706304 1725398 
2660.045 1751779 1781222 1808338 1827803 1835989 1831430 1815825 1792967 
2663.902 1768280 1748419 1739304 1745691 1770044 1811533 1866036 1926205 
2667.760 1984318 2032086 2064511 2080424 2082522 2076263 2068473 2064577 
2671.617 2067674 2077994 2093243 2110523 2127271 2142254 2155274 2166995 
2675.475 2177652 2187309 2194968 2199797 2201096 2199031 2194335 2187908 
2679.332 2180282 2171724 2161934 2150546 2137593 2124141 2111322 2100767 
2683.189 2093908 2091212 2093143 2099336 2109424 2122209 2136194 2148781 
2687.047 2156140 2154308 2139624 2110389 2067574 2014909 1958988 1907002 
2690.904 1865471 1838584 1827104 1828435 1837586 1848167 1853824 1849498 
2694.762 1832428 1802383 1761693 1714454 1666289 1622353 1587101 1563191 
2698.619 1551253 1550388 1558103 1571903 1589296 1607553 1624049 1635789 
2702.477 1639880 1633561 1616001 1588331 1554578 1520595 1492832 1476408 
2706.334 1473781 1483922 1502840 1525051 1545600 1561229 1571604 1578754 
2710.191 1586303 1597809 1616267 1642641 1676334 1714986 1754673 1791436 
2714.049 1820982 1840115 1847302 1843242 1830864 1814527 1799355 1789307 
2717.906 1786778 1791736 1802848 1817921 1835123 1854290 1875986 1901178 
2721.764 1930165 1961884 1993571 2021899 2043804 2057453 2063512 2064178 
2725.621 2062646 2061981 2064111 2069338 2076496 2083388 2088015 2088282 
2729.479 2083521 2074199 2061714 2048531 2037512 2031220 2031087 2036779 
2733.336 2045834 2054723 2059351 2056854 2046633 2031187 2014243 2000062 
2737.193 1991108 1986315 1981688 1971337 1950301 1916354 1871827 1823444 
2741.051 1780623 1752378 1744693 1759065 1792534 1838617 1889564 1939052 
2744.908 1982787 2019269 2049130 2073566 2093842 2110523 2123408 2131666 
2748.766 2134662 2132398 2125373 2114884 2103298 2093043 2086784 2086484 
2752.623 2092776 2104596 2119213 2132765 2141289 2142254 2135229 2122542 
2756.480 2107859 2095973 2090413 2092310 2100900 2113586 2127537 2140989 
2760.338 2153976 2168094 2186077 2209555 2238529 2270803 2302314 2328463 
2764.195 2345985 2353614 2352915 2348117 2343987 2345186 2354614 2372670 
2768.053 2397691 2426945 2457667 2487824 2517351 2546846 2577109 2608242 
2771.910 2638477 2664846 2684149 2693951 2694818 2690350 2687250 2692717 
2775.768 2712855 2750800 2804555 2868856 2936235 2999788 3055309 3102294 
2779.625 3143643 3183828 3226955 3275727 3330582 3390319 3453271 3518069 
2783.482 3583946 3650267 3715094 3775553 3827028 3864769 3886065 3891681 
2787.340 3885797 3876971 3875433 3890077 3927054 3988111 4070146 4166782 
2791.197 4269697 4371633 4466328 4551266 4626241 4693927 4758174 4823100 
2795.055 4892057 4966119 5044115 5122863 5198172 5266417 5326119 5379087 
2798.912 5429981 5485310 5551486 5632776 5729929 5839260 5954228 6067211 
2802.770 6171250 6262135 6339525 6406672 6469019 6533159 6605281 6689428 
2806.627 6787423 6898838 7021664 7153484 7292219 7436727 7587353 7744811 
2810.484 7909716 8081738 8259265 8440109 8621467 8802224 8982787 9165623 
2814.342 9354157 9551579 9759630 9977952 10204321 10436272 10672524 10913695 
2818.199 11162854 11424027 11700880 11995211 12306308 12631273 12967507 
2821.574 13313125 13668831 14037319 14422800 14828853 15257386 15708363 
2824.950 16180580 16672490 17183812 17715652 18270294 18850386 19457174 
2828.325 20090488 20748572 21429236 22131048 22854426 23601368 24375530 
2831.700 25180638 26020170 26896644 27812760 28771632 29778576 30841288 
2835.075 31970084 33176922 34474532 35876604 37396452 39047744 40846732 
2838.451 42810556 44959364 47315852 49902508 52742612 55857952 59266656 
2841.826 62983820 67019500 71377920 76055656 81040928 86312280 91834656 
2845.201 97565408 103450136 109425208 115425584 121378736 127209168 
2848.094 132843120 138199920 143198720 147760640 151804336 155255728 
2850.987 158047232 160119120 161425808 161936848 161641472 160552032 
2853.880 158706656 156168144 153015344 149344352 145253520 140836112 
2856.773 136182240 131367920 126459640 121517488 116591496 111728896 
2859.667 106973080 102359952 97922528 93686144 89668072 85880536 82330192 
2863.042 79020864 75957168 73143920 70587352 68294112 66267468 64506896 
2866.417 63005268 61749464 60718160 59884592 59216944 58676600 58222240 
2869.792 57810864 57398064 56946396 56425508 55816052 55112076 54319156 
2873.167 53452608 52532404 51582912 50628908 49694000 48803332 47979980 
2876.543 47245140 46616660 46105244 45714308 45439372 45271136 45197592 
2879.918 45208400 45296728 45460232 45698848 46013952 46404636 46867868 
2883.293 47398848 47991600 48642424 49350088 50115832 50942764 51833056 
2886.668 52786724 53801140 54870268 55986728 57143144 58332584 59550108 
2890.044 60791900 62055488 63339396 64643144 65967328 67313208 68682088 
2893.419 70074376 71488808 72921952 74370112 75830144 77301952 78789640 
2896.794 80300712 81845088 83431328 85065160 86747080 88474336 90241640 
2900.169 92044872 93883352 95760296 97682104 99657008 101692680 103794248 
2903.545 105964984 108205912 110517744 112900512 115354968 117882408 
2906.438 120484104 123163208 125924512 128776224 131730096 134800176 
2909.331 138001984 141348976 144850336 148508896 152320880 156275360 
2912.224 160355264 164541088 168808160 173130704 177482896 181835616 
2915.117 186160592 190426464 194596864 198632464 202486288 206105872 
2918.010 209439424 212434496 215044608 217233104 218970080 220234816 
2920.903 221013120 221298416 221091888 220404160 219256032 217675504 
2923.796 215695648 213351728 210676128 207702512 204464288 200997504 
2926.689 197342656 193541024 189630512 185643680 181602064 177518496 
2929.582 173398240 169244480 165061904 160858944 156647936 152445488 
2932.475 148269200 144135616 140061248 136058880 132137936 128304512 
2935.368 124560152 120903920 117333984 113850432 110456984 107161920 
2938.261 103975440 100909216 97970896 95163224 92483864 89926720 87484960 
2941.637 85153960 82932440 80822960 78830008 76957544 75207672 73580992 
2945.012 72076432 70693160 69432648 68298024 67293904 66424540 65690996 
2948.387 65089264 64610808 64241088 63961892 63753748 63595832 63468152 
2951.762 63352660 63231760 63089900 62914184 62693484 62419144 62085568 
2955.138 61688236 61223128 60686344 60073312 59379884 58602916 57741944 
2958.513 56799736 55782784 54700664 53563508 52381844 51163424 49913400 
2961.888 48634048 47326052 45990300 44630004 43251080 41863272 40478432 
2965.263 39108940 37767356 36463740 35205452 33997704 32842688 31739890 
2968.639 30686610 29678020 28707628 27768854 26856390 25966698 25099784 
2972.014 24257930 23446100 22669542 21932668 21238344 20587476 19978760 
2975.389 19409044 18874920 18371732 17894608 17439046 17000600 16575648 
2978.764 16161803 15757320 15362242 14977984 14606881 14252392 13918651 
2982.140 13609440 13327577 13073520 12844627 12635809 12439504 12248944 
2985.515 12059662 11871516 11688966 11520103 11374671 11260197 11181825 
2988.890 11140348 11133686 11158468 11211642 11291857 11398549 11531433 
2992.265 11689613 11871345 12074992 12300446 12550572 12830122 13146020 
2995.641 13503809 13905274 14347075 14820728 15314873 15817005 16317206 
2999.016 16808754 17287204 17750442 18195034 18615834 19006374 19358946 
3002.391 19667356 19928180 20140672 20306220 20426126 20500212 20526088 
3005.766 20500176 20418554 20280042 20086326 19842644 19555076 19229776 
3009.142 18870146 18476894 18048388 17582932 17080618 16545286 15983939 
3012.517 15406081 14822202 14239929 13664556 13098140 12540101 11989148 
3015.892 11444541 10907171 10379426 9864727 9366379 8887440 8429737 7994082 
3019.750 7580508 7188551 6817512 6465959 6132669 5816021 5514537 5227582 
3023.607 4955293 4698918 4459766 4239215 4037939 3855141 3689095 3537945 
3027.464 3399469 3271788 3154023 3044832 2942974 2846643 2754101 2663679 
3031.322 2574943 2488357 2405287 2327064 2254250 2186210 2121677 2059584 
3035.179 1999363 1941947 1889297 1842943 1803780 1770543 1740235 1709298 
3039.037 1674737 1635656 1593087 1549723 1508692 1471786 1438741 1407858 
3042.894 1376546 1343208 1308178 1272453 1238658 1208620 1182339 1158053 
3046.751 1133103 1104734 1071816 1034881 996190 958464 923764 892619 864399 
3051.091 837275 809887 781971 754587 729793 709946 696937 691228 691925 
3055.431 696671 702678 707225 708984 708154 706495 707590 714725 730324 
3059.770 754421 784195 813971 837242 847367 840362 815630 776162 727901 
3064.110 678253 634416 602164 584911 583949 598415 625391 660498 697866 
3068.449 731054 754686 765075 761623 746986 726839 706627 691096 681604 
3072.789 676394 670553 659072 637602 604288 559795 506384 447175 385055 
3077.129 322580 262500 207766 161856 127982 107632 99579 100341 104649 
3081.468 107102 104484 96629 86157 76214 69885 67101 65278 59844 46025 21239 
3086.772 -14843 -59272 -108301 -157424 -203726 -245520 -282309 -313666 
3090.630 -339391 -359190 -373690 -384184 -394480 -407622 -425927 -449561 
3094.487 -475511 -498381 -512380 -513671 -501955 -481468 -459425 -443670 
3098.344 -439995 -450290 -472102 -499738 -525585 -543422 -549412 -543422 
3102.202 -527173 -504338 -478456 -452044 -427285 -405503 -388025 -376206 
3106.059 -370479 -370048 -372233 -372962 -368195 -355746 -336643 -315752 
3109.917 -301514 -301878 -322771 -365215 -424206 -489941 -550702 -596665 
3113.774 -621911 -626410 -614599 -594249 -572311 -554376 -542959 -538260 
3117.632 -539749 -546831 -559902 -579392 -605301 -636435 -670248 -703991 
3121.489 -735482 -763465 -788073 -809835 -828223 -842079 -848859 -846279 
3125.346 -833283 -811687 -785295 -759232 -738261 -724633 -718116 -716363 
3129.204 -715933 -714709 -711864 -707663 -703131 -698103 -690957 -679610 
3133.061 -662341 -639909 -616121 -596764 -588095 -595110 -619264 -658205 
3136.919 -706306 -757015 -804213 -843270 -871643 -888176 -892773 -885829 
3140.776 -868733 -843535 -814035 -785229 -761778 -746695 -740279 -740543 
3144.634 -743024 -743421 -739187 -729826 -717951 -707564 -702601 -705446 
3148.491 -716694 -734887 -757644 -781921 -805536 -827297 -845949 -860797 
3152.348 -871279 -876901 -877430 -873858 -866980 -858250 -848693 -838475 
3156.206 -826305 -810662 -789429 -761712 -727973 -690692 -654169 -623598 
3160.063 -603878 -598055 -606955 -628462 -658106 -690924 -722549 -750566 
3163.921 -775670 -799814 -826636 -858217 -894261 -932020 -967099 -994736 
3167.778 -1012058 -1019331 -1019397 -1017017 -1016488 -1020223 -1027297 
3171.153 -1035131 -1039329 -1036057 -1023992 -1003728 -978372 -951461 
3174.529 -926598 -906462 -892607 -885796 -886622 -895087 -910760 -932252 
3178.386 -957346 -982901 -1006009 -1024190 -1036751 -1044420 -1049279 
3181.761 -1053212 -1057906 -1064054 -1070664 -1076548 -1079952 -1079390 
3185.136 -1074168 -1064318 -1050469 -1033545 -1015100 -996654 -980322 
3188.512 -967099 -958271 -954205 -954469 -958371 -964784 -972487 -980488 
3192.369 -987629 -993083 -996257 -996654 -994736 -991794 -989943 -991860 
3196.227 -1000025 -1015662 -1038073 -1064847 -1092247 -1115845 -1132997 
3199.602 -1142283 -1144299 -1141226 -1135740 -1130320 -1126387 -1124900 
3202.977 -1125991 -1129659 -1136500 -1146744 -1160822 -1178237 -1197633 
3206.352 -1216500 -1232294 -1242602 -1246600 -1244618 -1238902 -1231963 
3209.728 -1226875 -1225256 -1227833 -1233781 -1241776 -1250366 -1258659 
3213.103 -1266456 -1273724 -1280662 -1286608 -1290771 -1292324 -1290408 
3216.478 -1285716 -1279307 -1273163 -1268901 -1267084 -1267117 -1267480 
3219.853 -1266258 -1262789 -1256908 -1249772 -1242933 -1235994 -1227536 
3223.229 -1214683 -1194428 -1165217 -1128866 -1090033 -1056253 -1034272 
3226.604 -1028983 -1040552 -1064616 -1093767 -1119844 -1136962 -1143109 
3229.979 -1139705 -1131311 -1123248 -1119249 -1121430 -1129659 -1142085 
3233.354 -1156757 -1171529 -1185341 -1197336 -1207810 -1217558 -1227932 
3236.729 -1240917 -1257932 -1279572 -1304646 -1329685 -1350396 -1363047 
3240.105 -1365822 -1360669 -1352609 -1348216 -1353699 -1371536 -1400303 
3243.480 -1434882 -1468268 -1493068 -1505813 -1505351 -1494355 -1476557 
3246.855 -1456347 -1436731 -1419954 -1407569 -1401129 -1401162 -1407636 
3250.230 -1418864 -1431711 -1442048 -1446473 -1443831 -1434816 -1422431 
3253.606 -1409386 -1396406 -1382733 -1364798 -1339562 -1306826 -1270288 
3256.981 -1236688 -1214386 -1209000 -1221589 -1247294 -1277028 -1300847 
3260.356 -1311319 -1306099 -1288293 -1264342 -1240752 -1222316 -1210553 
3263.731 -1205068 -1204242 -1207876 -1217425 -1234871 -1261500 -1296717 
3267.107 -1336853 -1377547 -1414274 -1444525 -1468302 -1487388 -1504063 
3270.482 -1518856 -1530313 -1535332 -1530940 -1515785 -1491251 -1460871 
3273.857 -1429697 -1401856 -1379430 -1362353 -1349703 -1340520 -1334970 
3277.232 -1334838 -1342072 -1357762 -1381213 -1409287 -1436929 -1459584 
3280.608 -1473156 -1475798 -1468202 -1452418 -1432273 -1411235 -1393467 
3283.983 -1381544 -1377679 -1381973 -1392773 -1406942 -1420252 -1428772 
3287.358 -1430589 -1425371 -1415463 -1404795 -1397001 -1394425 -1397661 
3290.733 -1405192 -1415166 -1425635 -1435839 -1445648 -1454927 -1462820 
3294.109 -1467113 -1465164 -1455192 -1437392 -1414571 -1391683 -1374343 
3297.484 -1367209 -1371800 -1387125 -1409584 -1435179 -1460673 -1484911 
3300.859 -1507662 -1529289 -1548901 -1563527 -1569470 -1562372 -1539657 
3304.234 -1502313 -1454828 -1404564 -1360074 -1329388 -1318024 -1327934 
3307.610 -1357630 -1402417 -1456116 -1512153 -1564815 -1610703 -1648334 
3310.985 -1678470 -1703356 -1725039 -1745039 -1763486 -1779688 -1791700 
3314.360 -1797870 -1797276 -1789885 -1776652 -1758338 -1735237 -1707647 
3317.735 -1675301 -1639257 -1602483 -1569008 -1544873 -1534902 -1541869 
3321.111 -1564253 -1596871 -1631071 -1657313 -1667941 -1658501 -1629420 
3324.486 -1584227 -1529950 -1473552 -1421804 -1379595 -1350033 -1334739 
3327.861 -1334343 -1347952 -1373881 -1409023 -1449247 -1489865 -1526384 
3331.236 -1554910 -1573663 -1581916 -1581487 -1575214 -1565508 -1555273 
3334.612 -1546656 -1540185 -1535728 -1531468 -1525988 -1517304 -1504327 
3337.987 -1486529 -1464702 -1440133 -1414340 -1388017 -1362155 -1336391 
3341.362 -1310493 -1284824 -1260773 -1240950 -1228791 -1227602 -1239992 
3344.737 -1266423 -1305174 -1352147 -1401724 -1447728 -1484647 -1508653 
3348.113 -1518492 -1515620 -1503238 -1486827 -1471505 -1462225 -1462126 
3351.488 -1472132 -1490888 -1515158 -1541043 -1564320 -1581916 -1592414 
3354.863 -1595980 -1594032 -1589641 -1585977 -1586406 -1593603 -1609052 
3358.238 -1632622 -1661703 -1692597 -1719396 -1736887 -1740286 -1728340 
3361.614 -1702795 -1668469 -1632622 -1602450 -1582874 -1576337 -1580860 
3364.989 -1591490 -1601856 -1606147 -1601196 -1586967 -1566961 -1546788 
3368.364 -1532063 -1527077 -1532756 -1546788 -1564320 -1578813 -1584854 
3371.739 -1579473 -1562966 -1538930 -1513540 -1493629 -1484284 -1487916 
3375.115 -1503238 -1525723 -1548571 -1564716 -1568975 -1558443 -1533978 
3378.490 -1499672 -1461961 -1427286 -1402417 -1391353 -1395614 -1413911 
3381.865 -1442874 -1477944 -1514365 -1548076 -1576535 -1598092 -1611627 
3385.240 -1616579 -1612089 -1597498 -1573233 -1541043 -1504525 -1469920 
3388.615 -1443997 -1432636 -1439968 -1466386 -1508224 -1558938 -1610274 
3391.991 -1654276 -1685170 -1700056 -1699660 -1686391 -1664706 -1638333 
3395.366 -1611363 -1585878 -1563956 -1545633 -1530841 -1517733 -1504525 
3398.741 -1489402 -1471604 -1451988 -1433065 -1418204 -1410476 -1411698 
3402.116 -1421341 -1437227 -1454993 -1471571 -1484515 -1493431 -1499837 
3405.492 -1505714 -1511988 -1517997 -1520837 -1516445 -1501488 -1474543 
3408.867 -1437392 -1395118 -1354888 -1323640 -1306991 -1307189 -1322781 
3412.242 -1349306 -1379859 -1407669 -1427121 -1434717 -1429928 -1415760 
3415.617 -1397001 -1380222 -1372626 -1379859 -1405621 -1450238 -1510205 
3418.993 -1577822 -1642987 -1695699 -1726722 -1732465 -1713686 -1676853 
3422.368 -1630905 -1585515 -1548307 -1523313 -1510304 -1505978 -1505648 
3425.743 -1504525 -1499638 -1490294 -1477482 -1464009 -1451790 -1442643 
3429.118 -1436533 -1432603 -1428772 -1423356 -1414901 -1402351 -1386102 
3432.494 -1367044 -1347093 -1328298 -1313433 -1304348 -1302069 -1305901 
3435.869 -1313334 -1321394 -1326481 -1326448 -1321328 -1313334 -1305637 
3439.244 -1301507 -1302135 -1305736 -1307916 -1302895 -1286278 -1257007 
3442.619 -1218384 -1177873 -1145290 -1128668 -1132468 -1156096 -1193569 
3445.995 -1234507 -1267480 -1283701 -1278812 -1253802 -1214980 -1170273 
3449.370 -1126685 -1088545 -1057410 -1032289 -1010339 -988488 -965082 
3452.745 -939525 -913141 -888474 -868336 -854547 -847668 -845221 -844196 
3456.603 -840228 -830339 -814399 -794754 -777192 -767831 -771966 -790983 
3460.460 -821972 -857027 -886424 -901568 -897567 -875148 -840393 -801501 
3464.317 -765913 -737533 -715503 -695191 -671339 -639579 -600305 -557950 
3468.175 -519826 -492159 -478821 -478986 -487459 -497388 -502418 -499043 
3472.032 -487525 -470712 -452971 -437314 -425663 -417354 -411694 -409178 
3475.890 -412223 -424901 -451845 -496064 -557586 -632465 -713187 -791546 
3479.747 -858713 -909338 -942038 -959296 -967264 -973049 -982901 -1000422 
3483.604 -1025678 -1054799 -1082761 -1102724 -1108937 -1098659 -1072879 
3486.980 -1036222 -997744 -967429 -952849 -958271 -981876 -1017579 -1055691 
3490.837 -1087157 -1104971 -1107120 -1096742 -1080382 -1067624 -1066896 
3494.212 -1083224 -1117596 -1166142 -1220862 -1272138 -1312310 -1336655 
3497.588 -1345904 -1344748 -1341247 -1343922 -1359414 -1390329 -1435476 
3500.963 -1488775 -1541142 -1583600 -1608689 -1613179 -1597960 -1568116 
3504.338 -1529851 -1488081 -1446308 -1405918 -1367209 -1330511 -1297642 
3507.713 -1270586 -1252679 -1245873 -1250829 -1265168 -1284626 -1303721 
3511.089 -1317364 -1323409 -1321526 -1314325 -1305538 -1300417 -1302168 
3514.464 -1313036 -1331766 -1355252 -1377943 -1394061 -1398784 -1389966 
3517.839 -1368761 -1339859 -1310757 -1289582 -1283073 -1295627 -1327538 
3521.214 -1375730 -1433594 -1493827 -1548934 -1594593 -1630245 -1658864 
3524.590 -1685302 -1713620 -1744577 -1775300 -1799124 -1807901 -1794735 
3527.965 -1756688 -1696161 -1619517 -1536157 -1455059 -1382700 -1323277 
3531.340 -1279373 -1252150 -1242800 -1251853 -1278647 -1319478 -1368497 
3534.715 -1416189 -1451955 -1467938 -1459881 -1429796 -1385177 -1335829 
3538.091 -1290209 -1254331 -1231237 -1221820 -1227371 -1249540 -1291200 
3541.466 -1354723 -1440793 -1546458 -1665036 -1786123 -1898368 -1990399 
3544.841 -2054018 -2083795 -2078519 -2039276 -1969949 -1877782 -1772561 
3548.216 -1667050 -1574587 -1505747 -1468202 -1462457 -1483624 -1519681 
3551.592 -1555802 -1577723 -1576370 -1550090 -1503601 -1444657 -1380520 
3554.967 -1316175 -1255058 -1199517 -1152528 -1118224 -1100477 -1101799 
3558.342 -1122917 -1161747 -1213659 -1274880 -1341973 -1414439 -1493959 
3561.717 -1583765 -1687217 -1807373 -1946497 -2105262 -2282460 -2471743 
3565.093 -2658770 -2818723 -2915924 -2916451 -2803481 -2591979 -2323197 
3568.468 -2048279 -1806383 -1615787 -1478736 -1385837 -1323244 -1277623 
3571.843 -1240653 -1209165 -1185506 -1174205 -1179889 -1204473 -1245642 
3575.218 -1299459 -1360669 -1425998 -1492341 -1557188 -1616348 -1662693 
3578.594 -1687811 -1683817 -1647311 -1581190 -1495445 -1405357 -1326646 
3581.969 -1274352 -1259089 -1286014 -1356276 -1468368 -1617998 -1797738 
3585.344 -1995973 -2192634 -2358163 -2460212 -2473687 -2395499 -2248114 
3588.719 -2069550 -1895828 -1750913 -1647839 -1589740 -1575247 -1600073 
3592.094 -1657841 -1738999 -1829909 -1914401 -1975359 -2000063 -1984066 
3595.470 -1933269 -1860923 -1783252 -1715535 -1667479 -1642822 -1639719 
3598.845 -1652196 -1671176 -1686359 -1688570 -1670614 -1629420 -1567456 
3602.220 -1492176 -1415727 -1351718 -1314820 -1315811 -1361693 -1451889 
3605.595 -1578813 -1725534 -1868313 -1981955 -2044883 -2048708 -2001646 
3608.971 -1926672 -1851190 -1797837 -1780216 -1801500 -1855875 -1931125 
3612.346 -2011639 -2080960 -2127255 -2148587 -2151786 -2149379 -2153434 
3615.721 -2173314 -2212315 -2269111 -2336380 -2402913 -2453161 -2471183 
3619.096 -2444727 -2369631 -2250652 -2100316 -1934952 -1771076 -1623445 
3622.472 -1505615 -1427121 -1393995 -1407569 -1464537 -1556891 -1675103 
3625.847 -1810706 -1955832 -2103316 -2242609 -2354143 -2411250 -2393028 
3629.222 -2303620 -2174930 -2044586 -1937327 -1859406 -1805262 -1763585 
3632.597 -1721772 -1669030 -1600469 -1519186 -1435179 -1361164 -1307718 
3635.973 -1280464 -1280100 -1303159 -1344616 -1399313 -1462952 -1531601 
3639.348 -1601625 -1667677 -1723059 -1761176 -1777411 -1772363 -1754015 
3642.723 -1736689 -1736623 -1769789 -1847693 -1976744 -2158083 -2387195 
3646.098 -2655312 -2944886 -3232689 -3489569 -3684865 -3789230 -3780295 
3649.474 -3647968 -3403740 -3082001 -2733420 -2404759 -2129134 -1922021 
3652.849 -1784638 -1712663 -1697184 -1726161 -1781437 -1840368 -1877122 
3656.224 -1871745 -1820275 -1734247 -1634570 -1539921 -1464240 -1414802 
3659.599 -1393269 -1396935 -1420119 -1454795 -1491615 -1523313 -1545170 
3662.975 -1556792 -1562669 -1571418 -1593504 -1638696 -1713587 -1820011 
3666.350 -1955106 -2110933 -2275967 -2436489 -2574588 -2671778 -2712939 
3669.725 -2694467 -2629493 -2546129 -2472764 -2428087 -2421761 -2456489 
3673.100 -2530976 -2637562 -2757653 -2855921 -2885117 -2818921 -2675598 
3676.476 -2507521 -2357801 -2245246 -2165765 -2104767 -2045180 -1974633 
3679.851 -1889791 -1797837 -1711607 -1645463 -1608920 -1603506 -1622587 
3683.226 -1654210 -1685566 -1707548 -1719297 -1728340 -1749989 -1802721 
3686.601 -1903415 -2060448 -2267001 -2493421 -2689396 -2804930 -2809111 
3689.977 -2704115 -2519413 -2298017 -2080696 -1896026 -1761077 -1678965 
3693.352 -1644538 -1646948 -1673354 -1709759 -1742860 -1762628 -1763354 
3696.727 -1745138 -1713719 -1678602 -1649721 -1634206 -1635758 -1651899 
3700.102 -1674641 -1690748 -1686755 -1653616 -1592678 -1515983 -1441586 
3703.478 -1387026 -1363708 -1376953 -1426493 -1508653 -1617866 -1749461 
3706.853 -1899555 -2064603 -2241225 -2422058 -2594647 -2741849 -2842425 
3710.228 -2877810 -2840977 -2741191 -2602750 -2453622 -2315518 -2197546 
3713.603 -2099096 -2016487 -1947849 -1895102 -1863167 -1856865 -1879431 
3716.979 -1928717 -1997886 -2074958 -2148093 -2209117 -2255629 -2290074 
3720.354 -2317496 -2342114 -2364293 -2382417 -2393061 -2395071 -2390128 
3723.729 -2381791 -2372136 -2359514 -2337764 -2298643 -2236577 -2153863 
3727.104 -2061668 -1977437 -1916908 -1891869 -1907704 -1964375 -2057711 
3730.479 -2180732 -2325142 -2481824 -2643226 -2805127 -2966047 -3123880 
3733.855 -3271068 -3389965 -3455253 -3441282 -3339760 -3168815 -2965455 
3737.230 -2767135 -2598830 -2473489 -2393885 -2358163 -2360371 -2392962 
3740.605 -2447659 -2515691 -2591617 -2670922 -2750443 -2824682 -2883768 
3743.980 -2914476 -2909704 -2876790 -2835216 -2805588 -2802889 -2833899 
3747.356 -2902825 -3009155 -3146644 -3298789 -3437567 -3529470 -3543931 
3750.731 -3468861 -3314540 -3109998 -2888935 -2678957 -2496814 -2347717 
3754.106 -2231533 -2146642 -2091775 -2068264 -2078156 -2121847 -2195568 
3757.481 -2289414 -2386536 -2464989 -2504721 -2492169 -2426440 -2319901 
3760.857 -2194348 -2071726 -1967113 -1887844 -1834232 -1801533 -1783450 
3764.232 -1774937 -1774673 -1785958 -1815622 -1870161 -1952105 -2058008 
3767.607 -2177139 -2292249 -2383142 -2428647 -2416193 -2348376 -2243697 
3770.982 -2126299 -2017015 -1927497 -1859702 -1810145 -1774013 -1747052 
3774.358 -1726788 -1712300 -1703257 -1698735 -1697448 -1697349 -1696986 
3777.733 -1696920 -1699362 -1708406 -1728175 -1760879 -1805723 -1859801 
3781.108 -1919019 -1980108 -2040101 -2094512 -2137872 -2163028 -2162039 
3784.483 -2130453 -2069352 -1986276 -1893188 -1802952 -1726458 -1669591 
3787.859 -1634041 -1617305 -1614103 -1617305 -1620540 -1619286 -1611363 
3791.234 -1597960 -1582576 -1571682 -1571583 -1589542 -1631170 -1699495 
3794.609 -1794438 -1909353 -2032351 -2146082 -2235654 -2294326 -2327020 
3797.984 -2346431 -2368709 -2407856 -2471677 -2559239 -2656103 -2735890 
3801.360 -2768057 -2738787 -2661503 -2567210 -2482846 -2424694 -2396982 
3804.735 -2394708 -2404561 -2406044 -2376947 -2300028 -2176480 -2025260 
3808.110 -1874912 -1747712 -1654738 -1597366 -1571120 -1569074 -1584128 
3811.485 -1611099 -1647410 -1692993 -1750616 -1822518 -1910409 -2012002 
3814.861 -2119078 -2219369 -2301016 -2361096 -2408317 -2458828 -2527682 
3818.236 -2624750 -2752780 -2905228 -3064827 -3197760 -3262747 -3234169 
3821.611 -3121479 -2963645 -2804008 -2670461 -2572381 -2508279 -2470458 
3824.986 -2447922 -2427890 -2397806 -2350353 -2285262 -2210205 -2137509 
3828.362 -2079805 -2045608 -2038089 -2055666 -2091314 -2135300 -2178260 
3831.737 -2215051 -2246927 -2281603 -2328338 -2394873 -2483735 -2591913 
3835.112 -2711162 -2831891 -2944063 -3040874 -3119176 -3177794 -3215619 
3838.487 -3229663 -3215948 -3172400 -3101444 -3009418 -2904569 -2794494 
3841.863 -2684127 -2574687 -2464528 -2351177 -2234500 -2118418 -2011705 
3845.238 -1924495 -1867687 -1849145 -1872008 -1935875 -2036440 -2166820 
3848.613 -2318979 -2486206 -2664368 -2852037 -3049725 -3254855 -3455976 
3851.988 -3625001 -3714794 -3677078 -3503834 -3246863 -2978157 -2744351 
3855.364 -2556011 -2403441 -2273198 -2156830 -2052567 -1964738 -1900941 
3858.739 -1867423 -1868049 -1902854 -1967937 -2056458 -2160951 -2273561 
3862.114 -2386833 -2493454 -2583679 -2644708 -2664336 -2636145 -2566716 
3865.489 -2475795 -2390853 -2336446 -2328932 -2375892 -2475202 -2612367 
3868.865 -2756435 -2867113 -2907960 -2870108 -2776782 -2664599 -2562599 
3872.240 -2484361 -2430822 -2394016 -2360997 -2319704 -2263408 -2194084 
3875.615 -2119440 -2049467 -1993796 -1960813 -1956722 -1985517 -2047455 
3878.990 -2136091 -2236511 -2329525 -2397905 -2436160 -2452272 -2463078 
3882.365 -2484394 -2524486 -2581571 -2642205 -2684390 -2679813 -2608810 
3885.741 -2473753 -2302598 -2133256 -1996699 -1909683 -1875671 -1891242 
3889.116 -1949268 -2040595 -2150203 -2258365 -2344355 -2390359 -2390260 
3892.491 -2350650 -2286778 -2215974 -2153335 -2110175 -2092402 -2102031 
3895.866 -2137938 -2196656 -2272110 -2356713 -2442618 -2520599 -2583580 
3899.242 -2628406 -2657650 -2678990 -2703950 -2742837 -2800519 -2873301 
3902.617 -2947651 -3002212 -3012347 -2960288 -2843314 -2674709 -2478332 
3905.992 -2278867 -2097018 -1944815 -1828095 -1747613 -1699825 -1678701 
3909.367 -1675896 -1682695 -1690055 -1691441 -1684180 -1670317 -1656487 
3912.743 -1651734 -1666093 -1705963 -1773452 -1864948 -1970873 -2077431 
3916.118 -2169259 -2234467 -2267595 -2270891 -2251146 -2217260 -2176513 
3919.493 -2134740 -2097183 -2069781 -2058602 -2068494 -2101932 -2155874 
3922.868 -2220391 -2280977 -2319045 -2320066 -2280351 -2209447 -2126233 
3926.244 -2053061 -2007846 -1998545 -2024798 -2077959 -2144994 -2211293 
3929.619 -2264661 -2297490 -2307147 -2294095 -2259848 -2205359 -2130981 
3932.994 -2038122 -1931719 -1819945 -1713620 -1623940 -1559664 -1525162 
3936.369 -1519780 -1537544 -1568744 -1603969 -1636484 -1664805 -1691606 
3939.745 -1723059 -1764014 -1816150 -1874549 -1929245 -1967640 -1978954 
3943.120 -1959856 -1916413 -1862342 -1813445 -1783252 -1780678 -1807274 
3946.495 -1857888 -1921130 -1982483 -2027008 -2042772 -2025755 -1978756 
3949.870 -1909815 -1829018 -1746524 -1668502 -1598092 -1536091 -1481774 
3953.246 -1434618 -1395481 -1365921 -1348480 -1344715 -1354723 -1376589 
3956.621 -1407107 -1442874 -1480883 -1519747 -1559169 -1599248 -1639422 
3959.996 -1677018 -1707548 -1725501 -1726161 -1707020 -1669492 -1618593 
3963.371 -1561414 -1505615 -1456645 -1418237 -1391452 -1375896 -1370677 
3966.747 -1374707 -1387390 -1407735 -1433792 -1461994 -1488412 -1508125 
3970.122 -1517634 -1515983 -1505450 -1490426 -1477118 -1470943 -1474807 
3973.497 -1488280 -1507365 -1526285 -1538369 -1539359 -1527936 -1507398 
3976.872 -1482897 -1462060 -1451625 -1456281 -1477118 -1511856 -1555042 
3980.248 -1599479 -1637606 -1663287 -1672826 -1665465 -1642921 -1609184 
3983.623 -1568611 -1525624 -1483458 -1444888 -1411698 -1385573 -1368332 
3986.998 -1361164 -1365161 -1380487 -1405621 -1437953 -1473816 -1508752 
3990.373 -1539029 -1561480 -1573564 -1573299 -1558707 -1528563 -1482237 
3993.749 -1420879 -1348480 -1271676 -1199616 -1141721 -1105467 -1095189 
3997.124 -1110127 -1145191 -1192214 -1242767 -1288954 -1325556 -1350694 
4000.499 -1365194 
##END=
