##TITLE=bd_2a Sep 15 14:16:46 2026 (GMT+02:00)
##JCAMP-DX=5.01  $$ Nicolet v. 970
##DATATYPE=INFRARED SPECTRUM
##ORIGIN=Vojna akademija
##OWNER=Nicolet
##LONGDATE=2026/09/15
##TIME=14:17:13
##SPECTROMETER/DATA SYSTEM=Nicolet iS20
##DATA PROCESSING=
Ratio against background
%Transmittance->Absorbance
Truncated
ElementMultiply or ElementDivide
##COMMENTS=
Number of sample scans: 8
Collection length: 11,90 sec
Sample gain: 8,0
Background collected on: Tue Sep 15 13:25:44 2026 (GMT+02:00);
Number of background scans: 8
Background gain: 8,0
Sample spacing:  1,000
Number of scan points: 12415
Resolution points: 8286
Number of FFT points: 65536
Apodization: N-B strong;
Phase correction: Mertz;
Laser frequency: 15798,00 cm-1
Number of rejected sample scans: 0
Number of rejected background scans: 0
Bench serial number: BER2010005;
##RESOLUTION= 4,000
##XUNITS=1/CM
##YUNITS=ABSORBANCE
##FIRSTX=400.156891
##LASTX=4000.123047
##FIRSTY=0.010441
##MAXX=4000.123047
##MINX=400.156891
##MAXY=0.271779
##MINY=-0.009739
##XFACTOR=1.000000
##YFACTOR=1.000000E-009
##NPOINTS=7468
##DELTAX=0.482117
##ZPD=6100
##XYDATA=(X++(Y..Y))
400.157 10440888 11318212 13086564 15437734 18012984 20453076 22482608 
403.532 23906366 24648106 24740872 24307264 23535322 22627862 21758278 
406.907 21012794 20385668 19803454 19180252 18455976 17634380 16781304 
410.281 15999064 15372266 14937721 14677546 14535164 14451916 14393516 
413.656 14366630 14414785 14587726 14912139 15378651 15932549 16488358 
417.031 16927388 17138038 17073554 16839718 16692666 16915466 17651356 
420.406 18833396 20278238 21762250 23071186 23974814 24266758 23826062 
423.781 22675652 21047780 19330988 17967916 17261758 17307272 17976548 
427.155 19001874 20047182 20825456 21189252 21141694 20818436 20402094 
430.530 20052630 19834458 19712324 19587070 19371798 19041372 18654366 
433.905 18324276 18181558 18319506 18761810 19454610 20292054 21166916 
437.280 22000910 22763704 23458202 24092268 24663502 25157254 25550806 
440.655 25829150 25990126 26046026 26013238 25912462 25756646 25553792 
444.030 25305972 25005640 24629238 24138152 23491672 22668320 21697842 
447.404 20671872 19737810 19046704 18693520 18687606 18943272 19309684 
450.779 19601664 19674254 19463828 19018696 18471708 17987428 17689802 
454.154 17623510 17773536 18104862 18607432 19312872 20280146 21537054 
457.529 23000192 24454710 25602678 26177064 26053098 25235346 23826832 
460.904 21976758 19873928 17727972 15753679 14168993 13136662 12741537 
464.278 12977339 13746935 14871608 16103378 17188362 17895918 18099890 
467.653 17814406 17187018 16431576 15745364 15269775 15053306 15068639 
471.028 15246850 15516948 15822675 16127655 16396821 16573306 16577987 
474.403 16335165 15795803 14973457 13954508 12904493 12025800 11513025 
477.778 11491659 11963058 12802992 13794784 14709798 15339175 15560492 
481.152 15360801 14840510 14180700 13585816 13234278 13213885 13507843 
484.527 14001490 14539721 14970198 15204333 15237927 15131866 14969958 
487.902 14816476 14692009 14566412 14379268 14065827 13591150 12964845 
491.277 12237391 11477063 10753930 10117455 9588771 9173204 8873777 8700765 
495.134 8674804 8811354 9103158 9506025 9944489 10327169 10578673 10670215 
498.991 10623525 10507517 10409155 10416927 10584139 10909108 11329198 
502.366 11742272 12039085 12134819 11994905 11631105 11090447 10433828 
505.740 9726862 9024937 8363831 7765049 7237468 6788702 6435760 6208287 
509.597 6145573 6283986 6637478 7181005 7839772 8505385 9048178 9355037 
513.454 9360048 9047569 8457948 7675973 6829293 6056795 5499101 5269503 
517.311 5420016 5932562 6714093 7622691 8489775 9171478 9587619 9732556 
521.168 9672482 9513070 9369190 9319389 9393770 9566788 9776032 9942320 
525.025 10003651 9938387 9768983 9547041 9323756 9130633 8967193 8812504 
528.882 8642084 8444501 8228637 8021960 7856472 7759888 7745418 7812142 
532.739 7953010 8162693 8441021 8785725 9184507 9605404 9992599 10283467 
536.596 10418420 10361271 10112301 9708362 9212902 8694647 8217122 7818416 
540.453 7512034 7295420 7160221 7105958 7143885 7294645 7584352 8031680 
544.310 8638231 9380057 10202794 11027806 11754733 12288550 12559234 
547.685 12535361 12234426 11719704 11093404 10466276 9944931 9601846 9458547 
551.542 9491327 9646530 9866252 10102805 10332258 10548729 10751518 10931942 
555.398 11065430 11113290 11042148 10837627 10521775 10150795 9806803 
558.773 9569633 9489296 9575697 9796907 10094394 10402198 10674493 10891407 
562.630 11059108 11196138 11320390 11436104 11534870 11601123 11624673 
566.005 11610209 11580297 11568046 11609359 11732741 11950116 12257022 
569.380 12634445 13055183 13487916 13901100 14268074 14567303 14789016 
572.755 14937825 15035640 15114644 15212362 15361659 15579587 15865838 
576.130 16204553 16573031 16949366 17317926 17668268 17986358 18252046 
579.504 18437378 18514096 18468700 18312698 18085864 17842162 17636762 
582.879 17506654 17460636 17481300 17534286 17585176 17608570 17599736 
586.254 17571616 17548706 17555814 17610432 17717342 17867952 18039510 
589.629 18200630 18319368 18366928 18329944 18216110 18057022 17897196 
593.004 17780542 17733634 17754274 17813680 17865466 17865364 17781680 
596.378 17605118 17344098 17015074 16628593 16185740 15684143 15132484 
599.753 14563912 14041357 13637749 13416282 13401554 13566946 13837505 
603.128 14115456 14315123 14385603 14332280 14208499 14095295 14062131 
606.503 14145920 14336800 14588342 14831425 15001066 15057182 14986215 
609.878 14801701 14533246 14221783 13910166 13640690 13453909 13379650 
613.253 13433301 13608210 13877563 14193024 14494498 14726216 14840201 
616.627 14807528 14620348 14288208 13835761 13301953 12741162 12214353 
620.002 11787619 11517006 11431001 11522961 11744281 12020758 12263055 
623.377 12401726 12406022 12292981 12117613 11953078 11864875 11883400 
626.752 11998584 12165656 12328908 12439026 12473671 12441994 12379328 
630.127 12330340 12331464 12398624 12521447 12667194 12792925 12863296 
633.501 12858449 12783848 12666239 12547537 12471966 12472545 12567011 
636.876 12754810 13019981 13334957 13669001 13988315 14260028 14458014 
640.251 14563363 14572511 14499363 14377726 14253521 14172245 14169403 
643.626 14255473 14414169 14605784 14784387 14911625 14971262 14973148 
647.001 14948661 14936212 14964643 15046034 15171666 15319542 15463965 
650.375 15586628 15679333 15742306 15778864 15790718 15779104 15747460 
653.750 15707333 15682185 15702007 15799617 15996452 16295809 16676897 
657.125 17102226 17525420 17901686 18202532 18416256 18550370 18625864 
660.500 18672524 18720884 18795404 18913612 19083056 19302132 19563326 
663.875 19858772 20185342 20548738 20965640 21460252 22054802 22754624 
667.250 23510280 24197844 24660380 24819100 24737716 24555674 24394806 
670.624 24316480 24342062 24471184 24694470 25002658 25389148 25850916 
673.999 26384046 26979528 27619468 28273720 28908204 29492124 30008264 
677.374 30459014 30863200 31248464 31637310 32043562 32468326 32906696 
680.749 33351772 33800884 34255092 34716372 35183392 35650372 36108136 
684.124 36550344 36976188 37392844 37812108 38247872 38710556 39206624 
687.498 39738404 40306104 40906288 41530640 42163952 42782256 43354240 
690.873 43850912 44251292 44549888 44757920 44898952 45000008 45082596 
694.248 45163400 45252712 45361828 45505228 45697264 45948348 46258360 
697.623 46613484 46989540 47358864 47701168 48008700 48286560 48547372 
700.998 48804596 49067572 49341472 49632860 49951908 50313300 50730968 
704.373 51208792 51736820 52291724 52847864 53387560 53912956 54445224 
707.747 55015824 55647436 56341412 57072704 57802460 58493108 59130676 
711.122 59733628 60351352 61045956 61868116 62848888 63991956 65284500 
714.497 66709152 68255152 69918080 71690528 73552776 75463008 77359080 
717.872 79177736 80861872 82376128 83705720 84842336 85769024 86453200 
721.247 86851320 86930120 86683160 86138272 85344104 84354464 83205688 
724.621 81908824 80459192 78853488 77106544 75258896 73365872 71482832 
727.996 69653656 67902840 66244692 64692288 63260392 61962040 60793272 
731.371 59723628 58689080 57609768 56416492 55074836 53605228 52076508 
734.746 50586280 49216544 48013544 46972264 46047808 45174720 44295688 
738.121 43381884 42432476 41466656 40508508 39574972 38671760 37796452 
741.496 36944328 36114548 35308084 34525976 33766216 33024092 32294474 
744.870 31577158 30878356 30206814 29568836 28962994 28378866 27802870 
748.245 27225872 26650170 26091274 25571576 25107964 24705026 24350684 
751.620 24023242 23701646 23378296 23063920 22783362 22561964 22413102 
754.995 22331226 22294532 22274232 22249574 22217558 22192626 22197124 
758.370 22246470 22338796 22451936 22549748 22592992 22556382 22430478 
761.744 22222930 21948806 21624666 21263466 20875518 20474334 20078828 
765.119 19710972 19392588 19134368 18932890 18769040 18616560 18448682 
768.494 18247900 18009668 17740054 17449324 17146274 16836240 16521949 
771.869 16207682 15902439 15619566 15373982 15177740 15034406 14939710 
775.244 14881964 14847299 14823059 14800671 14775166 14743800 14703251 
778.619 14649511 14577309 14481617 14358684 14206137 14023664 13813630 
781.993 13583184 13344523 13114805 12912616 12749555 12626532 12530416 
785.368 12438788 12327511 12184637 12017795 11855818 11736690 11695910 
788.743 11747856 11879995 12051792 12210605 12310876 12324817 12252148 
792.118 12112741 11934483 11737235 11529732 11310697 11079672 10846731 
795.493 10637752 10485352 10420253 10453921 10573105 10739495 10904148 
798.867 11023422 11070902 11045275 10965276 10859369 10753692 10670248 
802.242 10623797 10625427 10686379 10814968 11012411 11265638 11546404 
805.617 11814142 12026140 12154582 12193804 12164907 12105586 12060854 
808.992 12065181 12132571 12255046 12407420 12558825 12680909 12759587 
812.367 12795417 12803606 12807906 12836163 12913026 13052383 13253988 
815.742 13501349 13764890 14005220 14185699 14280914 14283208 14205452 
819.116 14076300 13931961 13804052 13716225 13679464 13694066 13754117 
822.491 13852146 13982053 14137602 14311561 14492511 14663597 14807083 
825.866 14906275 14950616 14940019 14885461 14807631 14731495 14683303 
829.241 14682104 14735025 14835230 14963374 15092069 15193557 15249733 
832.616 15257008 15229211 15192219 15178975 15218196 15326303 15505513 
835.990 15744265 16022991 16318617 16612412 16891352 17147998 17379550 
839.365 17585210 17765008 17919848 18050528 18157824 18241474 18300084 
842.740 18332538 18339726 18327388 18307342 18296282 18312180 18368482 
846.115 18471846 18620920 18809660 19031264 19279964 19552858 19844100 
849.490 20141610 20424320 20663360 20832306 20916368 20921724 20875794 
852.865 20821634 20801960 20840858 20936328 21057902 21158916 21189320 
856.239 21118146 20941438 20684974 20393168 20119120 19909586 19792218 
859.614 19774496 19842644 19970330 20122834 20269176 20387266 20465304 
862.989 20503962 20510978 20496738 20467596 20425014 20366776 20292646 
866.364 20210544 20140568 20109610 20146052 20265044 20459990 20699848 
869.739 20938552 21126806 21226548 21225608 21135712 20986852 20810824 
873.113 20634102 20469646 20319934 20183990 20062936 19961588 19884404 
876.488 19829116 19783756 19727926 19642742 19519552 19367780 19212736 
879.863 19088666 19023128 19026140 19087556 19181532 19278544 19355688 
883.238 19404748 19428968 19435760 19427166 19395186 19324822 19202658 
886.613 19027248 18813258 18589622 18393164 18254708 18191234 18203292 
889.987 18276410 18387564 18511088 18626176 18715556 18768626 18780804 
893.362 18754128 18698882 18631192 18569770 18528344 18511192 18510502 
896.737 18511436 18498090 18463168 18412176 18362918 18336824 18349472 
900.112 18403222 18486402 18578484 18658584 18715486 18750358 18774368 
903.487 18799590 18833776 18876168 18919530 18956254 18984324 19008140 
906.862 19036976 19076858 19124846 19168546 19190190 19175334 19122528 
910.236 19046046 18974424 18940954 18969510 19068204 19223092 19403362 
913.611 19566758 19674636 19699426 19629986 19472004 19246470 18983424 
916.986 18712684 18460334 18241232 18057366 17900960 17759796 17625098 
920.361 17497338 17387448 17313720 17293342 17333134 17423694 17539288 
923.736 17648078 17720138 17739950 17712580 17660468 17613158 17595286 
927.110 17618714 17678516 17757934 17836948 17902618 17953342 17998132 
930.485 18050114 18120512 18212240 18319886 18432192 18539408 18637554 
933.860 18731364 18832288 18954348 19109266 19301196 19525408 19768706 
937.235 20013386 20240778 20437274 20597724 20728066 20843360 20964562 
940.610 21113102 21302440 21536288 21806076 22096044 22386414 22659698 
943.985 22903884 23110500 23273512 23386548 23443512 23443302 23394834 
947.359 23322318 23260438 23249916 23325078 23501080 23769956 24101550 
950.734 24455936 24791914 25082758 25320512 25513874 25679936 25836252 
954.109 25994208 26156618 26321412 26485144 26645096 26800772 26951252 
957.484 27094060 27224850 27339764 27437450 27521424 27597824 27672966 
960.859 27749922 27826750 27898858 27962638 28019180 28075768 28141800 
964.233 28224250 28320790 28419544 28501906 28549496 28553248 28516694 
967.608 28454922 28385304 28321038 28263890 28204944 28129886 28028722 
970.983 27903274 27768464 27646834 27560082 27520224 27524212 27555562 
974.358 27590232 27607992 27596694 27556446 27495938 27427814 27362772 
977.733 27306490 27260200 27223756 27199132 27192290 27212080 27268068 
981.108 27365488 27501762 27665196 27835900 27991544 28110976 28181254 
984.482 28200488 28178816 28134060 28087114 28054702 28043638 28050496 
987.857 28065022 28076970 28082802 28089766 28113802 28174362 28284222 
991.232 28442822 28633934 28830936 29004436 29132544 29209438 29245022 
994.607 29260582 29278552 29316160 29379936 29465386 29561032 29655068 
997.982 29738834 29809804 29870634 29927854 29989448 30062234 30150768 
1001.356 30254948 30370418 30486666 30591744 30675442 30734512 30775802 
1004.731 30816280 30877928 30977978 31122046 31298920 31485238 31651638 
1008.106 31775254 31849090 31883464 31900934 31926076 31977076 32058936 
1011.481 32166396 32290224 32425340 32574744 32748782 32957454 33204138 
1014.856 33479952 33767328 34042960 34289976 34501328 34681056 34839604 
1018.231 34987224 35128748 35263344 35386084 35493292 35584520 35662532 
1021.605 35730988 35791324 35844468 35892296 35941708 36006644 36104428 
1024.980 36249484 36445180 36680116 36928100 37156328 37338892 37462296 
1028.356 37529592 37554840 37553252 37531432 37485084 37402884 37276396 
1031.731 37109120 36921208 36742064 36604304 36528432 36516392 36550740 
1035.106 36601600 36638048 36634912 36579576 36469720 36309572 36106012 
1038.481 35867212 35605200 35335580 35080896 34865600 34709876 34624932 
1041.857 34607816 34641112 34696164 34743080 34757004 34724736 34647572 
1045.232 34540432 34428580 34340540 34305252 34344948 34471160 34683748 
1048.607 34973180 35323148 35715880 36138380 36584732 37055496 37554556 
1051.982 38084496 38642424 39219208 39801264 40375040 40931628 41466436 
1055.358 41977564 42461668 42909992 43310232 43650684 43926612 44144508 
1058.733 44323536 44489352 44664448 44864048 45091712 45341124 45602120 
1062.108 45864856 46120936 46362384 46578924 46756192 46880676 46946900 
1065.483 46965396 46964988 46986808 47076160 47265752 47566248 47965180 
1068.859 48433116 48935824 49445500 49951124 50456860 50977492 51528220 
1072.234 52121224 52760608 53444400 54166284 54917640 55688752 56468224 
1075.609 57248108 58027848 58820708 59653148 60562752 61583800 62731996 
1078.984 63995136 65331408 66683576 67993584 69227224 70383792 71492400 
1082.359 72592560 73717464 74876936 76057232 77230144 78370992 79470192 
1085.735 80536088 81584656 82626344 83658120 84664488 85628560 86545920 
1089.110 87432480 88320168 89243152 90217496 91233104 92252696 93227584 
1092.485 94110120 94870152 95495880 95986432 96342880 96563488 96648624 
1095.860 96607976 96468232 96269336 96047896 95823456 95586008 95300696 
1099.236 94921392 94417048 93787368 93066496 92306296 91557320 90850680 
1102.611 90190208 89563072 88954128 88362232 87802088 87296872 86864304 
1105.986 86508072 86218272 85984800 85812384 85729016 85784808 86035296 
1109.361 86514456 87222536 88119656 89142696 90222672 91311112 92389824 
1112.737 93463576 94542256 95623216 96679952 97670688 98550008 99286832 
1116.112 99872592 100315384 100626272 100806352 100842928 100716304 
1119.005 100413576 99938144 99310984 98559992 97707624 96759528 95706808 
1122.380 94537192 93251352 91873136 90450760 89042264 87707480 86492464 
1125.755 85426064 84529744 83824024 83337216 83108736 83178240 83579144 
1129.131 84327592 85418480 86828936 88527592 90485608 92678352 95087824 
1132.506 97697120 100483224 103419480 106477840 109635328 112879064 
1135.399 116200504 119584160 122999128 126388712 129680696 132807496 
1138.292 135719456 138402320 140871856 143158080 145283008 147249264 
1141.185 149040656 150636944 152030224 153236064 154287472 155223584 
1144.078 156071280 156837888 157518368 158109024 158621904 159091152 
1146.971 159560992 160073616 160652784 161299360 161997856 162731536 
1149.864 163493344 164288624 165124960 165999312 166888368 167754720 
1152.757 168561072 169289984 169956128 170602032 171278512 172016272 
1155.651 172811536 173622944 174391936 175061152 175599328 176003360 
1158.544 176287040 176461456 176523088 176453200 176234144 175865344 
1161.437 175373136 174800672 174191040 173562256 172897584 172151616 
1164.330 171275008 170239312 169051296 167747904 166379408 164985696 
1167.223 163580224 162154192 160689200 159176096 157621808 156046400 
1170.116 154466992 152885936 151286560 149641824 147931520 146157168 
1173.009 144344752 142534384 140757392 139023536 137315696 135602944 
1175.902 133858160 132078288 130286392 128523800 126826704 125209856 
1178.795 123659744 122144160 120628256 119094688 117551320 116026048 
1181.688 114549728 113139496 111791128 110483256 109190520 107896648 
1184.581 106602848 105325776 104088280 102905648 101781384 100706568 
1187.474 99667760 98653088 97656832 96677472 95711888 94751160 93782184 
1190.849 92791784 91775920 90743024 89713408 88707600 87739472 86807656 
1194.225 85896568 84985168 84057536 83112920 82167056 81244824 80370280 
1197.600 79557648 78805696 78101120 77425128 76763008 76107176 75458992 
1200.975 74824968 74214112 73635288 73096944 72607712 72175248 71803256 
1204.350 71487672 71215608 70966112 70716008 70449264 70161992 69865072 
1207.726 69578776 69325512 69120296 68965112 68850176 68758752 68674368 
1211.101 68584800 68484936 68374424 68255184 68129856 68003424 67885216 
1214.476 67788224 67728192 67716648 67755296 67833000 67929648 68022960 
1217.851 68099232 68160008 68223544 68317456 68466312 68683568 68965272 
1221.227 69293568 69642872 69990440 70322312 70632376 70921280 71190384 
1224.602 71441112 71675960 71903224 72138944 72403912 72719304 73097224 
1227.977 73534368 74012344 74503048 74977648 75412912 75798072 76129440 
1231.352 76407368 76630720 76797008 76905768 76964192 76990064 77007704 
1234.728 77038728 77094040 77166544 77232960 77261296 77225312 77112440 
1238.103 76927128 76686064 76410328 76115144 75805808 75479064 75128016 
1241.478 74746408 74330288 73876272 73379688 72832920 72228384 71562680 
1244.853 70840528 70075200 69283960 68482448 67678896 66874808 66068664 
1248.229 65263048 64469224 63705972 62994464 62349792 61773680 61255288 
1251.604 60776196 60321696 59886684 59480720 59120460 58822604 58592448 
1254.979 58419948 58279988 58144012 57986004 57791220 57557296 57289128 
1258.354 56992904 56671584 56326100 55958648 55577916 55199620 54841804 
1261.730 54518284 54232916 53979132 53743988 53514480 53285620 53058676 
1265.105 52839484 52630200 52425320 52211904 51975772 51707260 51408888 
1268.480 51094840 50786272 50501224 50249428 50029120 49831708 49646788 
1271.855 49472044 49313412 49184296 49096916 49056184 49055592 49079256 
1275.231 49106640 49118436 49103004 49055444 48976468 48867996 48731008 
1278.606 48565304 48370408 48148236 47901908 47634276 47344120 47026164 
1281.981 46670112 46265512 45806788 45295664 44742564 44162736 43573640 
1285.356 42991088 42427324 41893156 41397836 40949796 40555544 40217732 
1288.732 39934660 39701408 39511716 39362484 39253444 39186028 39159300 
1292.107 39165792 39190232 39210684 39206768 39166080 39089540 38991088 
1295.482 38893452 38818660 38778588 38771996 38785036 38798844 38795472 
1298.857 38764676 38704944 38620840 38518544 38402588 38276100 38141428 
1302.233 38002940 37867232 37739888 37623488 37514312 37403208 37278740 
1305.608 37133772 36969944 36798392 36636316 36500284 36399924 36334316 
1308.983 36291992 36256904 36215236 36158512 36085128 35998476 35902876 
1312.358 35801936 35697100 35590384 35485704 35390148 35312040 35257160 
1315.734 35226616 35215264 35213428 35209120 35193308 35161296 35113764 
1319.109 35054060 34985464 34908864 34822408 34722580 34605300 34466460 
1322.484 34301740 34106216 33874640 33603588 33294354 32954380 32598708 
1325.859 32245472 31912986 31615536 31359140 31143368 30962036 30808312 
1329.234 30676972 30565972 30476642 30410788 30369246 30350768 30351338 
1332.610 30366830 30393020 30426318 30463812 30503016 30541228 30577418 
1335.985 30613790 30657734 30722418 30826454 30990006 31229842 31553890 
1339.360 31956996 32419946 32913920 33411026 33886460 34323540 34712280 
1342.735 35046880 35326776 35557476 35752108 35928288 36104464 36294152 
1346.111 36499960 36714008 36920884 37105696 37259100 37380996 37478332 
1349.486 37559972 37631368 37691276 37734576 37757488 37762980 37763020 
1352.861 37774260 37813444 37889108 37997548 38123672 38246932 38349780 
1356.236 38421956 38462028 38472492 38454716 38405268 38316192 38178584 
1359.612 37988184 37750476 37483532 37214336 36979216 36813792 36744516 
1362.987 36780072 36910276 37110892 37352180 37608348 37858196 38085256 
1366.362 38280260 38439912 38569348 38680312 38787176 38898232 39010696 
1369.737 39109300 39174752 39192116 39161804 39104188 39063260 39103140 
1373.113 39291020 39679660 40279456 41046152 41889176 42704380 43404148 
1376.488 43918548 44200372 44215744 43944868 43392684 42594064 41611476 
1379.863 40513056 39360740 38194144 37030924 35877900 34740600 33627072 
1383.238 32546782 31502906 30488514 29488826 28488214 27482558 26489018 
1386.614 25545640 24699240 23981012 23391758 22902032 22472558 22071186 
1389.989 21678616 21287894 20898254 20508686 20115822 19718842 19326762 
1393.364 18964178 18674704 18504450 18478726 18581424 18761464 18958226 
1396.739 19127548 19259424 19375436 19518998 19730250 20026710 20388620 
1400.115 20769424 21114562 21383288 21555508 21623588 21589180 21457362 
1403.490 21239526 20954372 20633406 20317330 20043330 19836158 19700570 
1406.865 19625512 19593620 19592130 19621422 19698212 19851522 20115026 
1410.240 20514974 21058910 21731838 22500020 23323960 24163618 24984722 
1413.616 25761006 26465950 27074946 27566048 27921330 28132150 28199960 
1416.991 28138052 27967196 27719264 27434096 27150668 26896398 26677368 
1420.366 26482502 26291632 26087542 25859392 25608548 25350368 25118144 
1423.741 24957874 24907940 24983600 25168490 25427756 25725848 26044162 
1427.117 26387004 26779098 27256354 27850420 28574126 29410640 30318294 
1430.492 31245402 32150588 33008788 33811344 34559160 35254360 35898052 
1433.867 36493220 37048096 37584540 38142012 38774460 39520172 40373184 
1437.242 41274624 42146100 42931428 43612544 44200260 44718584 45193324 
1440.618 45645068 46084500 46511432 46917772 47292280 47628324 47926328 
1443.993 48194288 48444824 48692420 48952700 49243452 49588100 50013916 
1447.368 50545780 51198688 51968080 52836716 53787864 54817408 55938108 
1450.743 57170432 58528900 60003612 61553060 63115640 64616808 65998844 
1454.119 67228448 68289456 69178608 69896944 70460016 70904392 71314496 
1457.494 71785824 72354872 72997760 73654912 74272216 74811464 75255744 
1460.869 75602744 75856816 76027432 76123440 76153176 76124384 76043768 
1464.244 75908592 75691960 75323400 74696032 73697080 72224120 70226488 
1467.620 67709600 64734788 61385640 57750420 53885268 49768796 45334572 
1470.995 40510292 35323288 30031662 25125656 21106666 18186740 16231002 
1474.370 14921363 13947015 13120987 12364532 11675010 11072840 10564380 
1477.745 10127800 9725270 9320337 8894779 8451900 8014500 7610754 7262265 
1481.603 6972839 6728764 6505780 6281935 6042986 5780897 5489471 5160785 
1485.460 4786414 4361358 3890077 3393525 2905513 2471429 2138758 1945908 
1489.318 1912094 2026560 2250719 2526882 2800019 3030417 3190470 3264276 
1493.175 3242944 3122451 2907214 2614375 2279697 1951300 1685581 1523155 
1497.032 1473715 1515475 1614138 1740901 1875587 2006021 2120245 2204060 
1500.890 2245024 2234300 2169360 2051660 1882375 1656876 1357600 952122 
1504.747 392119 -372862 -1343526 -2387920 -3195392 -3458014 -3162762 
1508.122 -2559930 -1902393 -1313796 -828289 -433839 -107142 168121 397127 
1511.980 573000 680841 706395 638332 472350 210253 -134271 -528629 -919985 
1516.319 -1235961 -1418931 -1458230 -1400502 -1321427 -1294867 -1378406 
1519.695 -1599809 -1945738 -2340203 -2657321 -2771547 -2652282 -2374542 
1523.070 -2055699 -1781800 -1589575 -1478406 -1420846 -1375929 -1301606 
1526.445 -1172289 -985612 -759959 -522937 -302044 -120524 4439 56497 22266 
1530.785 -107042 -330949 -632598 -967429 -1255256 -1408131 -1376919 -1195320 
1534.642 -952188 -739352 -612547 -592430 -685995 -897534 -1237646 -1718571 
1538.500 -2344256 -3072526 -3774284 -4253854 -4359755 -4104800 -3631441 
1541.875 -3105030 -2628669 -2233544 -1902129 -1590566 -1258296 -889995 
1545.250 -508773 -162790 97458 243039 265816 179524 12823 -189551 -376537 
1549.590 -507118 -564766 -566421 -548320 -548221 -589385 -681297 -820749 
1553.447 -997844 -1197997 -1409617 -1629057 -1863365 -2129992 -2453622 
1556.822 -2861879 -3371619 -3944138 -4399019 -4428636 -3877249 -2982040 
1560.198 -2087456 -1364071 -833713 -466409 -232141 -104061 -57583 -66461 
1564.055 -102239 -138676 -160571 -170043 -184484 -227836 -318963 -465912 
1567.912 -657477 -860797 -1017281 -1067326 -983695 -793199 -557023 -336577 
1571.770 -174813 -91175 -94421 -185974 -363560 -615790 -915356 -1211841 
1575.627 -1425833 -1482336 -1356441 -1092115 -766674 -448105 -175210 38105 
1579.485 188938 280802 320889 320822 295987 262467 234652 219734 217811 
1583.824 222717 226032 220662 203656 177435 147769 121055 101534 91194 90266 
1588.646 98154 115586 143162 180949 225535 269927 303879 317341 305238 
1592.986 270093 223115 181281 162354 178231 230574 310179 400476 483429 
1597.325 543572 573663 572303 543672 494575 433609 369303 309084 258522 
1601.665 220728 195766 181579 174750 171734 169911 167756 164541 159337 
1606.005 150852 137594 119729 100474 87350 90465 119398 179159 267109 372122 
1610.826 476264 560625 608369 608833 558468 456727 304774 103489 -141359 
1615.166 -412852 -672299 -857490 -907652 -798822 -562979 -264262 31511 
1619.023 277884 450657 536705 532790 442266 279675 72834 -132714 -281448 
1623.363 -332935 -280720 -153416 6659 159868 282360 367180 421968 465948 
1627.703 521776 608502 729494 872898 1015784 1135097 1211544 1232478 1191277 
1632.042 1083707 904971 647291 304044 -122777 -603746 -1056253 -1354360 
1635.900 -1389702 -1153255 -737599 -262706 188043 579370 902813 1163800 
1639.757 1372324 1536190 1661765 1753077 1812497 1840181 1832994 1783152 
1643.614 1677332 1498817 1233807 883755 491622 158906 25845 200109 663352 
1647.954 1283885 1905538 2428844 2808223 3032987 3105898 3026013 2785980 
1651.811 2378934 1853059 1375283 1194832 1414905 1888266 2418981 2899309 
1655.669 3297595 3607065 3827195 3961125 4012422 3990151 3906425 3775486 
1659.526 3607867 3410623 3190637 2959821 2742730 2578709 2507519 2549145 
1663.384 2684849 2864420 3026380 3122417 3126489 3028949 2832902 2549012 
1667.241 2198365 1809969 1428468 1113238 922835 893284 1016083 1243376 
1671.099 1506663 1745724 1922178 2015907 2027658 1976329 1902576 1860878 
1674.956 1906469 2062780 2303313 2567810 2797685 2960421 3043998 3052573 
1678.813 2998621 2898541 2768473 2618742 2450136 2252351 2009050 1709232 
1682.671 1364912 1046240 895973 1056703 1532865 2165430 2781611 3292320 
1686.528 3686723 3985502 4219843 4422676 4626141 4856270 5124707 5425820 
1690.386 5737684 6032234 6283213 6475914 6607771 6684549 6716650 6715506 
1694.243 6693398 6663149 6641145 6642154 6671695 6721294 6775980 6827240 
1698.100 6881804 6970112 7152339 7508191 8076269 8790492 9499049 10079642 
1701.958 10489798 10747544 10893343 10973431 11038953 11143612 11337564 
1705.333 11642405 12036871 12463236 12861214 13192947 13452200 13655803 
1708.708 13829672 13997143 14170601 14350430 14528484 14694819 14843562 
1712.084 14977229 15104969 15238991 15388469 15556062 15738390 15934439 
1715.459 16159637 16463339 16930488 17670130 18749528 20128456 21660852 
1718.834 23174626 24561248 25797186 26918430 27984476 29061400 30213884 
1722.209 31503194 32980796 34680016 36611156 38757976 41085116 43546756 
1725.585 46102996 48730452 51436488 54272632 57333136 60738776 64596696 
1728.960 68946944 73716320 78729784 83762896 88681344 93542104 98677168 
1732.335 104695976 112447656 122691352 135369232 149122816 161937664 
1735.228 172584656 181130624 188325024 194951344 201599616 208644320 
1738.121 216271840 224460032 232990240 241450288 249353680 256291088 
1741.014 261990928 266328576 269306688 271047968 271779008 271762496 
1743.907 271205888 270148192 268449856 265861568 262169152 257292000 
1746.800 251346528 244579984 237293744 229674928 221718768 213247328 
1749.693 204079504 194215664 183928352 173721040 164109520 155408496 
1752.587 147646528 140637280 134097008 127738864 121325672 114684752 
1755.480 107727912 100506320 93220800 86181744 79694768 73930120 68890168 
1758.855 64445400 60406412 56572724 52778644 48938644 45082888 41363868 
1762.230 37987424 35110244 32767038 30876898 29292446 27864764 26472324 
1765.605 25042110 23552778 22033468 20546968 19159682 17915600 16814644 
1768.981 15822778 14892764 13993961 13123718 12309717 11596222 11020363 
1772.356 10583867 10253001 9977918 9728150 9498947 9297657 9127724 8979404 
1776.213 8829613 8651751 8427069 8152970 7842876 7521305 7214559 6941695 
1780.071 6711401 6520680 6360640 6220690 6093487 5972401 5849805 5716701 
1783.928 5566487 5401396 5234892 5089908 4987033 4931331 4907605 4882239 
1787.786 4815729 4670717 4427262 4086735 3675729 3237904 2830734 2512851 
1791.643 2323333 2266840 2311108 2408719 2516417 2610308 2682449 2731660 
1795.500 2758903 2764271 2746932 2705454 2637010 2537047 2400623 2225707 
1799.358 2019536 1802516 1611245 1486083 1457158 1532599 1693830 1903175 
1803.215 2114685 2290555 2404988 2448570 2425112 2347285 2229937 2087150 
1807.073 1932761 1779293 1638583 1521559 1434153 1376213 1340615 1316121 
1810.930 1291694 1262284 1229653 1200347 1180046 1169083 1162039 1151109 
1814.787 1129781 1097791 1061286 1031560 1017876 1022127 1036608 1047104 
1818.645 1040959 1012297 966202 914168 868449 834121 806136 770652 712668 
1822.984 621708 497892 352390 203159 65212 -57815 -175376 -302805 -451845 
1827.324 -623863 -807652 -979926 -1108111 -1163003 -1129395 -1016488 -852463 
1831.182 -670082 -493350 -333862 -197169 -87431 -9873 30782 34063 6759 
1835.521 -36081 -77228 -101047 -99688 -76566 -44794 -22663 -27599 -73286 
1839.861 -166764 -310520 -502154 -736607 -1003067 -1282413 -1548373 -1767479 
1843.718 -1907638 -1951775 -1904636 -1789423 -1633018 -1457833 -1275376 
1847.093 -1091685 -913240 -748647 -610628 -510725 -452971 -431191 -429271 
1850.951 -428112 -409310 -363129 -289528 -198758 -107142 -31409 14247 22896 
1855.290 -5997 -67455 -151661 -244957 -332405 -402458 -448833 -474551 
1859.148 -488849 -504636 -531773 -573734 -625153 -676434 -718513 -749474 
1863.005 -777125 -817177 -886821 -997744 -1151371 -1338009 -1540911 -1740913 
1866.863 -1921394 -2070374 -2177403 -2232819 -2228039 -2157555 -2025260 
1870.238 -1844328 -1635395 -1421441 -1225620 -1064054 -944683 -865525 
1873.613 -817442 -788172 -767931 -753609 -747622 -756387 -785030 -834176 
1877.471 -899386 -971562 -1039825 -1094098 -1124933 -1126189 -1094990 
1880.846 -1033479 -948617 -850711 -751392 -659396 -578466 -505893 -436321 
1884.703 -368393 -309759 -278899 -301878 -403782 -596466 -869626 -1185308 
1888.561 -1488742 -1719726 -1839610 -1846802 -1777477 -1684741 -1616216 
1891.936 -1599248 -1635395 -1708637 -1793548 -1869039 -1921196 -1946134 
1895.311 -1945738 -1922746 -1876396 -1803183 -1702234 -1578087 -1442709 
1898.686 -1313697 -1205960 -1127412 -1075820 -1040817 -1009513 -973611 
1902.062 -931359 -888011 -851471 -826073 -811687 -803882 -797168 -788536 
1905.919 -779044 -772528 -772594 -780367 -793233 -808115 -823725 -842972 
1909.776 -872470 -919258 -985810 -1069375 -1162441 -1255785 -1344418 
1913.152 -1428013 -1510865 -1599611 -1698504 -1806482 -1916149 -2013453 
1916.527 -2080960 -2102987 -2070440 -1987562 -1873724 -1759361 -1673882 
1919.902 -1641469 -1674740 -1772297 -1916413 -2071561 -2193458 -2238785 
1923.277 -2187194 -2049269 -1864354 -1680483 -1539128 -1463249 -1449313 
1926.653 -1472693 -1499870 -1502148 -1465164 -1394755 -1309733 -1234309 
1930.028 -1187819 -1177807 -1202491 -1254860 -1326944 -1410509 -1495808 
1933.403 -1566267 -1599347 -1573960 -1475732 -1308379 -1095255 -876272 
1936.778 -696647 -593720 -588492 -682554 -863045 -1113796 -1421143 -1771340 
1940.636 -2140444 -2488875 -2754690 -2872149 -2800617 -2543592 -2154456 
1944.011 -1717614 -1322814 -1028884 -856696 -785460 -772627 -772429 -757842 
1947.869 -727047 -698499 -692776 -719439 -770312 -825511 -866517 -889863 
1951.726 -908214 -944848 -1016290 -1118687 -1224397 -1291498 -1284990 
1955.101 -1189703 -1021744 -818731 -626080 -474452 -368360 -289826 -215384 
1958.959 -127249 -28891 60639 116846 124635 86322 17461 -70039 -175873 
1963.298 -316877 -512347 -772991 -1077903 -1383195 -1625426 -1750979 
1966.673 -1740715 -1623214 -1461664 -1323277 -1249937 -1235400 -1236919 
1970.049 -1197865 -1080844 -887350 -660885 -463331 -353396 -353263 -444696 
1973.906 -581940 -716660 -823791 -908313 -997546 -1118323 -1272898 -1429102 
1977.764 -1526087 -1501752 -1322055 -999331 -595540 -194916 107997 242177 
1981.621 172629 -100782 -541933 -1083852 -1643185 -2145356 -2530745 -2772074 
1985.478 -2874124 -2869022 -2804996 -2730852 -2679550 -2657881 -2644675 
1988.854 -2600477 -2487491 -2284207 -1995676 -1656751 -1322517 -1050171 
1992.229 -877364 -815226 -846147 -936980 -1047626 -1143935 -1202457 -1211379 
1996.086 -1173577 -1110226 -1058997 -1067789 -1187125 -1450502 -1854325 
1999.462 -2351671 -2856481 -3264852 -3476553 -3429875 -3118222 -2600477 
2002.837 -1972060 -1346399 -822402 -455254 -264362 -237870 -347238 -561159 
2006.694 -854580 -1202689 -1575809 -1931917 -2216139 -2367292 -2342510 
2010.069 -2126431 -1748009 -1271577 -790719 -407622 -210449 -261680 -582701 
2013.927 -1147405 -1879794 -2677607 -3422183 -3996013 -4318257 -4355097 
2017.302 -4136243 -3743538 -3292607 -2885776 -2585919 -2407856 -2324680 
2020.677 -2285723 -2239609 -2152214 -2016224 -1844856 -1661505 -1492341 
2024.053 -1361164 -1289317 -1303622 -1432636 -1698933 -2111725 -2651459 
2027.428 -3266760 -3877906 -4397674 -4751542 -4903028 -4859255 -4664159 
2030.803 -4377501 -4049917 -3717685 -3401044 -3109406 -2853123 -2644840 
2034.178 -2491905 -2389074 -2316045 -2235588 -2113868 -1936865 -1722597 
2037.554 -1520044 -1389305 -1381048 -1510205 -1748372 -2026381 -2265254 
2040.929 -2402024 -2411876 -2316869 -2168106 -2023347 -1918656 -1864585 
2044.304 -1845482 -1840203 -1836772 -1843404 -1885271 -1990993 -2173282 
2047.679 -2420015 -2691767 -2938337 -3114636 -3193879 -3171545 -3059530 
2051.054 -2874157 -2630415 -2341686 -2022259 -1694610 -1392311 -1152528 
2054.430 -1009248 -980686 -1059459 -1213659 -1398124 -1571682 -1707449 
2057.805 -1803876 -1877650 -1956920 -2065131 -2210403 -2380835 -2550806 
2061.180 -2686465 -2758542 -2753439 -2674874 -2544581 -2397180 -2272011 
2064.555 -2201766 -2204601 -2277516 -2396949 -2525639 -2619250 -2644609 
2067.931 -2583580 -2439521 -2233643 -2000524 -1775860 -1589179 -1460938 
2071.306 -1399115 -1403078 -1467179 -1581124 -1731013 -1895003 -2046828 
2074.681 -2157753 -2203513 -2174699 -2079245 -1942539 -1797936 -1680846 
2078.056 -1613839 -1602318 -1636154 -1694973 -1757117 -1806944 -1837729 
2081.432 -1849376 -1844757 -1824597 -1786585 -1727515 -1644373 -1539095 
2084.807 -1418732 -1294140 -1178270 -1082133 -1013645 -977942 -976719 
2088.182 -1007926 -1064682 -1134715 -1197997 -1232426 -1219573 -1149520 
2091.557 -1028785 -880373 -740279 -648214 -640042 -737368 -942468 -1237745 
2095.415 -1589377 -1958009 -2299764 -2577355 -2764699 -2848350 -2831726 
2098.790 -2734309 -2587698 -2426835 -2283284 -2177600 -2112846 -2078025 
2102.165 -2052501 -2017246 -1961406 -1887283 -1808462 -1745600 -1716096 
2105.541 -1728109 -1777840 -1850003 -1921658 -1968762 -1971862 -1917534 
2108.916 -1803084 -1635395 -1432240 -1219276 -1024752 -877264 -797135 
2112.291 -791480 -853951 -966636 -1104971 -1246170 -1376655 -1490855 
2115.666 -1592183 -1686557 -1777708 -1864684 -1942209 -2002470 -2040101 
2119.042 -2053028 -2042343 -2012101 -1966915 -1912025 -1854753 -1806944 
2122.417 -1785166 -1807736 -1891209 -2040661 -2246729 -2481528 -2707506 
2125.792 -2882451 -2972398 -2960650 -2851543 -2668715 -2446736 -2227676 
2129.167 -2047059 -1928618 -1883159 -1906087 -1978954 -2073837 -2159105 
2132.542 -2205721 -2198304 -2139949 -2054413 -1980372 -1955271 -2004053 
2135.918 -2122078 -2274121 -2398234 -2432964 -2334172 -2096161 -1759427 
2139.293 -1403705 -1126949 -1009678 -1094329 -1366548 -1760978 -2171073 
2142.668 -2489138 -2631601 -2561775 -2302071 -1923736 -1525988 -1197534 
2146.043 -1003166 -959561 -1040519 -1183127 -1313036 -1369653 -1318322 
2149.419 -1158509 -921076 -658106 -423610 -266945 -220451 -292243 -473260 
2153.276 -737368 -1053278 -1389768 -1723785 -2047917 -2369961 -2704477 
2156.651 -3061076 -3429941 -3772642 -4022769 -4109756 -3989348 -3663673 
2160.027 -3189471 -2649977 -2136388 -1717647 -1425073 -1260641 -1205431 
2163.402 -1234607 -1331997 -1493266 -1716459 -1994126 -2306718 -2619546 
2166.777 -2898119 -3121117 -3286918 -3413142 -3525362 -3638735 -3750108 
2170.152 -3832552 -3845886 -3755101 -3543635 -3219730 -2814444 -2372268 
2173.528 -1937888 -1547250 -1231600 -1015761 -927755 -995827 -1236358 
2176.903 -1643119 -2169523 -2737635 -3245087 -3594112 -3724189 -3619053 
2180.278 -3314145 -2877349 -2393786 -1935842 -1552665 -1273493 -1112176 
2183.653 -1080415 -1191917 -1453078 -1852675 -2354967 -2900850 -3417021 
2187.029 -3840073 -4128432 -4269176 -4274261 -4168635 -3980221 -3726818 
2190.404 -3420670 -3070289 -2688869 -2297654 -1923967 -1593372 -1324796 
2193.779 -1125660 -996257 -932450 -934500 -1004158 -1137656 -1319874 
2197.154 -1518096 -1685203 -1778500 -1771472 -1669327 -1510700 -1361032 
2200.530 -1284725 -1327175 -1497657 -1767314 -2079904 -2371180 -2592342 
2203.905 -2717418 -2747578 -2702567 -2613750 -2509992 -2413557 -2342872 
2207.280 -2309190 -2319341 -2374080 -2463144 -2564279 -2646717 -2679879 
2210.655 -2641184 -2528373 -2358987 -2171765 -2012266 -1919448 -1917172 
2214.031 -2007517 -2170380 -2371905 -2576136 -2749488 -2869450 -2928102 
2217.406 -2927444 -2879094 -2797589 -2698122 -2593428 -2490983 -2393193 
2220.781 -2297193 -2196755 -2084191 -1955403 -1810475 -1655926 -1504228 
2224.156 -1372229 -1278547 -1238571 -1262855 -1351618 -1495082 -1669987 
2227.531 -1845252 -1986144 -2061569 -2054479 -1966123 -1819582 -1650711 
2230.907 -1507398 -1430622 -1444822 -1553226 -1734874 -1952929 -2162863 
2234.282 -2327020 -2421860 -2443310 -2405121 -2334732 -2263672 -2217325 
2237.657 -2211491 -2248312 -2317067 -2396949 -2465187 -2499384 -2482648 
2241.032 -2407428 -2274945 -2095699 -1887316 -1672232 -1475665 -1319874 
2244.408 -1223868 -1198559 -1246270 -1358192 -1517469 -1700584 -1880883 
2247.783 -2036374 -2151027 -2217820 -2240302 -2229358 -2200150 -2167545 
2251.158 -2143510 -2131739 -2128970 -2124485 -2104405 -2055238 -1968366 
2254.533 -1843470 -1690682 -1528497 -1378571 -1263813 -1199649 -1191950 
2257.909 -1234904 -1313136 -1405720 -1491417 -1554118 -1585878 -1588288 
2261.284 -1570262 -1544807 -1526186 -1523511 -1541142 -1576997 -1624105 
2264.659 -1672727 -1714247 -1742497 -1754939 -1752761 -1738174 -1712861 
2268.034 -1677117 -1628991 -1567357 -1493530 -1414109 -1339859 -1284593 
2271.410 -1260179 -1273063 -1321295 -1393830 -1475897 -1551840 -1610802 
2274.785 -1650348 -1675169 -1692431 -1708835 -1725336 -1736524 -1733290 
2278.160 -1705237 -1646849 -1560193 -1454795 -1344252 -1244618 -1168687 
2281.535 -1123446 -1110292 -1124636 -1158443 -1201830 -1244882 -1278481 
2284.911 -1295726 -1292588 -1267183 -1220730 -1155303 -1073573 -978074 
2288.286 -871081 -756189 -639545 -529291 -436487 -371869 -342504 -349986 
2292.143 -389051 -448370 -513472 -573138 -619925 -652912 -675673 -693769 
2296.001 -710408 -725327 -733961 -730388 -709681 -669520 -611257 -539186 
2299.858 -458266 -372763 -286316 -202004 -123241 -54104 1822 43805 75684 
2304.198 106804 150786 222684 333655 487741 679646 895807 1116261 1319910 
2308.537 1489806 1613972 1688209 1714687 1701647 1660302 1604660 1549657 
2312.395 1508559 1492200 1507295 1556174 1637452 1746589 1878915 2028923 
2316.252 2192038 2363908 2539413 2713089 2879562 3034421 3176185 3307277 
2320.110 3434134 3563834 3704434 3861192 4035664 4226936 4430877 4642149 
2323.967 4854092 5060005 5252298 5424848 5573032 5697162 5802354 5899343 
2327.824 6001326 6120773 6263178 6424898 6592901 6747273 6866185 6934490 
2331.682 6945904 6905874 6828519 6733980 6644913 6581093 6559430 6590008 
2335.539 6674824 6805395 6966004 7135228 7290567 7416437 7505730 7561121 
2339.397 7590792 7603707 7604010 7589545 7554951 7495886 7413302 7314155 
2343.254 7204687 7084605 6938867 6741754 6464614 6092950 5639120 5144154 
2347.112 4665023 4258957 3976541 3848355 3886432 4084628 4421371 4860291 
2350.969 5354565 5860249 6339559 6773119 7160525 7517832 7866628 8224450 
2354.826 8601560 8998618 9408363 9818496 10213310 10573513 10877749 11106933 
2358.684 11247072 11296583 11266149 11177166 11054010 10914341 10766191 
2362.059 10607328 10430706 10231052 10011823 9784266 9562486 9355816 9163052 
2365.917 8969189 8752692 8490484 8168804 7788663 7365242 6921462 6481127 
2369.774 6060827 5665539 5291035 4927243 4566401 4206727 3854740 3522244 
2373.631 3223216 2965792 2749366 2563444 2390395 2209588 2003491 1763290 
2377.489 1489341 1190745 881065 575090 284482 15606 -229293 -450786 -650199 
2381.828 -828190 -984157 -1118191 -1232294 -1330709 -1420483 -1509115 
2385.204 -1601625 -1698933 -1796583 -1886129 -1957415 -2003196 -2021368 
2388.579 -2016850 -1999799 -1982978 -1978558 -1992840 -2026480 -2073837 
2391.954 -2125606 -2171633 -2204139 -2218974 -2216238 -2198963 -2171864 
2395.329 -2139586 -2105822 -2072551 -2041519 -2014278 -1993235 -1982318 
2398.705 -1985451 -2005966 -2044982 -2100052 -2163951 -2227050 -2278670 
2402.080 -2309355 -2314859 -2296204 -2259750 -2214721 -2170084 -2132300 
2405.455 -2103712 -2083795 -2070638 -2063383 -2062921 -2070440 -2086302 
2408.830 -2107273 -2126332 -2134080 -2123002 -2090687 -2043992 -1996863 
2412.206 -1966750 -1969850 -2013453 -2093523 -2194744 -2296270 -2377112 
2415.581 -2422058 -2426638 -2395862 -2341982 -2278670 -2219172 -2172721 
2418.956 -2143839 -2134080 -2142686 -2167710 -2205820 -2253520 -2306619 
2422.331 -2361525 -2415929 -2468350 -2517569 -2561215 -2594515 -2610654 
2425.707 -2603342 -2568561 -2508542 -2431942 -2353022 -2285492 -2240236 
2429.082 -2219831 -2219172 -2228039 -2235753 -2237104 -2233181 -2230643 
2432.457 -2237566 -2258563 -2291260 -2326921 -2353055 -2359251 -2340961 
2435.832 -2300950 -2247685 -2192502 -2143807 -2106152 -2079970 -2062592 
2439.208 -2052039 -2047620 -2050027 -2060085 -2076936 -2097579 -2117165 
2442.583 -2132168 -2141598 -2148126 -2157621 -2176216 -2208557 -2255827 
2445.958 -2315320 -2381857 -2449965 -2513582 -2567671 -2607789 -2629756 
2449.333 -2630481 -2609370 -2569450 -2517338 -2462320 -2413194 -2374805 
2452.708 -2346431 -2321187 -2290403 -2246664 -2187656 -2117990 -2047917 
2456.084 -1988453 -1947586 -1927431 -1923571 -1928453 -1934688 -1938811 
2459.459 -1942539 -1951808 -1973248 -2011375 -2066417 -2134641 -2209315 
2462.834 -2283548 -2351210 -2407131 -2447494 -2468613 -2467625 -2443310 
2466.209 -2397641 -2336545 -2268320 -2202260 -2146213 -2103316 -2073012 
2469.585 -2052402 -2038221 -2029745 -2028855 -2038914 -2061734 -2095469 
2472.960 -2133651 -2166160 -2184095 -2181919 -2161017 -2128805 -2096755 
2476.335 -2076013 -2073903 -2092072 -2127024 -2172358 -2220556 -2266441 
2479.710 -2305993 -2336446 -2355428 -2360371 -2348903 -2320692 -2278076 
2483.086 -2226753 -2174106 -2127947 -2094281 -2075749 -2071924 -2081058 
2486.461 -2100415 -2128211 -2162929 -2203150 -2245543 -2285591 -2317693 
2489.836 -2336940 -2341060 -2331403 -2311959 -2289019 -2268353 -2253487 
2493.211 -2245444 -2243466 -2246202 -2252795 -2263211 -2277681 -2295446 
2496.587 -2314101 -2329591 -2337467 -2335292 -2324186 -2309025 -2297127 
2499.962 -2296073 -2309651 -2336676 -2369434 -2396158 -2405418 -2387920 
2503.337 -2341027 -2268715 -2180963 -2090028 -2007879 -1943099 -1899457 
2506.712 -1875737 -1867324 -1869039 -1875374 -1883423 -1892232 -1902525 
2510.088 -1915225 -1930927 -1948212 -1964012 -1974270 -1975062 -1963517 
2513.463 -1939900 -1907638 -1872800 -1843932 -1829381 -1835716 -1866565 
2516.838 -1921097 -1993565 -2073936 -2150203 -2208919 -2238950 -2233841 
2520.213 -2193161 -2123562 -2037199 -1950686 -1880058 -1837432 -1828820 
2523.589 -1852543 -1900116 -1958471 -2015300 -2059426 -2085378 -2092534 
2526.964 -2084554 -2067703 -2048906 -2034560 -2030042 -2039111 -2063548 
2530.339 -2102987 -2153994 -2210205 -2263013 -2303389 -2323296 -2319605 
2533.714 -2293601 -2251509 -2202524 -2156830 -2121386 -2099689 -2089797 
2537.090 -2086302 -2081520 -2067538 -2039408 -1994786 -1936040 -1869435 
2540.465 -1805525 -1756523 -1734346 -1748801 -1803447 -1894541 -2010551 
2543.840 -2135366 -2250520 -2340829 -2398432 -2423442 -2423606 -2410163 
2547.215 -2394676 -2384526 -2381659 -2383340 -2385251 -2383505 -2376651 
2550.591 -2366929 -2357142 -2350386 -2346827 -2343894 -2337270 -2323263 
2553.966 -2299830 -2268155 -2231797 -2195436 -2162863 -2136124 -2114791 
2557.341 -2097546 -2083169 -2071100 -2061998 -2056722 -2054941 -2055073 
2560.716 -2054116 -2047719 -2033043 -2009726 -1980306 -1949993 -1925847 
2564.092 -1913411 -1916281 -1934424 -1964474 -2000096 -2034725 -2062031 
2567.467 -2078585 -2084092 -2081157 -2074727 -2069187 -2067901 -2070440 
2570.842 -2073474 -2070539 -2055502 -2024073 -1976975 -1920305 -1864354 
2574.217 -1821562 -1801863 -1810046 -1843569 -1893914 -1947882 -1992015 
2577.593 -2016883 -2017872 -1997325 -1961538 -1920008 -1880784 -1850662 
2580.968 -1832681 -1827204 -1832318 -1845054 -1862111 -1879992 -1895927 
2584.343 -1908100 -1915423 -1918359 -1918293 -1916875 -1914961 -1912421 
2587.718 -1907341 -1896982 -1878607 -1851355 -1816810 -1779490 -1745765 
2591.094 -1721574 -1711706 -1717845 -1738240 -1768172 -1802358 -1834495 
2594.469 -1860197 -1876099 -1879893 -1870425 -1847231 -1809584 -1758338 
2597.844 -1694907 -1622917 -1547383 -1474279 -1410938 -1363708 -1338208 
2601.219 -1337283 -1361329 -1406579 -1466386 -1531567 -1591853 -1638234 
2604.594 -1664838 -1669426 -1655134 -1627340 -1593669 -1559929 -1529653 
2607.970 -1501752 -1473321 -1439835 -1398652 -1351057 -1302597 -1262161 
2611.345 -1240091 -1244816 -1280298 -1343922 -1426196 -1513771 -1591292 
2614.720 -1644373 -1664475 -1648334 -1600205 -1528629 -1446671 -1367110 
2618.095 -1300615 -1254959 -1232591 -1232327 -1248946 -1275442 -1304150 
2621.471 -1328034 -1341874 -1342766 -1330412 -1306198 -1273163 -1234970 
2624.846 -1195122 -1156658 -1122058 -1092412 -1068450 -1050204 -1037115 
2628.221 -1027958 -1021810 -1017480 -1014273 -1012554 -1013116 -1016587 
2631.596 -1023562 -1033214 -1043098 -1050105 -1050932 -1044056 -1030636 
2634.972 -1014273 -1000224 -994141 -998736 -1013281 -1033446 -1052022 
2638.347 -1062566 -1060550 -1045610 -1021083 -992356 -964388 -940054 -918861 
2642.204 -898724 -876537 -851273 -824254 -799516 -781557 -773884 -776695 
2646.062 -786948 -798789 -805668 -802394 -786684 -759033 -723210 -684572 
2649.919 -649107 -621811 -607055 -606757 -620356 -644277 -672828 -698268 
2653.777 -712724 -711235 -691685 -656551 -611654 -564468 -521150 -485308 
2657.634 -456909 -433772 -412620 -391368 -369750 -349589 -333233 -322274 
2661.491 -316314 -313301 -310586 -305752 -298203 -288733 -278965 -270124 
2665.349 -261845 -252507 -240089 -223299 -202832 -181271 -162790 -151197 
2669.206 -147984 -152191 -160272 -167228 -168785 -162127 -146692 -124400 
2673.064 -97734 -69774 -43270 -20343 -2584 8581 12591 9310 -298 -14446 
2677.885 -31178 -48439 -65136 -80640 -94620 -106546 -114959 -118371 -114959 
2682.225 -104293 -87696 -68118 -49400 -35054 -27135 -25512 -28693 -34259 
2686.565 -41150 -49168 -60100 -75737 -97436 -124632 -155304 -185510 -212171 
2690.904 -233002 -247970 -258467 -267176 -276647 -288700 -304825 -325585 
2694.762 -351641 -383158 -419406 -459127 -498943 -534983 -562748 -579061 
2698.619 -583429 -578003 -567976 -559141 -556659 -563310 -578797 -599312 
2702.477 -619562 -634417 -639678 -634252 -619628 -599610 -578730 -561788 
2706.334 -552258 -551960 -560795 -577175 -598551 -621712 -643317 -660587 
2710.191 -670975 -672464 -663896 -645071 -617113 -582767 -546202 -512248 
2714.049 -486036 -471374 -470083 -480906 -500201 -522308 -540841 -550603 
2717.906 -548121 -532601 -505629 -471009 -433375 -396963 -365083 -339557 
2721.764 -319890 -303898 -288468 -270223 -246612 -217338 -184153 -151561 
2725.621 -124433 -107837 -104757 -115489 -136921 -164148 -191373 -213562 
2729.479 -227736 -233068 -230386 -221577 -208694 -193393 -177297 -162160 
2733.336 -150468 -144738 -147686 -160372 -182265 -210283 -239890 -266481 
2737.193 -286250 -298402 -304560 -308335 -313401 -322175 -334326 -346841 
2741.051 -354687 -352568 -337537 -309295 -271051 -228829 -189650 -159676 
2744.908 -142916 -139902 -148613 -164346 -181669 -195645 -202468 -200480 
2748.766 -190114 -173819 -155138 -138312 -127249 -123969 -129501 -142254 
2752.623 -160007 -179284 -197665 -213595 -227008 -238598 -249361 -259461 
2756.480 -267739 -271713 -268766 -257077 -236313 -207965 -175044 -140796 
2760.338 -107572 -76599 -47279 -18753 9542 37078 62097 82577 96994 105577 
2765.160 110482 115553 124403 139748 161757 188341 215358 239194 256897 
2769.499 267507 272248 273508 274204 276624 282029 290948 303448 319629 
2773.839 339856 364494 393744 427573 464953 504526 544236 582356 617261 
2778.178 647988 674735 698795 722558 749741 784294 829706 888004 958797 
2782.518 1038966 1123204 1205231 1279265 1341048 1389044 1424247 1449445 
2786.375 1468262 1484886 1502474 1524286 1553148 1591424 1641044 1703011 
2790.233 1776232 1857617 1942280 2025028 2101366 2169193 2229504 2286292 
2794.090 2344853 2410418 2486191 2572076 2664746 2758669 2848144 2928529 
2797.948 2998187 3058446 3113240 3167206 3224685 3288247 3358763 3434935 
2801.805 3515330 3598679 3684885 3775052 3870853 3973798 4083959 4200170 
2805.663 4319792 4439815 4558063 4673697 4788223 4904556 5026886 5158941 
2809.520 5303915 5463063 5635999 5820588 6013353 6210271 6406941 6599596 
2813.377 6785504 6964018 7136171 7305697 7477379 7657155 7850163 8060405 
2817.235 8289389 8536878 8800770 9078459 9366853 9663775 9967645 10277768 
2821.092 10594800 10920321 11257512 11609972 11982438 12378680 12801251 
2824.468 13250094 13723236 14216956 14727724 15253234 15794430 16355222 
2827.843 16941236 17558678 18211722 18901152 19624644 20377716 21155226 
2831.218 21954102 22774422 23619982 24497896 25416550 26384680 27410272 
2834.593 28499570 29657836 30890380 32203398 33606092 35110784 36733592 
2837.969 38495664 40420716 42534532 44864304 47433804 50265124 53376360 
2841.344 56781156 60490612 64512580 68851960 73508392 78474664 83734136 
2844.719 89256128 94999936 100911688 106926408 112977992 118992008 124891336 
2848.094 130599512 136031328 141099424 145716752 149793552 153249024 
2850.987 156013696 158030160 159260624 159686592 159310256 158154704 
2853.880 156265920 153707936 150555760 146896000 142815952 138398576 
2856.773 133727448 128877312 123919976 118925160 113953672 109061616 
2859.667 104297520 99696520 95286424 91084944 87102104 83344328 79815368 
2863.042 76518632 73458832 70642008 68074888 65765508 63719436 61939608 
2866.417 60422860 59159152 58127952 57300128 56639420 56102160 55644008 
2869.792 55222460 54797484 54337440 53817380 53219508 52535284 51763920 
2873.167 50913592 50000124 49047688 48085196 47142232 46249072 45429660 
2876.543 44702276 44078452 43563164 43157164 42857984 42662120 42565120 
2879.918 42562196 42648488 42819040 43069308 43396272 43797880 44273564 
2883.293 44823748 45448020 46145000 46911276 47740924 48627376 49562548 
2886.668 50539264 51551720 52596016 53670048 54773992 55909768 57079768 
2890.044 58286128 59530536 60812480 62129604 63477472 64851336 66245356 
2893.419 67655008 69076944 70509744 71953192 73408680 74878664 76366640 
2896.794 77876888 79414208 80983832 82590680 84238640 85931008 87668800 
2900.169 89452608 91282040 93157064 95078136 97048040 99071376 101154240 
2903.545 103304304 105528680 107833024 110219552 112688072 115235584 
2906.438 117859280 120558616 123337344 126205592 129177672 132270096 
2909.331 135499120 138876432 142407248 146089664 149916144 153873696 
2912.224 157945536 162114112 166357968 170654656 174980688 179309344 
2915.117 183613136 187862256 192020752 196049632 199901584 203522208 
2918.010 206858032 209854400 212464608 214653360 216394976 217673920 
2920.903 218480464 218809504 218658944 218031200 216935776 215389216 
2923.796 213416880 211052240 208332896 205303200 202009680 198498048 
2926.689 194814592 190998736 187081696 183087232 179030288 174921744 
2929.582 170771920 166592864 162399792 158208992 154034336 149887168 
2932.475 145773776 141697904 137664192 133679208 129753096 125898648 
2935.368 122127752 118449800 114870416 111391760 108015136 104742664 
2938.261 101577576 98525360 95590136 92774544 90077832 87497120 85028120 
2941.637 82668424 80417920 78279912 76260304 74364376 72597016 70961192 
2945.012 69457104 68084152 66841960 65730540 64751020 63904768 63191248 
2948.387 62606940 62144324 61790144 61526144 61331752 61183264 61057928 
2951.762 60936028 60800364 60638336 60440988 60201100 59912320 59567852 
2955.138 59159988 58680964 58124504 57487392 56769904 55976704 55113808 
2958.513 54187300 53200824 52155112 51048328 49877936 48644168 47350880 
2961.888 46008056 44628868 43229444 41825948 40431080 39054704 37702592 
2965.263 36377656 35082008 33817472 32586244 31391728 30236760 29123012 
2968.639 28050354 27016938 26019536 25054780 24120534 23216186 22343506 
2972.014 21505058 20704782 19945942 19231056 18561574 17937596 17358136 
2975.389 16820360 16320819 15853809 15412569 14990056 14578851 14173238 
2978.764 13769097 13364376 12959348 12556711 12161022 11778257 11415761 
2982.140 11080284 10777196 10507891 10269388 10054751 9854185 9658895 
2985.515 9464270 9271795 9088710 8926841 8798066 8709588 8662939 8652697 
2989.372 8670241 8706377 8755296 8816697 8894339 8993882 9120313 9275856 
2993.230 9460037 9671126 9908929 10175285 10475406 10815071 11198620 
2996.605 11626272 12093423 12591534 13109170 13635356 14160572 14676141 
2999.980 15175132 15650341 16093371 16496619 16852738 17157614 17410210 
3003.355 17612468 17767288 17876686 17939980 17953826 17913322 17814510 
3006.731 17656154 17441216 17175988 16867722 16523259 16145881 15736088 
3010.106 15291672 14810476 14292522 13741942 13165965 12574582 11978726 
3013.481 11386508 10804405 10235292 9679664 9137469 8608218 8092101 7589916 
3017.339 7102590 6630547 6173770 5732514 5306598 4897318 4506033 4134936 
3021.196 3785146 3457012 3149417 2859684 2585242 2323966 2075630 1841379 
3025.053 1623683 1425244 1247563 1091181 954778 836080 731984 639294 553923 
3029.393 471322 386415 293832 189534 72304 -55661 -188425 -317440 -433938 
3033.733 -531211 -605731 -658106 -692413 -714643 -730917 -746729 -766211 
3037.590 -792207 -826437 -869527 -921043 -978537 -1038239 -1095420 -1144662 
3041.448 -1182731 -1208273 -1223472 -1232690 -1241512 -1255223 -1277391 
3044.823 -1309370 -1349835 -1395944 -1444195 -1490294 -1530841 -1563593 
3048.198 -1587627 -1604431 -1617305 -1629915 -1647014 -1671044 -1702531 
3051.573 -1738834 -1775036 -1805987 -1827633 -1838752 -1841028 -1838884 
3054.948 -1837630 -1841556 -1852576 -1869996 -1890516 -1910112 -1925056 
3058.324 -1933566 -1936667 -1936799 -1938613 -1947289 -1966387 -1997523 
3061.699 -2039276 -2086829 -2132992 -2170644 -2193722 -2200315 -2192238 
3065.074 -2175062 -2156269 -2141532 -2133157 -2129497 -2125705 -2115978 
3068.449 -2096755 -2068165 -2034560 -2002998 -1980834 -1973412 -1982615 
3071.825 -2006593 -2041057 -2081421 -2123925 -2167182 -2211688 -2258926 
3075.200 -2310376 -2367028 -2428384 -2492960 -2558481 -2621523 -2678957 
3078.575 -2727823 -2765983 -2792584 -2808584 -2815794 -2816419 -2813061 
3081.950 -2806642 -2798346 -2788831 -2779679 -2773720 -2774576 -2785704 
3085.326 -2808847 -2843050 -2885117 -2930011 -2973320 -3013005 -3049199 
3088.701 -3084830 -3121841 -3161052 -3199799 -3233149 -3255545 -3264096 
3092.076 -3259886 -3248738 -3238872 -3237589 -3248672 -3270147 -3294810 
3095.451 -3313619 -3318716 -3306780 -3281262 -3250020 -3223480 -3210587 
3098.827 -3215718 -3238345 -3272811 -3310397 -3342127 -3361361 -3364682 
3102.202 -3352517 -3328613 -3298625 -3268338 -3243574 -3228315 -3224269 
3105.577 -3230748 -3244528 -3260281 -3271758 -3273271 -3261366 -3236175 
3108.952 -3201904 -3165789 -3138092 -3126874 -3138223 -3173124 -3227558 
3112.328 -3293067 -3360014 -3419750 -3466462 -3498279 -3516817 -3524902 
3115.703 -3525756 -3521089 -3511788 -3498477 -3483488 -3471162 -3466856 
3119.078 -3475534 -3499430 -3536273 -3579325 -3619612 -3648789 -3661768 
3122.453 -3658581 -3643664 -3623259 -3602886 -3584714 -3567626 -3548565 
3125.829 -3524934 -3497096 -3468796 -3446870 -3437469 -3444964 -3469584 
3129.204 -3507055 -3551128 -3593685 -3628549 -3651254 -3659731 -3654474 
3132.579 -3638407 -3616457 -3595197 -3582446 -3585174 -3606797 -3646851 
3135.954 -3699715 -3755824 -3804273 -3836132 -3846904 -3837150 -3811302 
3139.330 -3775927 -3736607 -3696528 -3656839 -3617837 -3580968 -3549781 
3142.705 -3529569 -3524770 -3537719 -3566541 -3604825 -3643960 -3675469 
3146.080 -3692520 -3693045 -3678524 -3653915 -3625264 -3599567 -3583235 
3149.455 -3581165 -3596478 -3629174 -3676520 -3731647 -3785025 -3827822 
3152.831 -3852750 -3857019 -3844047 -3821057 -3796554 -3777766 -3767518 
3156.206 -3763116 -3758288 -3746002 -3721430 -3684274 -3639031 -3594277 
3159.581 -3560133 -3544391 -3552410 -3584517 -3637191 -3703526 -3775171 
3162.956 -3843882 -3902108 -3945385 -3971422 -3981896 -3980615 -3972834 
3166.332 -3963936 -3957698 -3955465 -3956188 -3957370 -3955465 -3948340 
3169.707 -3935174 -3916786 -3895310 -3873735 -3854457 -3839481 -3829530 
3173.082 -3824341 -3822994 -3824111 -3825819 -3826903 -3826574 -3825293 
3176.457 -3824538 -3826377 -3832847 -3845098 -3863390 -3886575 -3913502 
3179.833 -3942660 -3973491 -4006617 -4043286 -4084088 -4128595 -4174903 
3183.208 -4218876 -4255593 -4279347 -4285581 -4271735 -4238071 -4187603 
3186.583 -4126528 -4062227 -4002678 -3954973 -3922795 -3907920 -3908740 
3189.958 -3921810 -3942561 -3966596 -3991023 -4013347 -4032027 -4045913 
3193.333 -4053857 -4055957 -4053298 -4048670 -4045650 -4048178 -4058058 
3196.709 -4074537 -4093214 -4108542 -4115631 -4111922 -4099811 -4084778 
3200.084 -4073716 -4071648 -4080182 -4096332 -4114220 -4127709 -4132994 
3203.459 -4130597 -4124756 -4121112 -4124953 -4138277 -4159676 -4185831 
3206.834 -4212477 -4236365 -4256938 -4274163 -4288763 -4299984 -4305889 
3210.210 -4304511 -4294669 -4277706 -4256938 -4237251 -4222748 -4215496 
3213.585 -4214938 -4218777 -4224257 -4231148 -4240630 -4256314 -4281217 
3216.960 -4315928 -4356540 -4396001 -4425094 -4435818 -4424536 -4393574 
3220.335 -4351062 -4307267 -4272359 -4253197 -4250835 -4261531 -4278396 
3223.711 -4294012 -4302247 -4300607 -4289550 -4272195 -4252771 -4235052 
3227.086 -4222124 -4215725 -4216841 -4225865 -4242632 -4266584 -4295751 
3230.461 -4327311 -4357262 -4381240 -4396001 -4399838 -4393574 -4379338 
3233.836 -4360575 -4340072 -4319831 -4300705 -4283284 -4269045 -4260252 
3237.212 -4260711 -4274097 -4302608 -4345256 -4398493 -4456382 -4511180 
3240.587 -4557512 -4591774 -4613413 -4624067 -4625936 -4621117 -4611511 
3243.962 -4598135 -4582037 -4565086 -4548430 -4533577 -4520362 -4507967 
3247.337 -4495243 -4482487 -4471238 -4465729 -4470517 -4489013 -4521641 
3250.713 -4564627 -4610429 -4651047 -4679828 -4693136 -4692480 -4681631 
3254.088 -4665273 -4647015 -4628001 -4607085 -4583578 -4557906 -4532003 
3257.463 -4509803 -4494423 -4487307 -4487734 -4492849 -4499703 -4506786 
3260.838 -4514263 -4523477 -4535281 -4548233 -4558529 -4560824 -4551709 
3264.214 -4530461 -4501113 -4471008 -4448052 -4438180 -4442279 -4456939 
3267.589 -4475993 -4493768 -4507213 -4516919 -4526100 -4538200 -4554266 
3270.964 -4572529 -4588299 -4596791 -4594955 -4583906 -4567873 -4553676 
3274.339 -4547512 -4553053 -4569808 -4594758 -4622920 -4648982 -4669797 
3277.715 -4684089 -4692218 -4695496 -4695824 -4693824 -4689825 -4682712 
3281.090 -4671010 -4653440 -4629214 -4599414 -4566529 -4535675 -4511705 
3284.465 -4499506 -4501047 -4515148 -4538233 -4564627 -4589512 -4610528 
3287.840 -4627837 -4643933 -4662979 -4687760 -4718997 -4754951 -4792147 
3291.216 -4826325 -4854144 -4872918 -4881633 -4879995 -4867872 -4845887 
3294.591 -4815741 -4780316 -4743545 -4709786 -4682385 -4662979 -4650883 
3297.966 -4643212 -4637508 -4632034 -4627575 -4626821 -4633181 -4648654 
3301.341 -4673370 -4704149 -4735614 -4762488 -4780218 -4787264 -4785068 
3304.717 -4777662 -4769862 -4766224 -4770124 -4782709 -4803092 -4827603 
3308.092 -4851490 -4869347 -4876260 -4869183 -4848147 -4816625 -4779989 
3311.467 -4745905 -4720996 -4709950 -4714867 -4734893 -4766028 -4803026 
3314.842 -4840251 -4871837 -4892674 -4899194 -4889562 -4864989 -4828783 
3318.218 -4787329 -4748298 -4718669 -4703657 -4705886 -4724601 -4756097 
3321.593 -4795784 -4838056 -4877702 -4909580 -4928778 -4931759 -4916198 
3324.968 -4882977 -4836384 -4783954 -4735352 -4699134 -4680811 -4681008 
3328.343 -4695594 -4717981 -4740661 -4759211 -4772746 -4783725 -4796374 
3331.719 -4814987 -4841332 -4874884 -4912692 -4949973 -4982370 -5006019 
3335.094 -5017745 -5015747 -4999468 -4969824 -4930055 -4884713 -4838940 
3338.469 -4798078 -4765143 -4740530 -4722438 -4708148 -4694840 -4682024 
3341.844 -4670813 -4663963 -4664323 -4672977 -4688809 -4709524 -4731714 
3345.219 -4752656 -4770944 -4786182 -4798799 -4808531 -4814758 -4816462 
3348.595 -4813742 -4807712 -4801748 -4799618 -4805091 -4820033 -4844576 
3351.970 -4876293 -4912463 -4950071 -4986858 -5021217 -5051676 -5075780 
3355.345 -5091434 -5096641 -5091270 -5077614 -5060814 -5046174 -5038248 
3358.720 -5038510 -5044176 -5050235 -5050858 -5042146 -5024230 -5000910 
3362.096 -4977653 -4960456 -4952070 -4951873 -4956623 -4962192 -4965369 
3365.471 -4965632 -4964550 -4964648 -4968187 -4975557 -4985023 -4994195 
3368.846 -5001040 -5005102 -5007755 -5011424 -5018793 -5030879 -5047091 
3372.221 -5064547 -5079612 -5088356 -5087996 -5076992 -5056065 -5027113 
3375.597 -4993180 -4957999 -4924847 -4896311 -4873344 -4855815 -4841856 
3378.972 -4829732 -4818460 -4809285 -4804665 -4808105 -4823015 -4850343 
3382.347 -4888382 -4931857 -4973722 -5006576 -5024656 -5024656 -5007493 
3385.722 -4976572 -4936804 -4894444 -4855946 -4826587 -4811940 -4815741 
3389.098 -4839071 -4880290 -4933430 -4989642 -5038674 -5071457 -5083116 
3392.473 -5074601 -5052332 -5026392 -5007395 -5002776 -5015321 -5042866 
3395.848 -5079448 -5117861 -5151686 -5176963 -5191860 -5197131 -5193694 
3399.223 -5182758 -5165667 -5143468 -5118352 -5093104 -5071359 -5056065 
3402.599 -5049417 -5050956 -5059635 -5072898 -5088094 -5103256 -5117206 
3405.974 -5128470 -5135118 -5134364 -5122478 -5097394 -5058619 -5008640 
3409.349 -4953150 -4899817 -4855946 -4827013 -4815020 -4818821 -4833828 
3412.724 -4854701 -4876293 -4895132 -4909187 -4918491 -4924027 -4927893 
3416.100 -4932807 -4942078 -4959244 -4987382 -5027702 -5078728 -5135216 
3419.475 -5188684 -5230459 -5251509 -5247908 -5219951 -5173296 -5116354 
3422.850 -5058063 -5005594 -4962880 -4930580 -4907024 -4889660 -4876260 
3426.225 -4865284 -4856634 -4850343 -4846608 -4845166 -4845690 -4847623 
3429.601 -4850769 -4854602 -4859255 -4864170 -4868102 -4869871 -4868102 
3432.976 -4862532 -4853521 -4843232 -4833763 -4827308 -4824653 -4824817 
3436.351 -4825833 -4825178 -4821410 -4815118 -4809023 -4806369 -4810661 
3439.726 -4822557 -4839661 -4856896 -4868462 -4870068 -4862073 -4849491 
3443.102 -4841299 -4847492 -4874425 -4921472 -4980372 -5036676 -5072342 
3446.477 -5071555 -5027506 -4943814 -4833861 -4716407 -4609806 -4527018 
3449.852 -4473009 -4446641 -4441656 -4448872 -4458776 -4463400 -4456874 
3453.227 -4435917 -4401282 -4356113 -4306643 -4260711 -4226127 -4209031 
3456.603 -4211919 -4233313 -4268914 -4312549 -4358016 -4401478 -4439492 
3459.978 -4469992 -4490685 -4498293 -4489570 -4462449 -4418862 -4364118 
3463.353 -4306709 -4255790 -4217202 -4192033 -4175986 -4161317 -4140542 
3466.728 -4109264 -4069318 -4028186 -3995291 -3979269 -3983899 -4006683 
3470.104 -4039774 -4073092 -4097973 -4109625 -4108443 -4098629 -4086419 
3473.479 -4076572 -4071878 -4071189 -4071910 -4070860 -4067348 -4063048 
3476.854 -4063212 -4074734 -4104012 -4155770 -4229901 -4322128 -4422437 
3480.229 -4518329 -4597414 -4650391 -4674649 -4674353 -4659799 -4643015 
3483.604 -4634721 -4640328 -4659701 -4687531 -4715686 -4736368 -4744561 
3486.980 -4738563 -4721717 -4699790 -4678910 -4664225 -4657505 -4657898 
3490.355 -4662258 -4666552 -4667372 -4663864 -4657537 -4653211 -4657308 
3493.730 -4675894 -4712310 -4765569 -4829503 -4894313 -4948531 -4984827 
3497.105 -5001401 -5003595 -5001466 -5007297 -5030977 -5077058 -5143500 
3500.481 -5223715 -5307352 -5382465 -5440288 -5474186 -5482431 -5466268 
3503.856 -5430831 -5382989 -5330919 -5283196 -5247351 -5228528 -5228168 
3507.231 -5243718 -5268236 -5291707 -5305160 -5301723 -5279071 -5239691 
3510.606 -5188881 -5131647 -5072440 -5014110 -4959014 -4910497 -4873377 
3513.982 -4852604 -4851850 -4871509 -4907680 -4952528 -4996291 -5030257 
3517.357 -5049089 -5053052 -5047157 -5041163 -5045715 -5070082 -5120677 
3520.732 -5198506 -5299006 -5412015 -5524439 -5621724 -5693414 -5736382 
3524.107 -5756263 -5764895 -5774868 -5794485 -5823583 -5852253 -5863793 
3527.483 -5841661 -5774999 -5664994 -5523622 -5371175 -5228691 -5111672 
3530.858 -5028881 -4981813 -4968023 -4983353 -5024296 -5087374 -5167140 
3534.233 -5254979 -5337890 -5399188 -5425628 -5409071 -5351440 -5264145 
3537.608 -5163768 -5066643 -4985383 -4928057 -4898670 -4900374 -4935952 
3540.984 -5008509 -5119400 -5266273 -5442415 -5635265 -5828454 -6005512 
3544.359 -6150812 -6253639 -6306806 -6307590 -6256349 -6157476 -6021655 
3547.734 -5864512 -5707312 -5572397 -5476804 -5431976 -5437703 -5483707 
3551.109 -5549859 -5611453 -5646810 -5642264 -5596734 -5519303 -5423469 
3554.485 -5322245 -5225810 -5142059 -5076796 -5035890 -5023968 -5043128 
3557.860 -5090975 -5160756 -5241917 -5322343 -5393526 -5452231 -5502323 
3561.235 -5552934 -5616294 -5705382 -5830383 -6000055 -6219768 -6490786 
3564.610 -6805770 -7144515 -7468145 -7717422 -7831073 -7769077 -7538846 
3567.986 -7192783 -6804791 -6437053 -6123598 -5875757 -5687069 -5544494 
3571.361 -5434791 -5348887 -5283163 -5238447 -5216251 -5216710 -5236319 
3574.736 -5268433 -5305716 -5341883 -5373891 -5399875 -5418658 -5427068 
3578.111 -5420295 -5393101 -5343061 -5273343 -5193661 -5118549 -5064416 
3581.487 -5044700 -5068968 -5141372 -5262868 -5432369 -5649558 -5913642 
3584.862 -6218952 -6552639 -6885255 -7167460 -7342279 -7361858 -7216671 
3588.237 -6942584 -6606227 -6272254 -5985349 -5770094 -5632910 -5571056 
3591.612 -5576682 -5638895 -5742563 -5867814 -5992244 -6091678 -6147316 
3594.988 -6150844 -6107197 -6031753 -5944627 -5866146 -5809329 -5779805 
3598.363 -5773887 -5780982 -5784807 -5767250 -5713787 -5616654 -5477818 
3601.738 -5310528 -5136362 -4981092 -4869085 -4822491 -4855454 -4974279 
3605.113 -5174606 -5442186 -5749887 -6060181 -6333290 -6532403 -6638860 
3608.489 -6658862 -6622380 -6569937 -6537691 -6549767 -6613048 -6718897 
3611.864 -6844845 -6961888 -7039486 -7058394 -7019468 -6942878 -6859066 
3615.239 -6795625 -6772823 -6798006 -6866600 -6961855 -7057579 -7119547 
3618.614 -7113680 -7018393 -6831603 -6570981 -6266768 -5952602 -5657341 
3621.990 -5403278 -5209245 -5087275 -5045322 -5085834 -5205709 -5396373 
3625.365 -5647203 -5949889 -6296356 -6676188 -7067196 -7417334 -7645838 
3628.740 -7675951 -7492962 -7166450 -6799996 -6474660 -6224308 -6052371 
3632.115 -5944072 -5875855 -5821458 -5759173 -5678632 -5581949 -5482693 
3635.490 -5396635 -5336352 -5305913 -5301461 -5313932 -5333733 -5355367 
3638.866 -5378996 -5410085 -5455536 -5518715 -5597945 -5685794 -5773430 
3642.241 -5856340 -5937698 -6029759 -6151726 -6324734 -6566967 -6889755 
3645.616 -7293897 -7768166 -8282196 -8790618 -9238150 -9569592 -9739268 
3648.991 -9717203 -9493936 -9088689 -8554528 -7969453 -7409060 -6930160 
3652.367 -6562626 -6312162 -6173678 -6132484 -6166002 -6240182 -6312946 
3655.742 -6339559 -6289008 -6160383 -5979728 -5785625 -5608935 -5469606 
3659.117 -5373989 -5320248 -5300053 -5303621 -5321427 -5344632 -5368720 
3662.492 -5391988 -5415451 -5442513 -5478996 -5531866 -5608935 -5718398 
3665.868 -5867617 -6062729 -6306512 -6596535 -6922008 -7255807 -7554183 
3669.243 -7760810 -7830813 -7762567 -7608006 -7444987 -7338077 -7329997 
3672.618 -7440362 -7672761 -8013075 -8416434 -8788573 -8990296 -8919246 
3675.993 -8591011 -8127982 -7653391 -7237494 -6896375 -6617649 -6383607 
3679.369 -6180146 -6001591 -5850096 -5730464 -5646974 -5599678 -5585384 
3682.744 -5597225 -5628265 -5673825 -5732753 -5809688 -5913936 -6058187 
3686.119 -6255990 -6518466 -6845921 -7222015 -7604295 -7927029 -8124405 
3689.494 -8152371 -8007285 -7720482 -7345374 -6939063 -6549375 -6211798 
3692.870 -5943254 -5746258 -5613547 -5531768 -5485703 -5460706 -5445883 
3696.245 -5434693 -5426152 -5424189 -5436558 -5471961 -5536806 -5633793 
3699.620 -5756917 -5889944 -6004695 -6069362 -6058776 -5968845 -5819856 
3702.995 -5649786 -5498332 -5392970 -5347905 -5363025 -5429424 -5534221 
3706.371 -5668167 -5827768 -6016067 -6240541 -6505311 -6804269 -7116842 
3709.746 -7403034 -7613248 -7705118 -7659837 -7494134 -7251147 -6982072 
3713.121 -6723888 -6496335 -6305337 -6151203 -6034204 -5956131 -5918185 
3716.496 -5919100 -5951883 -6005153 -6064526 -6119089 -6165446 -6208009 
3719.872 -6255435 -6315232 -6388341 -6466956 -6537756 -6587821 -6613015 
3723.247 -6618628 -6615658 -6612819 -6609458 -6593696 -6547025 -6454976 
3726.622 -6317942 -6155646 -6001820 -5888767 -5841531 -5872881 -5984924 
3729.997 -6171359 -6421415 -6721083 -7053504 -7403392 -7758304 -8108242 
3733.373 -8441814 -8738338 -8961962 -9067824 -9017590 -8808736 -8484512 
3736.748 -8115787 -7765464 -7470229 -7244663 -7088548 -6997298 -6965312 
3740.123 -6986897 -7056895 -7169937 -7321298 -7505141 -7711400 -7921726 
3743.498 -8100632 -8203779 -8204494 -8120503 -8004975 -7912518 -7878712 
3746.874 -7918115 -8036397 -8232390 -8496761 -8803606 -9105594 -9340314 
3750.249 -9440540 -9364083 -9110234 -8721873 -8265941 -7811548 -7410526 
3753.624 -7088385 -6853195 -6702225 -6627993 -6623718 -6681735 -6792200 
3756.999 -6937986 -7095459 -7233225 -7316313 -7317519 -7224492 -7048973 
3760.375 -6823971 -6594870 -6402642 -6272156 -6211602 -6214869 -6265526 
3763.750 -6339461 -6412175 -6463496 -6485008 -6484453 -6481352 -6496531 
3767.125 -6542293 -6618562 -6711882 -6799017 -6850520 -6842464 -6766886 
3770.500 -6636020 -6474334 -6308243 -6156561 -6027374 -5922434 -5840190 
3773.875 -5778792 -5737821 -5718954 -5725297 -5759631 -5823844 -5916747 
3777.251 -6033190 -6162637 -6288486 -6389713 -6448806 -6458338 -6426051 
3780.626 -6371036 -6315689 -6277643 -6265265 -6277937 -6306349 -6334792 
3784.001 -6344229 -6319379 -6253606 -6151203 -6025217 -5892330 -5769146 
3787.376 -5667251 -5594281 -5552705 -5540961 -5552770 -5579758 -5612271 
3790.752 -5641839 -5664602 -5682000 -5702309 -5737593 -5802038 -5907006 
3794.127 -6057469 -6248347 -6462059 -6671555 -6845400 -6963877 -7029151 
3797.502 -7065501 -7106868 -7186689 -7326739 -7531389 -7779198 -8015710 
3800.877 -8163622 -8151558 -7967989 -7674746 -7367071 -7116809 -6959866 
3804.253 -6902604 -6930910 -7015393 -7112018 -7169937 -7142266 -7013600 
3807.628 -6807335 -6572254 -6353437 -6177794 -6054986 -5982277 -5951981 
3811.003 -5955968 -5988519 -6047928 -6136045 -6256610 -6411392 -6598721 
3814.378 -6807303 -7013045 -7184440 -7296308 -7347817 -7365768 -7390721 
3817.754 -7458145 -7587592 -7783007 -8027972 -8284178 -8482043 -8541696 
3821.129 -8418417 -8140729 -7793453 -7464073 -7206177 -7034987 -6944215 
3824.504 -6915486 -6924584 -6943204 -6943660 -6908539 -6834963 -6737167 
3827.879 -6638207 -6562724 -6527442 -6538670 -6592684 -6676547 -6771257 
3831.255 -6857794 -6925269 -6974931 -7019925 -7078410 -7167786 -7298752 
3834.630 -7472932 -7683601 -7919383 -8163525 -8397000 -8599652 -8748957 
3838.005 -8822828 -8805944 -8695210 -8504624 -8260707 -7996745 -7740826 
3841.380 -7512339 -7318985 -7156639 -7013241 -6873807 -6728554 -6576953 
3844.756 -6429218 -6301450 -6210786 -6169987 -6184197 -6252463 -6369404 
3848.131 -6528258 -6723073 -6952921 -7221559 -7535948 -7904026 -8324260 
3851.506 -8773863 -9195169 -9483659 -9525541 -9283527 -8848411 -8367229 
3854.881 -7944207 -7610351 -7349544 -7133824 -6941410 -6763624 -6605215 
3858.257 -6479197 -6399475 -6377338 -6417171 -6515626 -6661864 -6841910 
3861.632 -7039225 -7236972 -7419418 -7568836 -7664818 -7689786 -7636592 
3865.007 -7519112 -7371892 -7240850 -7166450 -7175151 -7278225 -7469806 
3868.382 -7721524 -7976317 -8162321 -8218670 -8138193 -7968639 -7778483 
3871.758 -7616048 -7497684 -7413620 -7337067 -7237787 -7095002 -6910398 
3875.133 -6707543 -6519641 -6374889 -6292731 -6283391 -6349812 -6488436 
3878.508 -6687347 -6924388 -7162832 -7362184 -7490324 -7540377 -7531747 
3881.883 -7499312 -7476515 -7481465 -7516214 -7563334 -7590652 -7555356 
3885.259 -7426096 -7204352 -6931367 -6665747 -6456967 -6333747 -6302920 
3888.634 -6359869 -6490884 -6675895 -6882189 -7068305 -7192685 -7224492 
3892.009 -7158302 -7013404 -6824068 -6625448 -6447826 -6313762 -6236850 
3895.384 -6224864 -6279602 -6398463 -6573298 -6791091 -7035802 -7286208 
3898.760 -7521457 -7724225 -7884471 -8002081 -8086257 -8149933 -8203681 
3902.135 -8251377 -8286487 -8293085 -8248841 -8135429 -7946744 -7692195 
3905.510 -7392545 -7073097 -6757328 -6462516 -6201542 -5983551 -5813317 
3908.885 -5692138 -5618093 -5585515 -5586398 -5611453 -5652632 -5703977 
3912.260 -5763359 -5831723 -5913021 -6010904 -6127257 -6260530 -6403360 
3915.636 -6543598 -6666204 -6757328 -6808966 -6821296 -6800974 -6759122 
3919.011 -6706923 -6655827 -6616669 -6599439 -6612101 -6658634 -6737721 
3922.386 -6839594 -6945454 -7030977 -7068044 -7036878 -6934334 -6777880 
3925.761 -6598329 -6430425 -6302691 -6230122 -6216339 -6254618 -6331363 
3929.137 -6428761 -6528715 -6615854 -6677102 -6703922 -6690708 -6636836 
3932.512 -6546405 -6429675 -6302136 -6179657 -6077073 -6004369 -5964237 
3935.887 -5952667 -5959857 -5973289 -5980283 -5974401 -5956328 -5935377 
3939.262 -5925180 -5940182 -5989663 -6074688 -6184132 -6296878 -6388701 
3942.638 -6437738 -6435943 -6391803 -6326824 -6266539 -6232507 -6237406 
3946.013 -6282215 -6356931 -6443451 -6521077 -6571111 -6582371 -6554369 
3949.388 -6494997 -6415440 -6326824 -6237406 -6150942 -6068905 -5992440 
3952.763 -5922990 -5863139 -5815834 -5782780 -5763751 -5756296 -5756623 
3956.139 -5760252 -5764242 -5768165 -5773887 -5784317 -5802299 -5829500 
3959.514 -5864512 -5903378 -5939953 -5967374 -5979270 -5971950 -5945313 
3962.889 -5902561 -5849834 -5794714 -5744623 -5705938 -5683080 -5678272 
3966.264 -5691811 -5721504 -5763653 -5813055 -5863695 -5908837 -5943614 
3969.640 -5963877 -5968289 -5958681 -5940051 -5918381 -5900829 -5892199 
3973.015 -5894520 -5905732 -5920277 -5930998 -5930802 -5915080 -5883700 
3976.390 -5841171 -5794812 -5754072 -5727325 -5720393 -5734290 -5765876 
3979.765 -5808413 -5852744 -5889617 -5911485 -5914394 -5897593 -5863989 
3983.141 -5819006 -5768263 -5717646 -5671797 -5634283 -5608477 -5596930 
3986.516 -5601837 -5624308 -5663359 -5716141 -5776339 -5836202 -5887852 
3989.891 -5924461 -5943222 -5944268 -5931423 -5909000 -5880758 -5848527 
3993.266 -5812238 -5771010 -5725396 -5678272 -5635657 -5604944 -5592220 
3996.642 -5600758 -5628363 -5668461 -5710779 -5746356 -5767642 -5772350 
4000.017 -5762443 -5743544 
##END=
