##TITLE=bd_3b Sep 16 09:24:45 2026 (GMT+02:00)
##JCAMP-DX=5.01  $$ Nicolet v. 970
##DATATYPE=INFRARED SPECTRUM
##ORIGIN=Vojna akademija
##OWNER=Nicolet
##LONGDATE=2026/09/16
##TIME=09:25:14
##SPECTROMETER/DATA SYSTEM=Nicolet iS20
##DATA PROCESSING=
Ratio against background
%Transmittance->Absorbance
Truncated
ElementMultiply or ElementDivide
##COMMENTS=
Number of sample scans: 8
Collection length: 11,90 sec
Sample gain: 8,0
Background collected on: Wed Sep 16 09:13:38 2026 (GMT+02:00);
Number of background scans: 8
Background gain: 8,0
Sample spacing:  1,000
Number of scan points: 12415
Resolution points: 8286
Number of FFT points: 65536
Apodization: N-B strong;
Phase correction: Mertz;
Laser frequency: 15798,00 cm-1
Number of rejected sample scans: 0
Number of rejected background scans: 0
Bench serial number: BER2010005;
##RESOLUTION= 4,000
##XUNITS=1/CM
##YUNITS=ABSORBANCE
##FIRSTX=400.156891
##LASTX=4000.123047
##FIRSTY=0.032188
##MAXX=4000.123047
##MINX=400.156891
##MAXY=0.274375
##MINY=0.002068
##XFACTOR=1.000000
##YFACTOR=1.000000E-009
##NPOINTS=7468
##DELTAX=0.482117
##ZPD=6100
##XYDATA=(X++(Y..Y))
400.157 32187660 33159718 33889252 34271152 34278788 34002112 33613396 
403.532 33313420 33244308 33440050 33811344 34174284 34326548 34123064 
406.907 33542410 32687012 31751048 30950080 30501700 30565580 31198510 
410.281 32344836 33837564 35446048 36908256 38017296 38660280 38860908 
413.656 38772140 38629392 38671584 39059996 39880072 41153596 42883328 
417.031 45049848 47587728 50287112 52673592 54112536 54104956 52589808 
420.406 49935848 46690184 43378444 40385984 38007312 36398664 35565460 
423.781 35368720 35559708 35874552 36108104 36182496 36108280 35932640 
427.155 35686740 35374512 34993864 34572364 34189448 33959220 33974808 
430.530 34254768 34693476 35079712 35148612 34712748 33734488 32365970 
433.905 30888992 29664008 29016020 29128220 30001554 31441528 33145200 
437.280 34785936 36132948 37070472 37585588 37739092 37638880 37425852 
440.655 37245272 37238740 37502712 38051040 38797028 39575120 40205480 
444.030 40548484 40564092 40303192 39873824 39379204 38885512 38395820 
447.404 37865028 37231088 36461868 35578120 34654608 33793292 33091810 
450.779 32627034 32430802 32490786 32758608 33174202 33681636 34241108 
454.154 34830884 35433860 36030372 36596192 37099560 37513696 37826420 
457.529 38049988 38214220 38350396 38467896 38542404 38520900 38335844 
460.904 37931556 37280904 36414628 35425808 34469800 33709636 33269312 
464.278 33199560 33463706 33948436 34488736 34921072 35108340 34991568 
467.653 34603292 34052496 33477948 32997922 32686726 32557316 32571424 
471.028 32658682 32749924 32799628 32807558 32812492 32871134 33018086 
474.403 33239442 33467784 33599432 33525192 33158716 32481894 31564474 
477.778 30564834 29670322 29051622 28798610 28895846 29232122 29637082 
481.152 29943262 30018916 29819138 29385112 28823606 28249638 27753842 
484.527 27374736 27100160 26891816 26713624 26552662 26422462 26352604 
487.902 26371724 26499478 26738644 27076568 27488418 27943096 28398780 
491.277 28801726 29094100 29219044 29145938 28887736 28508450 28106804 
494.652 27782382 27612088 27618940 27765958 27962354 28100688 28085134 
498.027 27864232 27442992 26870596 26219262 25555164 24934188 24389376 
501.401 23932940 23563622 23272814 23050082 22885022 22769500 22697854 
504.776 22670102 22694644 22789544 22976854 23271344 23668264 24130482 
508.151 24592842 24969000 25182816 25186080 24977178 24603220 24158854 
511.526 23764708 23525914 23514512 23740454 24156648 24671602 25181656 
514.901 25594172 25840928 25892520 25753762 25454352 25032982 24530642 
518.276 23990186 23460438 23007004 22705954 22625524 22810354 23256280 
521.650 23904966 24644880 25344328 25868536 26112492 26031182 25646650 
525.025 25049410 24369224 23754068 23319452 23119480 23142824 23326828 
528.400 23584436 23826552 23988224 24032522 23956816 23789696 23582688 
531.775 23392458 23260404 23204476 23212586 23251420 23277148 23254740 
535.150 23168792 23028630 22862564 22709794 22608072 22580916 22637288 
538.524 22768592 22953834 23162150 23361058 23521156 23620612 23652134 
541.899 23624214 23560892 23492230 23446310 23438268 23465686 23512412 
545.274 23560684 23605812 23664940 23774718 23976846 24297628 24729580 
548.649 25225900 25707460 26093384 26318914 26361020 26239288 26002578 
552.024 25702118 25369722 25012486 24619176 24179698 23705216 23234570 
555.398 22830366 22559418 22465300 22556066 22795620 23119340 23445680 
558.773 23704620 23852210 23871744 23771986 23578874 23329730 23064060 
562.148 22825512 22655578 22584582 22629504 22786574 23032998 23331408 
565.523 23643946 23942986 24218408 24477738 24736980 25010204 25297262 
568.898 25580642 25829958 26015314 26116150 26131036 26077446 25988790 
572.273 25904444 25861502 25889496 26002684 26198498 26455246 26736494 
575.647 26993596 27178040 27257484 27224462 27101290 26932532 26775962 
579.022 26683042 26686812 26794182 26983372 27209716 27418850 27567884 
582.397 27632958 27617490 27547442 27466428 27419872 27441790 27543276 
585.772 27705774 27884972 28020912 28060780 27972674 27760058 27460638 
589.147 27140332 26872040 26710984 26685508 26786818 26976566 27199344 
592.521 27405932 27564388 27663148 27706056 27700158 27647894 27545748 
595.896 27387016 27170914 26906974 26617124 26331096 26079698 25890094 
599.271 25778868 25749298 25789274 25873774 25964658 26017354 25992166 
602.646 25859566 25612976 25272642 24885798 24510308 24197144 23972504 
606.021 23825992 23714592 23576776 23363608 23055360 22677258 22290592 
609.396 21979372 21816946 21840674 22039988 22356796 22703684 22985450 
612.770 23135836 23130312 22992994 22782698 22578752 22452634 22443072 
616.145 22547306 22717930 22880378 22950410 22869620 22620182 22233150 
619.520 21774512 21326732 20961744 20715590 20584418 20527514 20488608 
622.895 20413694 20276258 20083722 19874414 19696964 19591368 19570710 
626.270 19614628 19676370 19699910 19645308 19498862 19281314 19037598 
629.644 18828206 18706146 18702652 18820802 19036456 19307398 19585198 
633.019 19831892 20024072 20157090 20241022 20294068 20333270 20369972 
636.394 20408832 20451758 20502886 20573302 20676738 20827542 21029382 
639.769 21269416 21515084 21721178 21845310 21859106 21762006 21581832 
643.144 21369226 21177562 21048024 20999092 21022774 21091432 21171440 
646.519 21238100 21279196 21296210 21296420 21285910 21264718 21230444 
649.893 21184554 21140444 21124614 21172760 21313264 21555054 21875588 
653.268 22225720 22537500 22748200 22822262 22761260 22603814 22408846 
656.643 22238032 22127596 22079832 22064180 22037792 21962920 21830778 
660.018 21666772 21525250 21467004 21533642 21732848 22031412 22367436 
663.393 22667936 22879540 22977170 22965256 22863124 22692724 22465892 
666.767 22181572 21840604 21472784 21153558 20978504 20997318 21192696 
670.142 21511916 21898482 22303774 22689126 23033802 23334728 23613370 
673.517 23906822 24257754 24691278 25202794 25752252 26278290 26715706 
676.892 27014224 27157758 27162096 27065036 26907856 26727262 26550196 
680.267 26395560 26284450 26242528 26299200 26484370 26815048 27288002 
683.642 27872040 28515386 29151678 29717900 30172114 30497364 30705706 
687.016 30831540 30926242 31041642 31217132 31470418 31790760 32141916 
690.391 32471542 32729634 32879320 32910452 32842010 32719594 32602068 
693.766 32545566 32597852 32786944 33119846 33582820 34146504 34767628 
697.141 35394532 35978064 36474152 36855160 37117636 37283000 37393528 
700.516 37497800 37641156 37850388 38131444 38472456 38853368 39254384 
703.890 39664052 40080568 40509416 40957224 41429076 41928368 42458708 
707.265 43026388 43640824 44310252 45036796 45813748 46626804 47458680 
710.640 48298188 49147896 50024364 50954688 51964832 53073688 54287088 
714.015 55601040 57008056 58504520 60092720 61776312 63552336 65401232 
717.390 67284040 69151456 70948896 72633448 74180592 75578544 76818872 
720.765 77883752 78739752 79345912 79663920 79672360 79373280 78789568 
724.139 77958240 76919656 75718584 74399960 73007992 71585848 70164720 
727.514 68758520 67360832 65950052 64500204 62996036 61443272 59872576 
730.889 58331068 56865828 55513788 54289868 53185952 52174800 51221764 
734.264 50292284 49358844 48407560 47438796 46467212 45516932 44619392 
737.639 43802244 43080832 42451916 41892352 41366640 40834976 40269564 
741.013 39662708 39030488 38404144 37821392 37312824 36892204 36556148 
744.388 36286840 36059780 35847456 35625268 35371812 35067964 34699756 
747.763 34259824 33752468 33194982 32616854 32054156 31536076 31083284 
751.138 30701368 30383566 30116566 29887602 29688772 29516772 29371106 
754.513 29249806 29146858 29053110 28958424 28854342 28737610 28609904 
757.888 28476680 28345724 28228068 28136992 28088742 28101536 28188820 
761.262 28353894 28582724 28844498 29091656 29269760 29333460 29251792 
764.637 29020200 28657186 28201656 27700300 27201250 26750802 26384188 
768.012 26127516 25992308 25972644 26043670 26164324 26286104 26358732 
771.387 26344790 26227464 26013132 25726690 25404044 25083004 24793034 
774.762 24555078 24379878 24270262 24222544 24227308 24270788 24333898 
778.136 24396138 24439496 24450818 24425056 24364668 24274994 24160360 
781.511 24021142 23854590 23658468 23435994 23198988 22965362 22755462 
784.886 22583672 22453646 22358400 22284068 22217804 22154060 22097054 
788.261 22059788 22055568 22091684 22164138 22257178 22350482 22423360 
791.636 22465056 22476152 22467324 22453262 22446424 22452390 22466802 
795.010 22478700 22472872 22437630 22367262 22265756 22147192 22034236 
798.385 21952394 21923852 21960446 22057940 22194160 22333074 22437002 
801.760 22474198 22432432 22323482 22183072 22057520 21990872 22013042 
805.135 22129792 22324356 22562382 22808086 23032578 23222758 23382526 
808.510 23526228 23669838 23820776 23973798 24111356 24210422 24249870 
811.885 24222088 24137206 24024398 23922504 23873354 23907522 24033994 
815.259 24239884 24494006 24760026 25004764 25210836 25377660 25518722 
818.634 25650550 25784668 25920338 26045922 26143668 26199342 26209794 
822.009 26184138 26140360 26097396 26069530 26062528 26075122 26104362 
825.384 26148912 26210676 26291596 26388974 26491096 26576824 26623500 
828.759 26612334 26540158 26422004 26290646 26184632 26139268 26176994 
832.133 26300924 26497082 26740582 27005162 27267644 27513376 27735830 
835.508 27933448 28108076 28263536 28406208 28543624 28684654 28836106 
838.883 29000220 29172938 29343350 29498364 29624524 29713890 29766546 
842.258 29789824 29796106 29799408 29812964 29845578 29901978 29982454 
845.633 30083788 30201202 30330090 30467508 30613752 30771820 30946346 
849.008 31140628 31353086 31574630 31787764 31970404 32099854 32160044 
852.382 32147660 32074810 31966768 31855900 31776038 31753186 31799316 
855.757 31910636 32067962 32242332 32401026 32519318 32584318 32600030 
859.132 32585386 32569960 32583960 32647360 32767076 32932576 33123170 
862.507 33312454 33479880 33614220 33715940 33793332 33857980 33919524 
865.882 33982652 34047872 34114820 34183316 34256200 34337276 34430160 
869.256 34536592 34655292 34782308 34911056 35034200 35142148 35225252 
872.631 35274916 35286632 35263596 35218532 35172864 35150160 35166972 
876.006 35226764 35316604 35410240 35477796 35499584 35471396 35408588 
879.381 35337128 35285340 35272112 35302552 35370304 35465712 35583152 
882.756 35724224 35895856 36102880 36340912 36594104 36837812 37048096 
886.131 37211232 37327736 37411660 37480900 37548412 37615176 37671584 
889.505 37703928 37704436 37677400 37639316 37610552 37609000 37640940 
892.880 37700384 37773064 37844964 37907436 37958604 38000296 38032160 
896.255 38047276 38034616 37982324 37885492 37750584 37594368 37437700 
899.630 37296904 37179504 37083068 36999708 36922400 36849784 36786240 
903.005 36737196 36703768 36676908 36639092 36570888 36456100 36290332 
906.379 36081672 35848608 35611600 35388888 35193452 35032368 34908328 
909.754 34822444 34773944 34757004 34760380 34768992 34766192 34740888 
913.129 34692184 34630816 34573120 34534692 34521312 34526480 34532288 
916.504 34519516 34477332 34410792 34341004 34296072 34302492 34371196 
919.879 34493040 34639680 34775276 34866820 34894504 34857232 34769100 
923.254 34653352 34531068 34417180 34316224 34225080 34136720 34047300 
926.628 33959112 33882624 33833336 33828360 33880368 33993368 34159692 
930.003 34361624 34576344 34779544 34953464 35090236 35193776 35277212 
933.378 35357400 35450648 35567652 35712532 35884128 36079044 36294004 
936.753 36526808 36776216 37039944 37312968 37588188 37857040 38112564 
940.128 38350904 38571992 38778156 38971984 39154044 39323304 39477024 
943.502 39613700 39734012 39843280 39950284 40066796 40208572 40391620 
946.877 40632272 40943792 41331036 41787640 42292608 42814868 43315288 
950.252 43758740 44123968 44408312 44629456 44817868 45008720 45227744 
953.627 45486760 45781680 46098832 46420348 46732724 47031188 47319104 
957.002 47606140 47904648 48227724 48586984 48991196 49444756 49945104 
960.377 50482316 51038004 51592428 52127200 52632224 53108552 53565644 
963.751 54013880 54457016 54886768 55284136 55626344 55896048 56090696 
967.126 56224336 56323384 56413360 56511844 56620964 56728068 56812576 
970.501 56854800 56843432 56777684 56665508 56521092 56361636 56205256 
973.876 56071508 55979452 55942780 55965848 56038144 56135188 56220716 
977.251 56258392 56222112 56102728 55909504 55665324 55396440 55122500 
980.625 54853612 54590676 54330872 54073240 53822220 53586000 53372536 
984.000 53185616 53022512 52875148 52735280 52597436 52461136 52329028 
987.375 52203384 52082072 51957176 51815956 51644968 51435744 51186908 
990.750 50905992 50608056 50315424 50052656 49846200 49719752 49688208 
994.125 49753448 49900240 50098952 50307056 50482164 50594392 50633784 
997.500 50615244 50573436 50554452 50597076 50725904 50943920 51235972 
1000.874 51574336 51928308 52272740 52587380 52857672 53071820 53217900 
1004.249 53286856 53276332 53197340 53074328 52946296 52860028 52856360 
1007.624 52964040 53188424 53510848 53888648 54269364 54604128 54856992 
1010.999 55017596 55100156 55138896 55172496 55232996 55334940 55472824 
1014.374 55628112 55781652 55926312 56072980 56246588 56474564 56773984 
1017.748 57139324 57543112 57942648 58299616 58590136 58814412 58991092 
1021.123 59147572 59304220 59465596 59621560 59755072 59854092 59918900 
1024.498 59963176 60007836 60071640 60162132 60275672 60400776 60526112 
1027.873 60643552 60749788 60841412 60910480 60944184 60929508 60860584 
1031.249 60747156 60616276 60506724 60453024 60475452 60570256 60712216 
1034.624 60861232 60977700 61034096 61017240 60928136 60776392 60575436 
1037.999 60340120 60089564 59847700 59639124 59486040 59397132 59365944 
1041.374 59369020 59377492 59368716 59336996 59298028 59284848 59336048 
1044.750 59480684 59731156 60081152 60511252 60995584 61510304 62035420 
1048.125 62551676 63038716 63475012 63841476 64130768 64352976 64537420 
1051.500 64721672 64945020 65234168 65598072 66031636 66522888 67061528 
1054.875 67641992 68260344 68905816 69552216 70160080 70681656 71076920 
1058.251 71329888 71455800 71498456 71512944 71556624 71670208 71874256 
1061.626 72173216 72560128 73022024 73540648 74092120 74642952 75151816 
1065.001 75581608 75906584 76125328 76262008 76361224 76470784 76626736 
1068.376 76844936 77118216 77423272 77732576 78025336 78294160 78544656 
1071.752 78791944 79056800 79360752 79721920 80154360 80662424 81240792 
1075.127 81872856 82536376 83209664 83879648 84548296 85231320 85951320 
1078.502 86724872 87556176 88434240 89340744 90259584 91189616 92145720 
1081.877 93152472 94229848 95380720 96585424 97810328 99018888 100189208 
1085.253 101321904 102436160 103555432 104693200 105844560 106990200 
1088.146 108109048 109191712 110247480 111298800 112367048 113455832 
1091.039 114544160 115592320 116560032 117419904 118170384 118828920 
1093.932 119418752 119950776 120416600 120792016 121052984 121187944 
1096.825 121206384 121130184 120983368 120778408 120512616 120177680 
1099.718 119772312 119312248 118830848 118363680 117934048 117540672 
1102.611 117158512 116751096 116290096 115772584 115222920 114683328 
1105.504 114195392 113789840 113477304 113254864 113114600 113052696 
1108.397 113068296 113159224 113316024 113518480 113743688 113979304 
1111.290 114231856 114528928 114904864 115382496 115952784 116568360 
1114.183 117149872 117617216 117908360 117999912 117907488 117670864 
1117.076 117331208 116914096 116428960 115877008 115263928 114608224 
1119.969 113935616 113267640 112610080 111949616 111262408 110533256 
1122.862 109771448 109017664 108333120 107775392 107382536 107158568 
1125.755 107079488 107109936 107226552 107430736 107750544 108225048 
1128.649 108889104 109758520 110827216 112075904 113487416 115057064 
1131.542 116792624 118706752 120802560 123066728 125473096 127992976 
1134.435 130610880 133331584 136175104 139158656 142276160 145484096 
1137.328 148706976 151860416 154868912 157693136 160329968 162798496 
1140.221 165117872 167292624 169309952 171153360 172819920 174330752 
1143.114 175724640 177045840 178321952 179556912 180736592 181846704 
1146.007 182890144 183893680 184895504 185928048 186996368 188074144 
1148.900 189111728 190061536 190902032 191645472 192330576 192999744 
1151.793 193681504 194377504 195070080 195738448 196374896 196989936 
1154.686 197603888 198229568 198860000 199467840 200020224 200492912 
1157.579 200885232 201215536 201506144 201760496 201954688 202040912 
1160.472 201974544 201735136 201343760 200851824 200320624 199786656 
1163.365 199243568 198644944 197929728 197054272 196012480 194839104 
1166.258 193590160 192316640 191039328 189748320 188415104 187016752 
1169.151 185550112 184034480 182498400 180963568 179430720 177881472 
1172.045 176290176 174642128 172941872 171212448 169480864 167765456 
1174.938 166067936 164377632 162682384 160981088 159286784 157619104 
1177.831 155990128 154392656 152799152 151175456 149495664 147761104 
1180.724 146001264 144265568 142601232 141033616 139561824 138162848 
1183.617 136809328 135482832 134182152 132918400 131701736 130528968 
1186.510 129378464 128217208 127017456 125769080 124487112 123204304 
1189.403 121960192 120781952 119676104 118630024 117621208 116628688 
1192.296 115640280 114655544 113679408 112715040 111760568 110809432 
1195.189 109855160 108897496 107942528 107000168 106079016 105182352 
1198.082 104308256 103452536 102615064 101802208 101025312 100294936 
1200.975 99614624 98978472 98373480 97787712 97216816 96667704 96155832 
1204.350 95696728 95296696 94948192 94631776 94326584 94018608 93709000 
1207.726 93411112 93144552 92921440 92739720 92580784 92418720 92229296 
1211.101 92001344 91740672 91467128 91207064 90981520 90803960 90677128 
1214.476 90597240 90557440 90550424 90568344 90601688 90639696 90672480 
1217.851 90695256 90711184 90733440 90779744 90865712 90999792 91179720 
1221.227 91395792 91635304 91889024 92154536 92432984 92724424 93023400 
1224.602 93316784 93589992 93832232 94044200 94238448 94437232 94661488 
1227.977 94924112 95225768 95556280 95901048 96245272 96578960 96893448 
1231.352 97177400 97415600 97589208 97683560 97696664 97644056 97556360 
1234.728 97467352 97404080 97373720 97362736 97343416 97288608 97182912 
1238.103 97029152 96844416 96651432 96465744 96288576 96107216 95902328 
1241.478 95656872 95361112 95015656 94626424 94200784 93742256 93251560 
1244.853 92728608 92175344 91597456 91001752 90394208 89777456 89151608 
1248.229 88516256 87872992 87226912 86584016 85949544 85324664 84707696 
1251.604 84097792 83499384 82925784 82397440 81933272 81544152 81224816 
1254.979 80953248 80695256 80417888 80099688 79737488 79345160 78945912 
1258.354 78560928 78199376 77857104 77520816 77176872 76817216 76443992 
1261.730 76065528 75691960 75328096 74974024 74625792 74280240 73936368 
1265.105 73596464 73263296 72937280 72616016 72295888 71974160 71651568 
1268.480 71332152 71020152 70716440 70417384 70115224 69802960 69479104 
1271.855 69150448 68829560 68531144 68263560 68025360 67805648 67589416 
1275.231 67364976 67129856 66891080 66661940 66454040 66269704 66099108 
1278.606 65922672 65718904 65470264 65170220 64822488 64437940 64027696 
1281.981 63599704 63157296 62701216 62233108 61758668 61286116 60826316 
1285.356 60388284 59977824 59596132 59241668 58911584 58601548 58308064 
1288.732 58027544 57756440 57492420 57235336 56988216 56756424 56545848 
1292.107 56359484 56195072 56044856 55898572 55747144 55588236 55427572 
1295.482 55279620 55162336 55090032 55068408 55091728 55144540 55203648 
1298.857 55246692 55256592 55223064 55144580 55025300 54873612 54697956 
1302.233 54506408 54305112 54097524 53886096 53672484 53459132 53249960 
1305.608 53050328 52865532 52699888 52553684 52423748 52303464 52185488 
1308.983 52063996 51936968 51805804 51674304 51546052 51422948 51305472 
1312.358 51193880 51090852 51002676 50937400 50901672 50896380 50915192 
1315.734 50942840 50959940 50948948 50897684 50803480 50672504 50516108 
1319.109 50344668 50163956 49974324 49773736 49560432 49335980 49104524 
1322.484 48871484 48640048 48409740 48176704 47936688 47687560 47432104 
1325.859 47177280 46932280 46705240 46500736 46318592 46155280 46006840 
1329.234 45870088 45745192 45634616 45543352 45476792 45440440 45439448 
1332.610 45478040 45559396 45684384 45851304 46054988 46287444 46540160 
1335.985 46804612 47075424 47350360 47628912 47909864 48188852 48457084 
1339.360 48703392 48918540 49098404 49244416 49362856 49459680 49539856 
1342.735 49607784 49670076 49738212 49829364 49962128 50150304 50396872 
1346.111 50690716 51008156 51319344 51600116 51837052 52033216 52203236 
1349.486 52367156 52539848 52725592 52917924 53105588 53278576 53433160 
1352.861 53572580 53703340 53829272 53947620 54048400 54118540 54148604 
1356.236 54137156 54091780 54027008 53959812 53905116 53874732 53877808 
1359.612 53921548 54012640 54155732 54350544 54588120 54849400 55109556 
1362.987 55345176 55544552 55709472 55851280 55981792 56107704 56229656 
1366.362 56344508 56450000 56548188 56647388 56758236 56888340 57037408 
1369.737 57196476 57354272 57503428 57646996 57800416 57989184 58243192 
1373.113 58585284 59022864 59540872 60105124 60671176 61196156 61641724 
1376.488 61965212 62119056 62050824 61711876 61080812 60174804 59051976 
1379.863 57787852 56457732 55114448 53783964 52479568 51213340 50001388 
1383.238 48865512 47818192 46856312 45956708 45082852 44196300 43272932 
1386.614 42317952 41365180 40460972 39640708 38911824 38258044 37653948 
1389.989 37078340 36522736 35990772 35494012 35043036 34645528 34303960 
1393.364 34016588 33779504 33587692 33436328 33317354 33222056 33143304 
1396.739 33076614 33023018 32988484 32980404 33004820 33060882 33140942 
1400.115 33234220 33331130 33426524 33518892 33606452 33684716 33745088 
1403.490 33775708 33768260 33723892 33657788 33594600 33561344 33577452 
1406.865 33649520 33774632 33944996 34154892 34403440 34696488 35044292 
1410.240 35457192 35941136 36495564 37112732 37779828 38479152 39189076 
1413.616 39885300 40539140 41123364 41616872 42006580 42289612 42468612 
1416.991 42544980 42510232 42345348 42031652 41573224 41011844 40414096 
1420.366 39839320 39319896 38858808 38442084 38052520 37680872 37332576 
1423.741 37031064 36806396 36681704 36659892 36725444 36854076 37026916 
1427.117 37239208 37501412 37836324 38269836 38820580 39488016 40252300 
1430.492 41079220 41932748 42780828 43601116 44381956 45119356 45817320 
1433.867 46487532 47147368 47819932 48528068 49285276 50079128 50870860 
1437.242 51613512 52277004 52860400 53382540 53866404 54331360 54788764 
1440.618 55241572 55685664 56113548 56518224 56895780 57248032 57580408 
1443.993 57901528 58220232 58546188 58891472 59271936 59708952 60225992 
1447.368 60841032 61562148 62382188 63288756 64276352 65353320 66541388 
1450.743 67864336 69333720 70933408 72617344 74326160 75998176 77598296 
1454.119 79121512 80581632 81996584 83361784 84625432 85682200 86430480 
1457.494 86856056 87041120 87105616 87125136 87126752 87116472 87098944 
1460.869 87085496 87092256 87131936 87208160 87308576 87404352 87446544 
1464.244 87370688 87107608 86580504 85715176 84446944 82717288 80502864 
1467.620 77823696 74751992 71380616 67808400 64100200 60239052 56146840 
1470.995 51713716 46896180 41840504 36927776 32618784 29190834 26628292 
1474.370 24716672 23199234 21898098 20725912 19669298 18746000 17965602 
1477.745 17310652 16742527 16219066 15711488 15210063 14722789 14265026 
1481.120 13848725 13474996 13135808 12820499 12524925 12252660 12011766 
1484.496 11807093 11634747 11480908 11327803 11162378 10985156 10811504 
1487.871 10666004 10566281 10509215 10465258 10390557 10256869 10065331 
1491.246 9844865 9630303 9446119 9298604 9180954 9079270 8979945 8874657 
1495.104 8763882 8656889 8567934 8507480 8476834 8467070 8466495 8466630 
1498.961 8461731 8447575 8418960 8368695 8292767 8192068 8075425 7955777 
1502.818 7850332 7774596 7739616 7750916 7808060 7905937 8031646 8164955 
1506.676 8277907 8346266 8360791 8328398 8260211 8166947 8058851 7946902 
1510.533 7841121 7750140 7677457 7621207 7577744 7545005 7526058 7529429 
1514.391 7565167 7640260 7749263 7871756 7970693 8011159 7979873 7892946 
1518.248 7782658 7680762 7608933 7573799 7568977 7575923 7573158 7545241 
1522.106 7492987 7427694 7359951 7293903 7229382 7167059 7111819 7072650 
1525.963 7058673 7071774 7103028 7134723 7150352 7140617 7107811 7063388 
1529.820 7023078 7000248 7001662 7024998 7059179 7084808 7078577 7024324 
1533.678 6923178 6794894 6663956 6547556 6453281 6383538 6342887 6339222 
1537.535 6383571 6484053 6635695 6805126 6926848 6939069 6835722 6680713 
1541.393 6551323 6492999 6503728 6552635 6597544 6602859 6551424 6448505 
1545.250 6318209 6190709 6088984 6022256 5990811 5990911 6018930 6071881 
1549.108 6145237 6230202 6312057 6375703 6411043 6414776 6390834 6347527 
1552.965 6296189 6247849 6212018 6193667 6193331 6210438 6247782 6314679 
1556.822 6427823 6607905 6863492 7153013 7360726 7371376 7201184 6959136 
1560.680 6731928 6552736 6424225 6342147 6300997 6296559 6325034 6379200 
1564.537 6447294 6513449 6564240 6592497 6600605 6597577 6597577 6613557 
1568.395 6652585 6708910 6762585 6788735 6771874 6715910 6638689 6561145 
1572.252 6498448 6460074 6449447 6465287 6502686 6554452 6611270 6662274 
1576.109 6697268 6711602 6706891 6688990 6664596 6638454 6613019 6589504 
1579.967 6568075 6549271 6534370 6527105 6532083 6554586 6596030 6652382 
1583.824 6712006 6758412 6775172 6751850 6690538 6606223 6522833 6464547 
1587.682 6449918 6484187 6558320 6651339 6739264 6802467 6830437 6823504 
1591.539 6790384 6743908 6697167 6661602 6645822 6654502 6688486 6743740 
1595.397 6811319 6878674 6933413 6967318 6979136 6974725 6964523 6959876 
1599.254 6967991 6991291 7026345 7067800 7110808 7154091 7199803 7251719 
1603.111 7311526 7377745 7446401 7513888 7579160 7645183 7716883 7798580 
1606.969 7889773 7984665 8072252 8142740 8190886 8218979 8234445 8246703 
1610.826 8262879 8285573 8314551 8349104 8391023 8445852 8521401 8625084 
1614.684 8759859 8920077 9090199 9247695 9377112 9482353 9585757 9709718 
1618.541 9867235 10057735 10272101 10497911 10724042 10942543 11147284 
1621.916 11333551 11496932 11634679 11747140 11841653 11930601 12026890 
1625.292 12140101 12273007 12421024 12571206 12705712 12808691 12871419 
1628.667 12897290 12898758 12891249 12884901 12883843 12886675 12890225 
1632.042 12891727 12890396 12887358 12883740 12879098 12869610 12848449 
1635.417 12810363 12756550 12695237 12634547 12576868 12519707 12459144 
1638.793 12393646 12325534 12259919 12203993 12162113 12134751 12118295 
1642.168 12106983 12097375 12090697 12092878 12113422 12160716 12237698 
1645.543 12336919 12440527 12529290 12596549 12654845 12724715 12818076 
1648.918 12931936 13053340 13165486 13254979 13312578 13339364 13353305 
1652.294 13401417 13543051 13791773 14075855 14308822 14461611 14549966 
1655.669 14599171 14628264 14647353 14660341 14668395 14674015 14682789 
1659.044 14704211 14748462 14822408 14925891 15050665 15181171 15300493 
1662.419 15399729 15482507 15563686 15657522 15771305 15902475 16044755 
1665.795 16192824 16348410 16520884 16726034 16980790 17293584 17652772 
1669.170 18024692 18364266 18638938 18843638 18996856 19123670 19242694 
1672.545 19361786 19481224 19597088 19706776 19810632 19912396 20015434 
1675.920 20118704 20217728 20308618 20392232 20475132 20566492 20675662 
1679.296 20805644 20950374 21095222 21223696 21328262 21416146 21514144 
1682.671 21664162 21915836 22289090 22733152 23142370 23447534 23661022 
1686.046 23842094 24044534 24302884 24629660 25020066 25456848 25921430 
1689.421 26404784 26908808 27441474 28005750 28592174 29182720 29761188 
1692.797 30323836 30891838 31513914 32262564 33207000 34363056 35639296 
1696.172 36863348 37884876 38668216 39276948 39823052 40418496 41153708 
1699.547 42066296 43097188 44105808 44975052 45689716 46312580 46916000 
1702.922 47550756 48248532 49027952 49899420 50858716 51881932 52924324 
1706.297 53934792 54876056 55739232 56545624 57335408 58158220 59055200 
1709.673 60044324 61113232 62224352 63333376 64405464 65434440 66441952 
1713.048 67466288 68542976 69685432 70874272 72070992 73244032 74403624 
1716.423 75609648 76958024 78502728 80197752 81914472 83522840 84973160 
1719.798 86304432 87601496 88959824 90459040 92151992 94059096 96173080 
1723.174 98472400 100935096 103551904 106322736 109244976 112305040 
1726.067 115482256 118767464 122191840 125834104 129808992 134220336 
1728.960 139094880 144331152 149718432 154999680 160025952 164849536 
1731.853 169777200 175326400 182136000 190653120 200619504 210870336 
1734.746 219980864 227257840 232941248 237658928 241962528 246190576 
1737.639 250477488 254806064 259047088 263037120 266614352 269650016 
1740.532 272035008 273650944 274375456 274129632 272925216 270895552 
1743.425 268252704 265209680 261865024 258176512 253996320 249170624 
1746.318 243622592 237405440 230664320 223587520 216291136 208765104 
1749.211 200878432 192494608 183600800 174378032 165197008 156466864 
1752.104 148474384 141295024 134825456 128857296 123150264 117481608 
1754.997 111669720 105604696 99304072 92933960 86774264 81114248 76123368 
1758.373 71814792 68072992 64720824 61565812 58442728 55256024 52005648 
1761.748 48799144 45801524 43156212 40921832 39068264 37509108 36145548 
1765.123 34890768 33685824 32502498 31343792 30235516 29211176 28296740 
1768.498 27496324 26793266 26157462 25560542 24981460 24409176 23842620 
1771.874 23288056 22755394 22255226 21793568 21373298 20996274 20662874 
1775.249 20371084 20114434 19881594 19658168 19430110 19187212 18925656 
1778.624 18647412 18359772 18072910 17798526 17546880 17323892 17130006 
1781.999 16960772 16808926 16665019 16519232 16362689 16190177 16002124 
1785.375 15805356 15610120 15425375 15254880 15095500 14938270 14769715 
1788.750 14577241 14350465 14086020 13789071 13475886 13173581 12911320 
1792.125 12709601 12568068 12467567 12378850 12277983 12152435 11999809 
1795.500 11825888 11640907 11456447 11281485 11121618 10978359 10849789 
1798.876 10732091 10620604 10511286 10400365 10286656 10170163 10052988 
1802.251 9937269 9824054 9711852 9596562 9471584 9330595 9169312 8989044 
1806.108 8796510 8603689 8425143 8274090 8158304 8079138 8030938 8004139 
1809.966 7987163 7970491 7946294 7909513 7857147 7787583 7700762 7598244 
1813.823 7484087 7364298 7246564 7139607 7050254 6983042 6938901 6915502 
1817.681 6908130 6910756 6917960 6923919 6924458 6916816 6900421 6877899 
1821.538 6853495 6832995 6820137 6815796 6816166 6814449 6803544 6781028 
1825.395 6751884 6727486 6720183 6737043 6776283 6825826 6862920 6857366 
1829.253 6783519 6630648 6414978 6171317 5939045 5744165 5594982 5487122 
1833.110 5409817 5351177 5301936 5257295 5216784 5182815 5158304 5144791 
1836.968 5141505 5145394 5152536 5159175 5162394 5159511 5147876 5124037 
1840.825 5084041 5025277 4948255 4860626 4777336 4720221 4710541 4757035 
1844.682 4848865 4958879 5057424 5120953 5140566 5119746 5070430 5007713 
1848.540 4945910 4894804 4855935 4824976 4794019 4755996 4706186 4643388 
1852.397 4569046 4486849 4401923 4320595 4250223 4199167 4175581 4184346 
1856.255 4224795 4287868 4357676 4416116 4447548 4444836 4410760 4356472 
1860.112 4295497 4239717 4194851 4160526 4132728 4107641 4085364 4070480 
1863.970 4068875 4084026 4114297 4151361 4183944 4201040 4198062 4179528 
1867.827 4160794 4159858 4190368 4250959 4326151 4391982 4426593 4417153 
1871.684 4360655 4263808 4141358 4013726 3901009 3821045 3785614 3797613 
1875.542 3850996 3931601 4022053 4102590 4158620 4182472 4174945 4144202 
1879.399 4103225 4066567 4044728 4041918 4055062 4075430 4091184 4091184 
1883.257 4069009 4024194 3962129 3892617 3826326 3770506 3728763 3699856 
1887.114 3680006 3664234 3648362 3628782 3603256 3569614 3526353 3473344 
1890.972 3413963 3356226 3313120 3300065 3333186 3423213 3571919 3766863 
1894.829 3982392 4187858 4352757 4456887 4493043 4462779 4372336 4229880 
1898.686 4045932 3834382 3615117 3413595 3254027 3156259 3127323 3158862 
1902.544 3228156 3306242 3369449 3407183 3426753 3448161 3495890 3585850 
1906.401 3718069 3874598 4027471 4146878 4212951 4223088 4190434 4137946 
1910.259 4087973 4055965 4043959 4045330 4048005 4041952 4021619 3988211 
1914.116 3947784 3910136 3885229 3879646 3896562 3933574 3982861 4032253 
1917.974 4070480 4090916 4094663 4087538 4076233 4061851 4039444 3997273 
1921.831 3923610 3814760 3680173 3543657 3432999 3370751 3363238 3399670 
1925.688 3456744 3508516 3535038 3529059 3495489 3446491 3392690 3336993 
1929.546 3274826 3199950 3112305 3023544 2955350 2931798 2968461 3064519 
1933.403 3201085 3349213 3486337 3603858 3713290 3836120 3992190 4183777 
1937.261 4392317 4582172 4720589 4791306 4804237 4790468 4791674 4841326 
1941.118 4950903 5103418 5262125 5387943 5456822 5469237 5442797 5399417 
1944.975 5349399 5289123 5204309 5081426 4919468 4736635 4565899 4450694 
1948.833 4424852 4503120 4673262 4899295 5129100 5305189 5383347 5342019 
1952.690 5193142 4980028 4772177 4643455 4647172 4801758 5078610 5410690 
1956.548 5707267 5895716 5942001 5864078 5719790 5584443 5516651 5531350 
1960.405 5594646 5641873 5612637 5476652 5250185 4985424 4747421 4579661 
1964.263 4488691 4440753 4385289 4280037 4120953 3947049 3834181 3857348 
1968.120 4057503 4424852 4902445 5409146 5858335 6184693 6344635 6322883 
1971.977 6131258 5804638 5395626 4962064 4569448 4277962 4132494 4154773 
1975.835 4331572 4617702 4945373 5248240 5471687 5581288 5568233 5438905 
1979.692 5212961 4914441 4570117 4208534 3858083 3551073 3316425 3174983 
1983.550 3137235 3199650 3348112 3560427 3811852 4069009 4293121 4443731 
1987.407 4483803 4391514 4170194 3849358 3478421 3121283 2845242 2700686 
1991.265 2715123 2881430 3161733 3493986 3809011 4044862 4152966 4109982 
1995.122 3921604 3625708 3282604 2972865 2779677 2764871 2957052 3336559 
1998.979 3843742 4388870 4881870 5254478 5467559 5518665 5435114 5265981 
2002.837 5062854 4876073 4745243 4695301 4740453 4881736 5106034 5385696 
2006.694 5683364 5958595 6170980 6290441 6294475 6171216 5919866 5552123 
2010.552 5093696 4583947 4078708 3641813 3335423 3211700 3290283 3552443 
2014.409 3938322 4364973 4744875 5005702 5113007 5074453 4935990 4758978 
2018.266 4602364 4498935 4449255 4433522 4428066 4420668 4422643 4464419 
2022.124 4582004 4795259 5093059 5423874 5707300 5860854 5817734 5557963 
2025.981 5110861 4547985 3952867 3405313 2968861 2681482 2564810 2626009 
2029.839 2860184 3244280 3732405 4254707 4717441 5031277 5139628 5043881 
2033.696 4807688 4535931 4338064 4275285 4343486 4465223 4533252 4443564 
2037.554 4149086 3676063 3119848 2606042 2249953 2126771 2241027 2538580 
2041.411 2925927 3312619 3630821 3848622 3966543 4002624 3982459 3927121 
2045.268 3855676 3783407 3724151 3691702 3694709 3734845 3804833 3889976 
2049.126 3972260 4034193 4064393 4056300 4010181 3934242 3846149 3771676 
2052.983 3740360 3781268 3907495 4111119 4357610 4596437 4771842 4845280 
2056.841 4807521 4681602 4512963 4351451 4235635 4177621 4161497 4152866 
2060.698 4118746 4041317 3928826 3812721 3737118 3742833 3849358 4048473 
2064.555 4302357 4555652 4744406 4818610 4751809 4549324 4244970 3897966 
2068.413 3577866 3344338 3240975 3280735 3444253 3685654 3947884 4178391 
2072.270 4339738 4418793 4422375 4369156 4279502 4169927 4049343 3921872 
2076.128 3789925 3659289 3537844 3435904 3359832 3311985 3287779 3279900 
2079.985 3280267 3284374 3291352 3303070 3322902 3352753 3393725 3445857 
2083.843 3509651 3586084 3676163 3777993 3886031 3991087 4080180 4139050 
2087.700 4155943 4121689 4032688 3891748 3709313 3502303 3293355 3107400 
2091.557 2965392 2880563 2855047 2879295 2936602 3008530 3084140 3162600 
2095.415 3253026 3367378 3512357 3681777 3855275 4002757 4096636 4120385 
2099.272 4074360 3974802 3846550 3714927 3595973 3496357 3414998 3349414 
2103.130 3300366 3274091 3278698 3320198 3397833 3502570 3620229 3738354 
2106.987 3848556 3949456 4041617 4123830 4187691 4217534 4193245 4099981 
2110.844 3935012 3713791 3467031 3237103 3066654 2984308 3000055 3099824 
2114.702 3252358 3414430 3544258 3612611 3606865 3534972 3420107 3294089 
2118.559 3184896 3112305 3083373 3094685 3138237 3207794 3302836 3426653 
2122.417 3581173 3759878 3942601 4099680 4199234 4219207 4158887 4041149 
2126.274 3906592 3794438 3731503 3717835 3728094 3720374 3656215 3517835 
2130.132 3316859 3090113 2889235 2763971 2742964 2830101 3004626 3233531 
2133.989 3479790 3712922 3911875 4060881 4149554 4169258 4117374 3998410 
2137.846 3827830 3628782 3427188 3247952 3108134 3016671 2974533 2978770 
2141.704 3023210 3097555 3186799 3271921 3334054 3364206 3370283 3380535 
2145.561 3434635 3571652 3809412 4132026 4485711 4796029 4991491 5024472 
2149.419 4888270 4614219 4260261 3883557 3527756 3209730 2926428 2666680 
2153.276 2428411 2227805 2096306 2067674 2159936 2364175 2644510 2946810 
2157.134 3215772 3416467 3543055 3620162 3687625 3781569 3913613 4066801 
2160.991 4198430 4259090 4210877 4038741 3764222 3441982 3151954 2970730 
2164.848 2959320 3138170 3479924 3911340 4333781 4654239 4800753 4747722 
2168.706 4515106 4165043 3778528 3443552 3234999 3194409 3329213 3612310 
2172.563 3988846 4383247 4715029 4916586 4942759 4786984 4479551 4083424 
2176.421 3671719 3316926 3076265 2977702 3023477 3191939 3449029 3750018 
2180.278 4049042 4302893 4472320 4531311 4473625 4313467 4081518 3817133 
2184.135 3555683 3317227 3105764 2914653 2736929 2579876 2470262 2449170 
2187.993 2560377 2827199 3237403 3734645 4236338 4644962 4878888 4895173 
2191.850 4693492 4315676 3829201 3315724 2845876 2470662 2219079 2095440 
2195.708 2086550 2164265 2294486 2439240 2567010 2657945 2707954 2728359 
2199.565 2739096 2764905 2823797 2923059 3058613 3217808 3382806 3534303 
2203.423 3655513 3729899 3744437 3693005 3579770 3424115 3258868 3128825 
2207.280 3075798 3127223 3285476 3522645 3786984 4015866 4157850 4182940 
2211.137 4093091 3917458 3703866 3499965 3339864 3239840 3196078 3194543 
2214.995 3218876 3260103 3317227 3396831 3506044 3648696 3820075 4009947 
2218.852 4203583 4389539 4561445 4720891 4872823 5020886 5160315 5276982 
2222.710 5348124 5349097 5264640 5096177 4866423 4613549 4385154 4222252 
2226.567 4148584 4166113 4256112 4385590 4519860 4634011 4714929 4763132 
2230.425 4783902 4782629 4757839 4703071 4609463 4472621 4297538 4101152 
2234.282 3907228 3741596 3626043 3570282 3574458 3629885 3724351 3844945 
2238.139 3981356 4123161 4258321 4373038 4451799 4479618 4448920 4361492 
2241.997 4232457 4085866 3952666 3861894 3832911 3872391 3972093 4112591 
2245.854 4265247 4401656 4497696 4537973 4518521 4447012 4341277 4223322 
2249.712 4118813 4050346 4031952 4067805 4150190 4260328 4372972 4462411 
2253.569 4509280 4505129 4456185 4381105 4305904 4254640 4244201 4277962 
2257.427 4345360 4425220 4493010 4528732 4521400 4472554 4394861 4307076 
2261.284 4226099 4164206 4123797 4099078 4077905 4048105 4001520 3937018 
2265.141 3860724 3784678 3723583 3690031 3692170 3732840 3809980 3916589 
2268.999 4042955 4177855 4307578 4418593 4497897 4535194 4525384 4471718 
2272.856 4386293 4287466 4197895 4138047 4119549 4144034 4201642 4275921 
2276.714 4346866 4399413 4426794 4432417 4427329 4426158 4442493 4482229 
2280.571 4543096 4613415 4676243 4712684 4709067 4660703 4574470 4467667 
2284.428 4363935 4287399 4253703 4265013 4307912 4357810 4384519 4363031 
2288.286 4283149 4152230 3994798 3842706 3728930 3674726 3685286 3749951 
2292.143 3848455 3956645 4054795 4133029 4189999 4231151 4263474 4292653 
2296.001 4321499 4349410 4375415 4398744 4420166 4441723 4465457 4493277 
2299.858 4526489 4565430 4610636 4662411 4720120 4782629 4847793 4913637 
2303.716 4979156 5044820 5112705 5184625 5259978 5333835 5397035 5438805 
2307.573 5449306 5424244 5366306 5285837 5196697 5112336 5042741 4992395 
2311.430 4961561 4948389 4951339 4970040 5004897 5054306 5113912 5176544 
2315.288 5234926 5284528 5326187 5366104 5413541 5475747 5554070 5642444 
2319.145 5729526 5802119 5851719 5878117 5888864 5896320 5910494 5935451 
2323.003 5967363 5996623 6011539 6004013 5970789 5913685 5836976 5745675 
2326.860 5644122 5536014 5426391 5321793 5230399 5161355 5121288 5112437 
2330.718 5132285 5175236 5235630 5311093 5403074 5515779 5651205 5806384 
2334.575 5969210 6120134 6236925 6298710 6294542 6225732 6107499 5962693 
2338.432 5818473 5697867 5614449 5571891 5564541 5581221 5609045 5637912 
2342.290 5660973 5673327 5671984 5652648 5610958 5544438 5455044 5351277 
2346.147 5246630 5156191 5091618 5058261 5054909 5074520 5106771 5139561 
2350.005 5163333 5172252 5167893 5158739 5160181 5189085 5257932 5370667 
2353.862 5521551 5697867 5883692 6066001 6236790 6393390 6536826 6668263 
2357.719 6786178 6885541 6958159 6995433 6990516 6939709 6843463 6705916 
2361.577 6535413 6342719 6141742 5949089 5779655 5646338 5556587 5510980 
2365.434 5503329 5522725 5556923 5593908 5625660 5647781 5660134 5664699 
2369.292 5663323 5656844 5644155 5622606 5588840 5540780 5478498 5404382 
2373.149 5322631 5238783 5157968 5084041 5020148 4967526 4926774 4898088 
2377.007 4880295 4871248 4867227 4864379 4857845 4845280 4825914 4802495 
2380.864 4779212 4760519 4749029 4743468 4739113 4728093 4702971 4658660 
2384.721 4594562 4515608 4431246 4352322 4288503 4246242 4226802 4227070 
2388.579 4240319 4258822 4274985 4283818 4283082 4274416 4262369 4253469 
2392.436 4255477 4275319 4316780 4379666 4459365 4547248 4632303 4704311 
2396.294 4754824 4778877 4776029 4748627 4701698 4640575 4571557 4500140 
2400.151 4431580 4370595 4320662 4283752 4259659 4246242 4239115 4233025 
2404.009 4223021 4205256 4177956 4142128 4101252 4060848 4027638 4008376 
2407.866 4008175 4029411 4070313 4125804 4186888 4243230 4285525 4306372 
2411.723 4303026 4277126 4235368 4186654 4141425 4109681 4098241 4109848 
2415.581 4142697 4190602 4243866 4291615 4324946 4337730 4328593 4300885 
2419.438 4260696 4215828 4172905 4137077 4111387 4097673 4096703 4109213 
2423.296 4135304 4174109 4224126 4282714 4347101 4415547 4486247 4557092 
2427.153 4624198 4679894 4714493 4716905 4679458 4601092 4490565 4365106 
2431.010 4245740 4153334 4101252 4092388 4119515 4169626 4228006 4283685 
2434.868 4331472 4370930 4403329 4428668 4443899 4444502 4426124 4388636 
2438.725 4337730 4283718 4240152 4217501 4222152 4253502 4304633 4364973 
2442.583 4423714 4472956 4508745 4531880 4546846 4559436 4574973 4595466 
2446.440 4619008 4639603 4649215 4640139 4609631 4561277 4505330 4455080 
2450.298 4423882 4418392 4436668 4467600 4496658 4509849 4500843 4471516 
2454.155 4432986 4399246 4380937 4381941 4397271 4416384 4426894 4420066 
2458.012 4393757 4351987 4302993 4256146 4219642 4198598 4195620 4211077 
2461.870 4242227 4283216 4324210 4353627 4359450 4334484 4279569 4205356 
2465.727 4128848 4070079 4045162 4060748 4113227 4190769 4279736 4368119 
2469.585 4450761 4527963 4602364 4675071 4742262 4795359 4824876 4824004 
2473.442 4792847 4738343 4673664 4612678 4565597 4537672 4527494 4530005 
2477.300 4538643 4547583 4553174 4553241 4546311 4532114 4511188 4486447 
2481.157 4463382 4448954 4449590 4469006 4505899 4553275 4599786 4633743 
2485.014 4645330 4629825 4588869 4529837 4464654 4405974 4366512 4355702 
2488.872 4378360 4434392 4518454 4621117 4730069 4833956 4923590 4993703 
2492.729 5043780 5076062 5094266 5101742 5100233 5091014 5075660 5057390 
2496.587 5041769 5035098 5042875 5067045 5104122 5145260 5178958 5192472 
2500.444 5176410 5127121 5047434 4945742 4834022 4726585 4635384 4569916 
2504.302 4535730 4533922 4560976 4610569 4674099 4742396 4806348 4859621 
2508.159 4897552 4918630 4924026 4917994 4906634 4898189 4901473 4923557 
2512.016 4968766 5036305 5120517 5210177 5292410 5355303 5390795 5396867 
2515.874 5377745 5342053 5299621 5258703 5224396 5197837 5176611 5157364 
2519.731 5136711 5112370 5083706 5051356 5017467 4985189 4958678 4942290 
2523.589 4940045 4953584 4980933 5016193 5050250 5072911 5076867 5059401 
2527.446 5023534 4977715 4932337 4896413 4874967 4867931 4871516 4880429 
2531.303 4890616 4901171 4913570 4930628 4953249 4980196 5007679 5031545 
2535.161 5049546 5062988 5076498 5096210 5125780 5163803 5202733 5231975 
2539.018 5240325 5221948 5179260 5123433 5070732 5036741 5032215 5058261 
2542.876 5107207 5165144 5218829 5258435 5281141 5290599 5293517 5295899 
2546.733 5300594 5306363 5310086 5308979 5303713 5297911 5297777 5308577 
2550.591 5332023 5364696 5399182 5427095 5441388 5439811 5425149 5404248 
2554.448 5384958 5373317 5372210 5380597 5394888 5411125 5426592 5440918 
2558.305 5456218 5475310 5501752 5537558 5583369 5637912 5699076 5762934 
2562.163 5824752 5879628 5921578 5945495 5946872 5923829 5877042 5810346 
2566.020 5731372 5649896 5576757 5522289 5493934 5494940 5523028 5571689 
2569.878 5629889 5685513 5728150 5750812 5752189 5736073 5710893 5686117 
2573.735 5670339 5669332 5684438 5713948 5753834 5800407 5850980 5904583 
2577.593 5960947 6019333 6076451 6126721 6162175 6175518 6162377 6124032 
2581.450 6067076 6003308 5946502 5907270 5891417 5897932 5920268 5948652 
2585.307 5974451 5992625 6003241 6009725 6016813 6027397 6040735 6052427 
2589.165 6056089 6046211 6020979 5981875 5934746 5886748 5844465 5811790 
2593.022 5789628 5776868 5770757 5769447 5772100 5779286 5792482 5812797 
2596.880 5840637 5875195 5914156 5953321 5988056 6013521 6026120 6024776 
2600.737 6011639 5992188 5973947 5964407 5969009 5988963 6021080 6059382 
2604.594 6096679 6127225 6148766 6161638 6168594 6171921 6173266 6172191 
2608.452 6168426 6162243 6156193 6154714 6162982 6184559 6219749 6265497 
2612.309 6316528 6367095 6413229 6454121 6490780 6524649 6555696 6580858 
2616.167 6595088 6593069 6572044 6533361 6482943 6430513 6385790 6356134 
2620.024 6344669 6349880 6366860 6389186 6411346 6430076 6443797 6453415 
2623.882 6460309 6465993 6471778 6479143 6489401 6504233 6525053 6552366 
2627.739 6584895 6619613 6651945 6676204 6687813 6684246 6666682 6639463 
2631.596 6610126 6587653 6579109 6588528 6615306 6654872 6699791 6741889 
2635.454 6775812 6799270 6813675 6822494 6829696 6837809 6847065 6855985 
2639.311 6862583 6865781 6866488 6866690 6869046 6875139 6884363 6894529 
2643.169 6902339 6905302 6903316 6898636 6895842 6900252 6916310 6946140 
2647.026 6989304 7043351 7103971 7166150 7225811 7278741 7321467 7351661 
2650.884 7367534 7368983 7356918 7334003 7304383 7272878 7245082 7225306 
2654.741 7216816 7220824 7235884 7258323 7282953 7304686 7319917 7327903 
2658.598 7331307 7335789 7347583 7371713 7409662 7458435 7510887 7558357 
2662.456 7593793 7613317 7618273 7614362 7610181 7613148 7628761 7657492 
2666.313 7696579 7740224 7781916 7816595 7840953 7854448 7858193 7854482 
2670.171 7845676 7834442 7822397 7811130 7801515 7793824 7788156 7784378 
2674.028 7782152 7781477 7782658 7786369 7793824 7806204 7824658 7850062 
2677.885 7882149 7919738 7959861 7998334 8030971 8053384 8063543 8061856 
2681.743 8051358 8036946 8023411 8014129 8009539 8007311 8003160 7993238 
2685.600 7975553 7951491 7924732 7900706 7883937 7876615 7877661 7883295 
2689.458 7888829 7890078 7885016 7874388 7860959 7848544 7840582 7838962 
2693.315 7843449 7851479 7859340 7862545 7857079 7840818 7813154 7776654 
2697.173 7734962 7693173 7655874 7625928 7604482 7590691 7582430 7577541 
2701.030 7574069 7570764 7566617 7560683 7551613 7538161 7519686 7497403 
2704.887 7474480 7455030 7444109 7445323 7460356 7487897 7525114 7568067 
2708.745 7612676 7655874 7695062 7728047 7752468 7766365 7768423 7759214 
2712.602 7741505 7719885 7699514 7684708 7677525 7677727 7683258 7691824 
2716.460 7701773 7712971 7726091 7741775 7759450 7777024 7791463 7800199 
2720.317 7802730 7801144 7799525 7802730 7814875 7837713 7870171 7909344 
2724.175 7951761 7994115 8033908 8069822 8100675 8125758 8143989 8155299 
2728.032 8160567 8162187 8163740 8168771 8179406 8196052 8216784 8237990 
2731.889 8255213 8265006 8265040 8254572 8235154 8209423 8180453 8151721 
2735.747 8126467 8106583 8092979 8085451 8083122 8084742 8089839 8098279 
2739.604 8110398 8125860 8143044 8158304 8166644 8163200 8144529 8110668 
2743.462 8065197 8014939 7967555 7930097 7907117 7899862 7906409 7923247 
2747.319 7946159 7970862 7993913 8013049 8027157 8036473 8043224 8051291 
2751.177 8064557 8086194 8116474 8152328 8187745 8215434 8229852 8228536 
2755.034 8213408 8189738 8164719 8144057 8131667 8128999 8136055 8152295 
2758.891 8177921 8212833 8255753 8303270 8349712 8387713 8411596 8419366 
2762.749 8413488 8400246 8387679 8382409 8387476 8401461 8420717 8441190 
2766.606 8460819 8480145 8501939 8528903 8562392 8600952 8640800 8678962 
2770.464 8712969 8743124 8771389 8800331 8831304 8864072 8896775 8927383 
2774.321 8954982 8980250 9005181 9031939 9061576 9093989 9127385 9160649 
2778.178 9193171 9225898 9260862 9299383 9342004 9387912 9435215 9482522 
2782.036 9529632 9577932 9629387 9685762 9747093 9812091 9879031 9946355 
2785.893 10014569 10085204 10160733 10242349 10328594 10415705 10498251 
2789.269 10571408 10632285 10681659 10722955 10760757 10799581 10842179 
2792.644 10889878 10942951 11001468 11066552 11139125 11219938 11308384 
2796.019 11401917 11497681 11592922 11686379 11778597 11871584 11967486 
2799.394 12066952 12169201 12271849 12372373 12469476 12563737 12657472 
2802.770 12753855 12855241 12962284 13074100 13188609 13303695 13418162 
2806.145 13531771 13645067 13758871 13873629 13990265 14110116 14235102 
2809.520 14368205 14512039 14667983 14835333 15011081 15190709 15369520 
2812.895 15544970 15717054 15889036 16065281 16250540 16447922 16657960 
2816.271 16878848 17107430 17341168 17578310 17819344 18066588 18323966 
2819.646 18594842 18882568 19188286 19511338 19849234 20198324 20555270 
2823.021 20918038 21287442 21666528 22060764 22475872 22916388 23384658 
2826.396 23880250 24401186 24945346 25512080 26103448 26723316 27376076 
2829.771 28064774 28790078 29550286 30341886 31162484 32012172 32894652 
2833.147 33817256 34790384 35825720 36934376 38127612 39415232 40807092 
2836.522 42313024 43943368 45708824 47622072 49697348 51951796 54406612 
2839.897 57084156 60008100 63200296 66675848 70442440 74498176 78833504 
2843.272 83430560 88268144 93322288 98563976 103961928 109477992 115064712 
2846.648 120670424 126233640 131687640 136966448 141999584 146718752 
2849.541 151058656 154953376 158341840 161167584 163379232 164937584 
2852.434 165816960 166009264 165526496 164400560 162680512 160423184 
2855.327 157694736 154559776 151079728 147316464 143327648 139170240 
2858.220 134902704 130577488 126246008 121954976 117742728 113645096 
2861.113 109692272 105909288 102318728 98937696 95778752 92850784 90159256 
2864.488 87708448 85502304 83543600 81832288 80362744 79120840 78081568 
2867.864 77209800 76465288 75801504 75175728 74550880 73895320 73187056 
2871.239 72410688 71557280 70624504 69616664 68545576 67428984 66291632 
2874.614 65161324 64065180 63029364 62074176 61214160 60458356 59810244 
2877.989 59270532 58837936 58510588 58287564 58169432 58156624 58250356 
2881.365 58449552 58751096 59147572 59629428 60185460 60805392 61482968 
2884.740 62216740 63010172 63869260 64799904 65805560 66884316 68029584 
2888.115 69231192 70478216 71760216 73069928 74402128 75753808 77123320 
2891.490 78509400 79910824 81327808 82760544 84210368 85678200 87164016 
2894.865 88666680 90183848 91712976 93252712 94803416 96367496 97948888 
2898.241 99552688 101184312 102848792 104551032 106295688 108086440 
2901.134 109925360 111812816 113746952 115725304 117745552 119808512 
2904.027 121918336 124082912 126312256 128616632 131003920 133479160 
2906.920 136045520 138704800 141459920 144315280 147275728 150345632 
2909.813 153527552 156820336 160220416 163724240 167327456 171027200 
2912.706 174820496 178701600 182659840 186679184 190735392 194801088 
2915.599 198844976 202833184 206732384 210505584 214112736 217513056 
2918.492 220661872 223515600 226035248 228184800 229936000 231267360 
2921.385 232164592 232622480 232644432 232243184 231436944 230248768 
2924.278 228703040 226822256 224629520 222149296 219408624 216440176 
2927.171 213278848 209958160 206509040 202953696 199307696 195581872 
2930.064 191784624 187926512 184020960 180082368 176126368 172165840 
2932.958 168210784 164269472 160349280 156459168 152611168 148818368 
2935.851 145095536 141455936 137909792 134464224 131123096 127887888 
2938.744 124759280 121737752 118824696 116022456 113334264 110763248 
2941.637 108312584 105984520 103780912 101702944 99752544 97932656 96247712 
2945.012 94702152 93300688 92045856 90936704 89968536 89132728 88418400 
2948.387 87811912 87299752 86867344 86499096 86179760 85892480 85620048 
2951.762 85346688 85056536 84736168 84373304 83956424 83475128 82920168 
2955.138 82284056 81563224 80758464 79875096 78920640 77903496 76829240 
2958.513 75699184 74511072 73261144 71946744 70569728 69137384 67661432 
2961.888 66155552 64632728 63103036 61572764 60045044 58521768 57003976 
2965.263 55494020 53994628 52509744 51044528 49605928 48201880 46841404 
2968.639 45533196 44282368 43090124 41952088 40860200 39803840 38773952 
2972.014 37765008 36776068 35809780 34871380 33966568 33099786 32274022 
2975.389 31490616 30749804 30050304 29389084 28761542 28161032 27581088 
2978.764 27016832 26466444 25932228 25418728 24931592 24473462 24043412 
2982.140 23636214 23244778 22862320 22485364 22114626 21754342 21409984 
2985.515 21085552 20782424 20499168 20233036 19982056 19746616 19529084 
2988.890 19333138 19160998 19013022 18886894 18778900 18685738 18606048 
2992.265 18541276 18494702 18469392 18467214 18487128 18525958 18579592 
2995.641 18644230 18718254 18801804 18896274 19002878 19121420 19249864 
2999.016 19383476 19515636 19639136 19746130 19829812 19885132 19909448 
3002.391 19903170 19869592 19814864 19745646 19667252 19582702 19490960 
3005.766 19388152 19268014 19125262 18956322 18760494 18539374 18296524 
3009.142 18035572 17759762 17472192 17176230 16875852 16576059 16282015 
3012.517 15997723 15725231 15463038 15207489 14953051 14694751 14429446 
3015.892 14156635 13878761 13599525 13323374 13054467 12796133 12551391 
3019.267 12323148 12114206 11926991 11762903 11621032 11497579 11385759 
3022.643 11277642 11165709 11044187 10911793 10770539 10626309 10485827 
3026.018 10355333 10239329 10138721 10052309 9977274 9911031 9851880 9799686 
3029.875 9755428 9720221 9694064 9675497 9660996 9645886 9625425 9595682 
3033.733 9555440 9505721 9450182 9393601 9340717 9295185 9257613 9226440 
3037.590 9197943 9167586 9132123 9090369 9044152 8997366 8954746 8920009 
3041.448 8894779 8877532 8864680 8851931 8835091 8811760 8780821 8742684 
3045.305 8696810 8643335 8581148 8510454 8432643 8352177 8275171 8208478 
3049.162 8157393 8124172 8106887 8100101 8097502 8093587 8086093 8076202 
3053.020 8068269 8067898 8079273 8104186 8140917 8184843 8229042 8266695 
3056.877 8292057 8301210 8293274 8270106 8235762 8195850 8156616 8123935 
3060.735 8101250 8089704 8087544 8090818 8094059 8092607 8083190 8064759 
3064.592 8038937 8008256 7976735 7947273 7922403 7902562 7887210 7874051 
3068.449 7860319 7843078 7820575 7792576 7761035 7729633 7702987 7685517 
3072.307 7679750 7685922 7701571 7721673 7741505 7755672 7760867 7755166 
3076.164 7738604 7712634 7679919 7644340 7609709 7579766 7557278 7542039 
3080.022 7531756 7521878 7507280 7483784 7450446 7410066 7368814 7334171 
3083.879 7313043 7309403 7323489 7351661 7387991 7426009 7459614 7483918 
3087.737 7495549 7492683 7474446 7442087 7398539 7348594 7298115 7252629 
3091.594 7215670 7188315 7168508 7152878 7137821 7121890 7105386 7090803 
3095.451 7080833 7076725 7077701 7081439 7084639 7085178 7083258 7081103 
3099.309 7082652 7091577 7110034 7137653 7171843 7208023 7241645 7268397 
3103.166 7285075 7290163 7283391 7265904 7240331 7210617 7181275 7156482 
3107.024 7139135 7129636 7126167 7124550 7120610 7110943 7094776 7074199 
3110.881 7054060 7039983 7037323 7049379 7075883 7113671 7155977 7195255 
3114.739 7223991 7237029 7232582 7213009 7183700 7150992 7121081 7097538 
3118.596 7080934 7069787 7062007 7056383 7053992 7057865 7071269 7095854 
3122.453 7129670 7167093 7199635 7218938 7219241 7198725 7160390 7110943 
3126.311 7058236 7009137 6968664 6938430 6917926 6904763 6896246 6889614 
3130.168 6882881 6874971 6867026 6861203 6861371 6872008 6895842 6933346 
3134.026 6980617 7031631 7078173 7112829 7131186 7132298 7118959 7095248 
3137.883 7065544 7032709 6998093 6962334 6926478 6892981 6865815 6849219 
3141.740 6846224 6858038 6882780 6916984 6956206 6996241 7034023 7067160 
3145.598 7094372 7114412 7126807 7131455 7129939 7124247 7117241 7110640 
3149.455 7104712 7097538 7085986 7067463 7040960 7008060 6972940 6940651 
3153.313 6915873 6900723 6895236 6896448 6900925 6905167 6906278 6902979 
3157.170 6894630 6881636 6865074 6847301 6831817 6822931 6824749 6839660 
3161.028 6867363 6904427 6944692 6981223 7008767 7024627 7030049 7028702 
3164.885 7026547 7028533 7038367 7056989 7082854 7112189 7139506 7159009 
3168.742 7165341 7154899 7127010 7085010 7035706 6988261 6952334 6935164 
3172.600 6939271 6962402 6997857 7036885 7070360 7092116 7099088 7091712 
3176.457 7072448 7045371 7014896 6985096 6959304 6939877 6927791 6922236 
3180.315 6921024 6920754 6918701 6913786 6907860 6905235 6910958 6929474 
3184.172 6962233 7006040 7054262 7098953 7132971 7152508 7157560 7152036 
3188.030 7141729 7131085 7123170 7117882 7112998 7105689 7093598 7076186 
3191.887 7054935 7033080 7014525 7003043 7000955 7008666 7024156 7043384 
3195.744 7060963 7071404 7071168 7059179 7038266 7013987 6993008 6980987 
3199.602 6980314 6989506 7003952 7016714 7022741 7019038 7007285 6992873 
3203.459 6982772 6983210 6997554 7024526 7058943 7092789 7118353 7129670 
3207.317 7124786 7105824 7078173 7047594 7019947 6997419 6979977 6964456 
3211.174 6947722 6926713 6900690 6871537 6842622 6817613 6799640 6789947 
3215.031 6788029 6793077 6803443 6818556 6838044 6861472 6887797 6914796 
3218.889 6940483 6962806 6981863 6999642 7018869 7042913 7072852 7106565 
3222.746 7139506 7165409 7178041 7173695 7151531 7114412 7067598 7016882 
3226.604 6968563 6928599 6901397 6891465 6901161 6930854 6977149 7032608 
3230.461 7087199 7129670 7151396 7149139 7126033 7090432 7054094 7027691 
3234.319 7017051 7022708 7039747 7060963 7079250 7090803 7095383 7095618 
3238.176 7094810 7094945 7095989 7096427 7094675 7090701 7086963 7088310 
3242.033 7099525 7123708 7160120 7204351 7248586 7283862 7303439 7304147 
3245.891 7287131 7257042 7220622 7185115 7155270 7134992 7125595 7126639 
3249.748 7137047 7154630 7177064 7201352 7224328 7243128 7255358 7259704 
3253.606 7256570 7247676 7235109 7221936 7210246 7201858 7197916 7198893 
3257.463 7205395 7217860 7236154 7259974 7288108 7318434 7348392 7375622 
3261.321 7398539 7416875 7431604 7444446 7456985 7470030 7482840 7493357 
3265.178 7498751 7496122 7483581 7461199 7430660 7394832 7357154 7320793 
3269.035 7287704 7259030 7235042 7216074 7203172 7198624 7204957 7224497 
3272.893 7257682 7302024 7351694 7398573 7434401 7452570 7451154 7432817 
3276.750 7404876 7375858 7354053 7343809 7345056 7353851 7363928 7369893 
3280.608 7368848 7361131 7349403 7337912 7328948 7322882 7317255 7309100 
3284.465 7295285 7275742 7252999 7232448 7220555 7222576 7241241 7276079 
3288.323 7323051 7375723 7427964 7474143 7511326 7539173 7558761 7572652 
3292.180 7582532 7589005 7591366 7588466 7579227 7564392 7546185 7528688 
3296.037 7515742 7509809 7510753 7516045 7521372 7523091 7520192 7514933 
3299.895 7512337 7517529 7533779 7560177 7591366 7619521 7637663 7641879 
3303.752 7633718 7619117 7606573 7603268 7612474 7632841 7659212 7685214 
3307.610 7705753 7719582 7728115 7735872 7746362 7761575 7780735 7800773 
3311.467 7816932 7825399 7823241 7809207 7783906 7749769 7710644 7671690 
3315.324 7638506 7617194 7611327 7622657 7648690 7684505 7723730 7760597 
3319.182 7791800 7817000 7837646 7856270 7873747 7889166 7899727 7902596 
3323.039 7895679 7879887 7858125 7834407 7812546 7793790 7777395 7761103 
3326.897 7742753 7722044 7700829 7682954 7673106 7674354 7687574 7710846 
3330.754 7740156 7771054 7799694 7823746 7843246 7859576 7874219 7889335 
3334.612 7904688 7919265 7930434 7935699 7932965 7922100 7905363 7886906 
3338.469 7871790 7864637 7867640 7880361 7899627 7921087 7940828 7957870 
3342.326 7973765 7992394 8018348 8053755 8097300 8143719 8184843 8211855 
3346.184 8218202 8201049 8162254 8107866 8046497 7986589 7936677 7902089 
3350.041 7885523 7886704 7901989 7925407 7949264 7966374 7970727 7960400 
3353.899 7936981 7906240 7876648 7856405 7852491 7868889 7905160 7957600 
3357.756 8019664 8084100 8143145 8190616 8222288 8236808 8236268 8225699 
3361.614 8212665 8203920 8204493 8215434 8233466 8251667 8262136 8258657 
3365.471 8238970 8205777 8165900 8128054 8099798 8085856 8086666 8099224 
3369.328 8118163 8137979 8154219 8164078 8167049 8164246 8158068 8151687 
3373.186 8148851 8153071 8166711 8190514 8222863 8260109 8296448 8326270 
3377.043 8344983 8350082 8342111 8323974 8300737 8277468 8259502 8250654 
3380.901 8252950 8266661 8290301 8320664 8353022 8382375 8404130 8415583 
3384.758 8416393 8409197 8398658 8390009 8387780 8394402 8409197 8429230 
3388.615 8450346 8468353 8480381 8486193 8486869 8485213 8484031 8485314 
3392.473 8489504 8496059 8503831 8511771 8519712 8528295 8538499 8550969 
3396.330 8566041 8582770 8599735 8616059 8631505 8647256 8665103 8686736 
3400.188 8712461 8740927 8769123 8793197 8809832 8817677 8817711 8812875 
3404.045 8806924 8802765 8801514 8802393 8802935 8801244 8796477 8789985 
3407.903 8784338 8782918 8788294 8800635 8818895 8840603 8863057 8884802 
3411.760 8905602 8925894 8946526 8967193 8985933 8999836 9005857 9002000 
3415.617 8988131 8966381 8940742 8915477 8894779 8880980 8874893 8875874 
3419.475 8882164 8891364 8901949 8912602 8922850 8932422 8941453 8949908 
3423.332 8957824 8965028 8971353 8976731 8981096 8984275 8986373 8986981 
3427.190 8986643 8985763 8985459 8987285 8992597 9002474 9016378 9032818 
3431.047 9048855 9061136 9067463 9067226 9062455 9057009 9055723 9062388 
3434.905 9078865 9103665 9133104 9162510 9187147 9204982 9216659 9225052 
3438.762 9234258 9248101 9268444 9295185 9325618 9356121 9383206 9404233 
3442.619 9418521 9427156 9432845 9438601 9446863 9459122 9475106 9492784 
3446.477 9509378 9522384 9530513 9534746 9538031 9544806 9558354 9580540 
3450.334 9610485 9645344 9680646 9712394 9738451 9759427 9778031 9798263 
3454.192 9823376 9854694 9890996 9928658 9963000 9989784 10005482 10008975 
3458.049 10000838 9983851 9961780 9939879 9923403 9916658 9922827 9941845 
3461.906 9970527 10003855 10035559 10060889 10077200 10085204 10088256 
3465.282 10090596 10096022 10106671 10123153 10144250 10168535 10194755 
3468.657 10221859 10248896 10274476 10296530 10313291 10323572 10328119 
3472.032 10329341 10330256 10333140 10338197 10342200 10340606 10328288 
3475.407 10303112 10267046 10225963 10188106 10161140 10149167 10152084 
3478.783 10164430 10178507 10186004 10180813 10160801 10128139 10088053 
3482.158 10047529 10013145 9989615 9979816 9984326 10001888 10029353 
3485.533 10061940 10094326 10120236 10134515 10134176 10118778 10090427 
3488.908 10052886 10010874 9968086 9927607 9892013 9862863 9841882 9830324 
3492.766 9829308 9838797 9857710 9883810 9913776 9943811 9969849 9988598 
3496.623 9997311 9995006 9981851 9959644 9931946 9903098 9877031 9857100 
3500.481 9844661 9838933 9837238 9836120 9832765 9826155 9817514 9809379 
3504.338 9804940 9805719 9811514 9820564 9830596 9839306 9845610 9849271 
3508.196 9850694 9849847 9845983 9837069 9820936 9795857 9761562 9719442 
3512.053 9672718 9625289 9581083 9543281 9513578 9492513 9479644 9473785 
3515.910 9474428 9480931 9492716 9509345 9530106 9553510 9578068 9602220 
3519.768 9624509 9644193 9660929 9674244 9683290 9686745 9682713 9669635 
3523.625 9646597 9614110 9574646 9531562 9489533 9453331 9426310 9411004 
3527.483 9407754 9415406 9431117 9451774 9473921 9494951 9512393 9524213 
3531.340 9527972 9522350 9506229 9479542 9444222 9403623 9362859 9327954 
3535.198 9304934 9297487 9306424 9328496 9357577 9385237 9404436 9410158 
3539.055 9400745 9377958 9346033 9310893 9277414 9249422 9228200 9213376 
3542.912 9202952 9194287 9185658 9175877 9164846 9153001 9141191 9130871 
3546.770 9123020 9118926 9119197 9123730 9131378 9140210 9147215 9149177 
3550.627 9143357 9128130 9102819 9068410 9026357 8977983 8924169 8865695 
3554.485 8804152 8742178 8683660 8632553 8591894 8561614 8538703 8517043 
3558.342 8489200 8449568 8395752 8330729 8261326 8197369 8147433 8117926 
3562.199 8110938 8124780 8154692 8194363 8237720 8277805 8309012 8325359 
3566.057 8322217 8297259 8251093 8188590 8116846 8042582 7972111 7909311 
3569.914 7857890 7820677 7798783 7791867 7796826 7807419 7815549 7813694 
3573.772 7796623 7763464 7717929 7666935 7618071 7576226 7543016 7516079 
3577.629 7491537 7465278 7435311 7402449 7369724 7340136 7316177 7297172 
3581.487 7280729 7263006 7240196 7209943 7172685 7131725 7092789 7064836 
3585.344 7056922 7077466 7129670 7207113 7292084 7360793 7394697 7387182 
3589.201 7345629 7285817 7225878 7180163 7157392 7159244 7180433 7208831 
3593.059 7229415 7229146 7200039 7143278 7067059 6984220 6906312 6840501 
3596.916 6789139 6750739 6721731 6698479 6678459 6660996 6646461 6636738 
3600.774 6633676 6638588 6651138 6668701 6687207 6701339 6705781 6696696 
3604.631 6672537 6634685 6586880 6535211 6486676 6447160 6420391 6407781 
3608.489 6408387 6420593 6443797 6478134 6523909 6580084 6643635 6707733 
3612.346 6762956 6798765 6806708 6784427 6736067 6670619 6598317 6529527 
3616.203 6472719 6434919 6421636 6435154 6472315 6524010 6577359 6618873 
3620.061 6640640 6641750 6626779 6602758 6575980 6551189 6530973 6516375 
3623.918 6507731 6505040 6507933 6515736 6527475 6540896 6553106 6559362 
3627.776 6554149 6533327 6497944 6455466 6416054 6386732 6369482 6362690 
3631.633 6362892 6365885 6366927 6360942 6344635 6317873 6284927 6252723 
3635.490 6229698 6222035 6231782 6256387 6288289 6318411 6338281 6343290 
3639.348 6334246 6315957 6295147 6276792 6263043 6252824 6243513 6232891 
3643.205 6221497 6212354 6209833 6218169 6239849 6274237 6318411 6366456 
3647.063 6411850 6449211 6474939 6486407 6481867 6458829 6417970 6365246 
3650.920 6310914 6265531 6236186 6225295 6230606 6247816 6270976 6294307 
3654.778 6311217 6316394 6306644 6282171 6246269 6203985 6160730 6121243 
3658.635 6089555 6069395 6062843 6069798 6087271 6110087 6131761 6147590 
3662.492 6155655 6157067 6155252 6153370 6153168 6154042 6154311 6152160 
3666.350 6147623 6142684 6140600 6144364 6154345 6166914 6174308 6168964 
3670.207 6149505 6123831 6104710 6103232 6126486 6177568 6257228 6362858 
3674.065 6486374 6610429 6706050 6747172 6727553 6664057 6579815 6492159 
3677.922 6409900 6336667 6275649 6229463 6200725 6190642 6198170 6219379 
3681.780 6248051 6277733 6300997 6311586 6306611 6286642 6256791 6224455 
3685.637 6198507 6186373 6191785 6211917 6237060 6251278 6238001 6189801 
3689.494 6112271 6021819 5936761 5871198 5831066 5816189 5822838 5847622 
3693.352 5888058 5942975 6010800 6087103 6164427 6232354 6280389 6301400 
3697.209 6294441 6265632 6225127 6183651 6150514 6131526 6127090 6133778 
3701.067 6144599 6151119 6145843 6125276 6089354 6041306 5986007 5929841 
3704.924 5879326 5841308 5820991 5821293 5841678 5877244 5921209 5965347 
3708.781 6003241 6032436 6055686 6079307 6109549 6148497 6190709 6225799 
3712.639 6242303 6234639 6204187 6158277 6106457 6059583 6026624 6013555 
3716.496 6023398 6054275 6100846 6154546 6206842 6251446 6286003 6311788 
3720.354 6331926 6349107 6364338 6375770 6380107 6375333 6361783 6342887 
3724.211 6323723 6309704 6303686 6304930 6308695 6308695 6299349 6278069 
3728.069 6245194 6203649 6156193 6105114 6052091 5998806 5947879 5904617 
3731.926 5877344 5875833 5909890 5986208 6105450 6256959 6418710 6555965 
3735.783 6635055 6640472 6581329 6484390 6379906 6292760 6236857 6215716 
3739.641 6223513 6247412 6271817 6283112 6274372 6246639 6209968 6181164 
3743.498 6180727 6220556 6291617 6365649 6415886 6432599 6421468 6394634 
3747.356 6364809 6343156 6337978 6355664 6399677 6470937 6564913 6672806 
3751.213 6779211 6864839 6913247 6915536 6873591 6798563 6705714 6610866 
3755.071 6525826 6459838 6417029 6397088 6396248 6409463 6431892 6460141 
3758.928 6491889 6524279 6553005 6573356 6581833 6578806 6567267 6552231 
3762.785 6537566 6525086 6512642 6495085 6466127 6422443 6366591 6307519 
3766.643 6257093 6225396 6218438 6236589 6273935 6318479 6355764 6373786 
3770.500 6367062 6339088 6299249 6258202 6225497 6207380 6207380 6225161 
3774.358 6256724 6295181 6332700 6361648 6377889 6381251 6375636 6367532 
3778.215 6364069 6370155 6386395 6408958 6432060 6451532 6466598 6478941 
3782.073 6491251 6505410 6521555 6537633 6550953 6558959 6560910 6557277 
3785.930 6549271 6536994 6519234 6494479 6462159 6423821 6383403 6346249 
3789.787 6317335 6298811 6289835 6287180 6287213 6287987 6290474 6298710 
3793.645 6317638 6350822 6398097 6454424 6510253 6553678 6576888 6578671 
3797.502 6565317 6546580 6532218 6530165 6545134 6579008 6628798 6685020 
3801.360 6732029 6754879 6747374 6714025 6665538 6613490 6568647 6538877 
3805.217 6530065 6543385 6573491 6606997 6628697 6629639 6610664 6581228 
3809.074 6551996 6531713 6524347 6529257 6542544 6559463 6576047 6591555 
3812.932 6608545 6631456 6665303 6711872 6767230 6820441 6856423 6863324 
3816.789 6839290 6791630 6731591 6668936 6612212 6568949 6545739 6548431 
3820.647 6576787 6622069 6668095 6701844 6717861 6718198 6708035 6693129 
3824.504 6677617 6664159 6653257 6643803 6634349 6623650 6611371 6599091 
3828.362 6589537 6585467 6590143 6606257 6635762 6678593 6731692 6788870 
3832.219 6841949 6882679 6906211 6911900 6903484 6888739 6877798 6879784 
3836.076 6899983 6936376 6980079 7016276 7030756 7016310 6974725 6915705 
3839.934 6850768 6789341 6736336 6693566 6662072 6643635 6640674 6654738 
3843.791 6684313 6723178 6760970 6787625 6794659 6778672 6741417 6689495 
3847.649 6632061 6579310 6540324 6521387 6525961 6554653 6607805 6685087 
3851.506 6785504 6903955 7025133 7122934 7171337 7163185 7113974 7046651 
3855.364 6978597 6917253 6864367 6819330 6781432 6751076 6730111 6720015 
3859.221 6721563 6732971 6749831 6765580 6773893 6770124 6754778 6732870 
3863.078 6712982 6703325 6707598 6722808 6740711 6752590 6753095 6742595 
3866.936 6726139 6711636 6706387 6717121 6745557 6786716 6828552 6858207 
3870.793 6869046 6862684 6845685 6824850 6806371 6793582 6787860 6788399 
3874.651 6793010 6798395 6802568 6803915 6802063 6796678 6787086 6773052 
3878.508 6754172 6730581 6703661 6675632 6649724 6629033 6615475 6609823 
3882.365 6612851 6625534 6649590 6687072 6739264 6803713 6873287 6937251 
3886.223 6984927 7011393 7017623 7008632 6990012 6967654 6946981 6932908 
3890.080 6929777 6939305 6959540 6983479 7002335 7008868 6999877 6977284 
3893.938 6946409 6915031 6890018 6877327 6880155 6898266 6928229 6963479 
3897.795 6996375 7019071 7026580 7018330 7000147 6980853 6971055 6979573 
3901.653 7010585 7063085 7129569 7198051 7252696 7279819 7273080 7235379 
3905.510 7177502 7113267 7055710 7012269 6985331 6972435 6967654 6964018 
3909.367 6955129 6938160 6912809 6881905 6848647 6816267 6785504 6756056 
3913.225 6727183 6699354 6675430 6660289 6659448 6677920 6716212 6770696 
3917.082 6832962 6893957 6946240 6986072 7012976 7028029 7032810 7028264 
3920.940 7015131 6994860 6969304 6942268 6917657 6899343 6889513 6888032 
3924.797 6892004 6897121 6899713 6897458 6890557 6880088 6868507 6858880 
3928.655 6855043 6861203 6881871 6919576 6973681 7038434 7102456 7151194 
3932.512 7171607 7156550 7108249 7036986 6958025 6887224 6835856 6810141 
3936.369 6810074 6830605 6863795 6902609 6942402 6981493 7020923 7062243 
3940.227 7106093 7150587 7191583 7223688 7242858 7247474 7240028 7225440 
3944.084 7210213 7199297 7195154 7197276 7203138 7207888 7206574 7194649 
3947.942 7169822 7133005 7088243 7042441 7003346 6977351 6968698 6978159 
3951.799 7003716 7040555 7082854 7124180 7158874 7182959 7194379 7193436 
3955.656 7182589 7166116 7148802 7135194 7128323 7129131 7135969 7145939 
3959.514 7155371 7161670 7163893 7163354 7162950 7165645 7173089 7184576 
3963.371 7197242 7206574 7207820 7198388 7178041 7150082 7120172 7095551 
3967.229 7082753 7085953 7105352 7137552 7175986 7212537 7240466 7255695 
3971.086 7258121 7251719 7242993 7239388 7245789 7264219 7291612 7322208 
3974.944 7347448 7359749 7354424 7330531 7291342 7243128 7193907 7150251 
3978.801 7117612 7098212 7091644 7095248 7104847 7116063 7124719 7127649 
3982.658 7123271 7111583 7093968 7073626 7054127 7039343 7032473 7034898 
3986.516 7045809 7062546 7080699 7096057 7104780 7105689 7099694 7090297 
3990.373 7081743 7078072 7081911 7093598 7112021 7134958 7160525 7187170 
3994.231 7214491 7241982 7269239 7295285 7318636 7337642 7351762 7361232 
3998.088 7366826 7369758 7370398 7367938 7361569 7350347 
##END=
