##TITLE=bd_4b Sep 16 14:14:46 2026 (GMT+02:00)
##JCAMP-DX=5.01  $$ Nicolet v. 970
##DATATYPE=INFRARED SPECTRUM
##ORIGIN=Vojna akademija
##OWNER=Nicolet
##LONGDATE=2026/09/16
##TIME=14:15:18
##SPECTROMETER/DATA SYSTEM=Nicolet iS20
##DATA PROCESSING=
Ratio against background
%Transmittance->Absorbance
Truncated
ElementMultiply or ElementDivide
##COMMENTS=
Number of sample scans: 8
Collection length: 11,90 sec
Sample gain: 8,0
Background collected on: Wed Sep 16 13:55:34 2026 (GMT+02:00);
Number of background scans: 8
Background gain: 8,0
Sample spacing:  1,000
Number of scan points: 12415
Resolution points: 8286
Number of FFT points: 65536
Apodization: N-B strong;
Phase correction: Mertz;
Laser frequency: 15798,00 cm-1
Number of rejected sample scans: 0
Number of rejected background scans: 0
Bench serial number: BER2010005;
##RESOLUTION= 4,000
##XUNITS=1/CM
##YUNITS=ABSORBANCE
##FIRSTX=400.156891
##LASTX=4000.123047
##FIRSTY=0.022743
##MAXX=4000.123047
##MINX=400.156891
##MAXY=0.262943
##MINY=-0.001288
##XFACTOR=1.000000
##YFACTOR=1.000000E-009
##NPOINTS=7468
##DELTAX=0.482117
##ZPD=6100
##XYDATA=(X++(Y..Y))
400.157 22742858 24785564 27179204 29552734 31677798 33440764 34798320 
403.532 35716704 36172488 36168596 35763724 35090092 34337060 33708132 
406.907 33333312 33256076 33434178 33777860 34186184 34578392 34899028 
410.281 35102808 35146744 34981548 34572796 33933212 33147526 32383996 
413.656 31836540 31672060 31970550 32708660 33783876 35056180 36401188 
417.031 37704180 38881492 39877528 40646896 41150756 41368900 41301664 
420.406 40960684 40361512 39504968 38384488 36999964 35387920 33639604 
423.781 31930852 30474796 29453898 28955132 28927684 29206002 29575646 
427.155 29870884 30021542 30099804 30291968 30856406 32018058 33881552 
430.530 36387136 39305964 42301848 44998868 47113352 48488796 49105340 
433.905 49035152 48398852 47325940 45932916 44346692 42696044 41099472 
437.280 39660020 38439764 37464532 36733048 36232272 35946424 35860592 
440.655 35962840 36231476 36630404 37108652 37595128 38012484 38294984 
444.030 38395820 38302552 38044272 37696988 37372440 37218852 37382156 
447.404 37949672 38913780 40146708 41433268 42501168 43099128 43048964 
450.779 42275952 40843164 38946720 36886868 34965280 33437330 32456364 
454.154 32073848 32274380 33000744 34167332 35630628 37186396 38585892 
457.529 39583104 40058260 40073560 39849232 39628004 39594028 39809540 
460.904 40224564 40714760 41140664 41403524 41473544 41396380 41247808 
464.278 41087120 40919612 40691760 40315192 39715020 38858696 37780620 
467.653 36568004 35336556 34192136 33214260 32466472 32001864 31872374 
471.028 32119368 32748244 33700004 34838060 35983788 36954612 37619332 
474.403 37916876 37829024 37359836 36519060 35337452 33888104 32307108 
477.778 30794084 29547022 28720160 28367228 28435642 28786926 29252608 
481.152 29697002 30045758 30307704 30552782 30869426 31314482 31886778 
484.527 32525852 33140660 33638204 33951268 34046188 33908668 33536610 
487.902 32940012 32156688 31264912 30383210 29659820 29220852 29138708 
491.277 29407094 29949970 30641238 31352482 31995800 32526318 32935292 
494.652 33220664 33359968 33309020 33022270 32481286 31724420 30853026 
498.027 30007840 29317046 28875978 28718884 28821130 29111638 29492300 
501.401 29860698 30119302 30204400 30091956 29805438 29409150 28999902 
504.776 28687310 28561492 28677682 29030970 29557592 30146576 30683550 
508.151 31093108 31358928 31519938 31643334 31788588 31975790 32183450 
511.526 32358724 32447654 32414914 32258924 32003290 31684570 31334140 
514.901 30972070 30611298 30263332 29942976 29669294 29456166 29308504 
518.276 29221098 29187858 29210574 29303754 29488258 29775062 30151194 
521.650 30574858 30979258 31298778 31487088 31534508 31468742 31342010 
525.025 31202820 31066876 30909308 30676830 30324014 29841532 29272986 
528.400 28700936 28227326 27933308 27866424 28028194 28378442 28845524 
531.775 29345336 29800400 30136596 30291932 30219992 29895092 29327964 
535.150 28573702 27731522 26912686 26223768 25734954 25463664 25383248 
538.524 25439492 25576672 25753164 25951186 26170660 26415982 26686424 
541.899 26971348 27255824 27531980 27802834 28082342 28385552 28713716 
545.274 29045458 29340018 29541844 29604908 29506274 29252572 28876686 
548.649 28430512 27976420 27573604 27277628 27132362 27159486 27358538 
552.024 27700900 28135826 28593694 29005216 29314104 29488010 29526134 
555.398 29452656 29307228 29129602 28955274 28810826 28712122 28665788 
558.773 28663594 28681114 28673256 28584528 28361428 27970340 27415636 
562.148 26746678 26050566 25422522 24951208 24692646 24662450 24843134 
565.523 25198088 25686194 26268398 26913776 27590056 28257488 28873464 
568.898 29395430 29796994 30078994 30271004 30421982 30580156 30779396 
572.273 31023814 31288736 31526350 31686458 31728696 31635672 31418196 
575.647 31115674 30786474 30488940 30272676 30161210 30149064 30205180 
579.022 30284896 30341460 30339256 30267206 30139934 29993354 29867796 
582.397 29795218 29788938 29842454 29936160 30046788 30158510 30263724 
585.772 30363312 30459760 30551396 30630250 30683054 30695570 30656634 
589.147 30557510 30392522 30156200 29846288 29469640 29046980 28619458 
592.521 28237968 27950306 27787150 27748934 27806438 27909740 28007908 
595.896 28058590 28041588 27957726 27819368 27637334 27414686 27145764 
599.271 26825304 26460916 26079028 25719484 25427828 25238506 25162732 
602.646 25189980 25293046 25440474 25604084 25767124 25920798 26059116 
606.021 26173756 26251644 26277128 26239324 26135362 25972398 25764416 
609.396 25528280 25280264 25035720 24813136 24632640 24515708 24477354 
612.770 24516932 24612830 24722704 24795526 24782020 24652280 24404306 
616.145 24065686 23682086 23300746 22961624 22686474 22479572 22335308 
619.520 22244622 22198974 22190848 22214840 22264362 22333318 22419836 
622.895 22525390 22655578 22813812 22996628 23188572 23363748 23490132 
626.270 23542914 23510524 23399554 23229468 23027932 22818702 22618124 
629.644 22434804 22271720 22129828 22010254 21912666 21834124 21766954 
633.019 21701604 21630308 21552340 21475604 21416006 21389414 21405216 
636.394 21461992 21547396 21644414 21735670 21809422 21858828 21877190 
639.769 21855796 21782630 21648278 21453880 21220426 20987650 20803838 
643.144 20714860 20742490 20876804 21074666 21278358 21430626 21495134 
646.519 21470348 21385028 21288764 21231662 21255010 21376812 21592176 
649.893 21876006 22191998 22499078 22755706 22931058 23007178 22986846 
653.268 22891798 22759794 22630760 22531602 22468580 22423500 22364924 
656.643 22261050 22098694 21890224 21672414 21491200 21388996 21389274 
660.018 21491968 21678162 21919948 22192452 22473990 22747118 22995370 
663.393 23201750 23354448 23453864 23515490 23569780 23658364 23824626 
666.767 24094054 24444192 24780582 24970052 24935486 24728352 24474514 
670.142 24291672 24241812 24343324 24579796 24912500 25283214 25628862 
673.517 25897830 26053204 26081456 25988120 25794548 25533832 25250762 
676.892 24998480 24823416 24758132 24809734 24957946 25161642 25372462 
680.267 25553724 25689322 25788676 25876448 25980982 26118788 26289870 
683.642 26479086 26667362 26838872 26988308 27120370 27246018 27377630 
687.016 27526826 27707646 27937018 28232382 28606896 29057432 29557948 
690.391 30057584 30494450 30807886 30962178 30960152 30844560 30684440 
693.766 30549902 30498894 30558292 30723912 30967978 31255442 31552680 
697.141 31837716 32101672 32346264 32581672 32823820 33094172 33415608 
700.516 33807156 34276816 34816344 35399780 35986092 36534016 37012088 
703.890 37409784 37739308 38031652 38324336 38648004 39023600 39458120 
707.265 39947888 40484724 41058968 41661652 42283916 42918956 43562284 
710.640 44215816 44887600 45592772 46347604 47162580 48040932 48978512 
714.015 49969972 51017960 52137140 53355148 54705476 56212080 57882484 
717.390 59700284 61630612 63624100 65628744 67593720 69464880 71180712 
720.765 72669480 73849328 74651008 75032864 74995288 74580784 73864488 
724.139 72933552 71863928 70716904 69531488 68328624 67118104 65901080 
727.514 64672796 63421332 62132360 60792736 59398992 57961768 56507204 
730.889 55072616 53694080 52403672 51221356 50154140 49199548 48346484 
734.264 47577784 46870120 46198912 45539376 44872976 44193256 43507196 
737.639 42831984 42186848 41584016 41021460 40484540 39952428 39410916 
741.013 38861308 38323108 37824068 37390064 37029480 36727748 36449508 
744.388 36151384 35798916 35374620 34884304 34349756 33800060 33260762 
747.763 32750818 32285408 31877686 31542100 31290158 31125284 31034062 
751.138 30986696 30943926 30865726 30729070 30535826 30313036 30100444 
754.513 29936870 29845932 29828188 29864140 29923772 29979436 30011992 
757.888 30014052 29985720 29929204 29846572 29740608 29619522 29498010 
761.262 29397200 29336508 29324702 29352992 29395074 29417198 29386992 
764.637 29289292 29131622 28941602 28754144 28599074 28490196 28421350 
768.012 28370342 28307882 28210848 28066472 27876634 27653826 27418850 
771.387 27194830 27001776 26856636 26767680 26733500 26740548 26765708 
774.762 26777020 26741322 26634034 26442780 26173474 25846520 25495146 
778.136 25155358 24860184 24634956 24491378 24426984 24424038 24454710 
781.511 24484892 24481422 24422390 24301378 24130552 23934864 23747068 
784.886 23592902 23484678 23418194 23378994 23349064 23318086 23288720 
788.261 23275924 23298474 23368190 23482578 23621870 23755188 23846888 
791.636 23871218 23817312 23689330 23501080 23269528 23010044 22732908 
795.010 22449040 22172856 21925454 21735602 21633860 21643786 21776360 
798.385 22023916 22359588 22742300 23128950 23479044 23762852 23965780 
801.760 24085930 24132234 24120044 24067612 23992426 23910846 23840308 
805.135 23799602 23810312 23894708 24067368 24330742 24666554 25038458 
808.510 25392906 25674382 25840964 25874796 25790260 25628442 25447290 
811.885 25298560 25217578 25214138 25273168 25363470 25450346 25509166 
815.259 25529476 25517248 25490508 25474660 25493564 25565848 25700888 
818.634 25896108 26136384 26395524 26642912 26848354 26991904 27071208 
822.009 27103548 27121464 27161744 27256990 27422626 27653544 27925428 
825.384 28204094 28452338 28639952 28751026 28783352 28749292 28672654 
828.759 28587962 28533714 28546240 28654284 28867586 29174320 29538582 
832.133 29910780 30235232 30465304 30577668 30574752 30483502 30343946 
835.508 30201416 30092312 30037806 30043592 30100978 30192892 30299568 
838.883 30405386 30501274 30587230 30671852 30769506 30896000 31062070 
842.258 31269506 31507682 31755574 31984956 32169818 32291974 32347300 
845.633 32345910 32311604 32275808 32270204 32323670 32453582 32661614 
849.008 32930252 33225280 33500816 33706664 33806940 33787420 33665524 
852.382 33484784 33306946 33191654 33177030 33273246 33460018 33698716 
855.757 33943064 34159048 34328560 34450388 34532004 34582736 34609252 
859.132 34615924 34611188 34612336 34643484 34733492 34903300 35156444 
862.507 35474952 35823816 36160096 36445072 36658488 36799944 36885820 
865.882 36940472 36988380 37047160 37125288 37225024 37344096 37478732 
869.256 37622908 37768512 37903716 38013748 38084420 38103484 38065360 
872.631 37971260 37831152 37662728 37489312 37341280 37248704 37236320 
876.006 37317228 37486748 37720912 37979540 38220264 38405304 38516264 
879.381 38558376 38557180 38548272 38562320 38618380 38716644 38843116 
882.756 38975828 39096540 39194584 39270780 39333168 39395712 39472816 
886.131 39577224 39720176 39908764 40143620 40416424 40708792 40992504 
889.505 41234364 41406840 41493380 41494508 41426524 41316532 41193416 
892.880 41079472 40988612 40923656 40879856 40847784 40817244 40779868 
896.255 40729788 40666360 40594684 40526840 40477300 40460208 40481412 
899.630 40533208 40592176 40625540 40600036 40493084 40303232 40051608 
903.005 39777584 39522024 39318228 39180444 39102488 39062788 39036068 
906.379 39005188 38965680 38925596 38899100 38896600 38916532 38943172 
909.754 38949440 38907984 38798912 38619612 38385356 38128840 37889288 
913.129 37701292 37587032 37550180 37576336 37639892 37715020 37782104 
916.504 37833940 37875116 37916332 37965796 38022396 38072484 38093140 
919.879 38061524 37962800 37799416 37593136 37382012 37207116 37105804 
923.254 37100676 37193616 37366664 37587068 37816228 38015776 38157096 
926.628 38225800 38222796 38163716 38074692 37988292 37933000 37930108 
930.003 37988652 38105188 38266112 38452832 38646880 38831088 38992064 
933.378 39119672 39206516 39250652 39258920 39250288 39254024 39307452 
936.753 39444004 39680896 40011608 40404092 40809860 41174140 41457980 
940.128 41647760 41759624 41830140 41903956 42017532 42186228 42403688 
943.502 42646952 42889692 43111788 43307268 43485848 43667976 43875584 
946.877 44125284 44423392 44763576 45129908 45500484 45855396 46179748 
950.252 46468724 46727928 46971560 47216364 47474464 47748840 48031904 
953.627 48309112 48566824 48801852 49026732 49268724 49559424 49925736 
957.002 50376328 50898316 51458420 52017228 52541640 53015436 53444480 
960.377 53852560 54272108 54730240 55244284 55817256 56439736 57094508 
963.751 57761092 58419192 59048180 59630452 60152348 60605988 60991312 
967.126 61314052 61582192 61800684 61969492 62084652 62144476 62155908 
970.501 62137444 62116036 62119820 62164896 62248516 62347536 62428480 
973.876 62458244 62417576 62306876 62144096 61953364 61751904 61544660 
977.251 61323436 61074672 60790644 60476824 60153680 59851236 59596856 
980.625 59407464 59283784 59212044 59168528 59128852 59074184 58992308 
984.000 58877472 58728640 58546944 58335276 58099276 57846864 57586652 
987.375 57326672 57071192 56820920 56573740 56329308 56090512 55866772 
990.750 55672068 55521092 55426104 55390984 55410596 55470076 55549712 
994.125 55627700 55685328 55711092 55701976 55663708 55608984 55553852 
997.500 55511604 55488904 55483104 55483028 55473880 55444892 55395768 
1000.874 55341188 55309312 55331480 55437740 55644760 55951560 56340168 
1004.249 56782216 57244104 57693088 58102912 58452128 58724012 58907600 
1007.624 59000012 59009616 58957464 58877392 58806484 58776132 58805040 
1010.999 58894472 59030908 59193968 59366932 59542960 59728608 59938032 
1014.374 60187516 60486420 60833292 61214392 61608808 61993492 62346616 
1017.748 62653372 62905564 63102008 63248584 63357180 63442684 63518844 
1021.123 63595212 63673400 63748792 63813260 63862280 63898780 63934400 
1024.498 63983700 64058876 64161724 64282312 64401424 64499436 64565828 
1027.873 64604008 64630040 64665064 64726672 64821176 64941832 65072216 
1031.249 65195284 65297356 65371840 65417452 65433980 65418100 65366104 
1034.624 65274604 65146736 64992852 64829068 64670952 64528348 64402848 
1037.999 64289920 64184696 64087108 64005008 63951872 63940928 63977748 
1041.374 64058036 64169600 64298220 64433476 64574980 64729212 64906316 
1044.750 65112932 65349660 65610864 65890624 66185572 66497676 66831796 
1048.125 67190472 67569368 67956928 68337824 68702464 69051656 69398984 
1051.500 69763200 70161024 70597216 71062216 71536312 71999776 72443096 
1054.875 72870584 73296088 73733480 74187072 74648696 75099816 75522944 
1058.251 75912776 76279936 76646928 77034768 77452224 77887832 78314360 
1061.626 78698448 79018088 79271136 79477592 79667904 79873856 80115664 
1065.001 80397352 80710536 81041520 81377480 81707536 82021272 82305080 
1068.376 82540104 82709472 82805128 82837520 82836880 82850552 82931440 
1071.752 83120656 83442288 83895848 84461672 85105912 85792672 86489152 
1075.127 87168552 87811912 88408408 88956448 89465232 89955376 90454840 
1078.502 90991696 91589680 92261920 93010832 93830048 94710032 95639448 
1081.877 96606032 97596056 98591088 99570688 100518552 101428608 102310544 
1085.253 103186760 104088104 105039560 106053168 107126304 108245960 
1088.146 109399376 110579072 111783840 113012248 114250520 115470456 
1091.039 116630024 117688896 118626800 119452520 120200528 120912712 
1093.932 121616512 122305728 122940144 123458760 123811696 123977984 
1096.825 123975872 123848576 123644288 123392104 123093872 122733864 
1099.718 122298184 121793056 121252336 120723840 120252888 119862168 
1102.611 119544272 119268288 118998496 118713808 118415720 118126368 
1105.504 117872840 117677728 117548712 117480920 117466280 117499592 
1108.397 117581944 117712792 117884840 118075832 118252816 118385560 
1111.290 118455808 118466992 118439872 118401840 118369336 118340352 
1114.183 118295152 118209008 118065176 117863368 117617000 117342752 
1117.076 117045264 116712080 116316432 115833448 115255464 114601272 
1119.969 113910680 113230608 112599776 112034560 111531424 111076664 
1122.862 110660840 110287288 109973712 109743552 109617976 109607744 
1125.755 109715272 109940592 110288616 110771112 111403360 112193432 
1128.649 113136704 114214136 115402376 116684776 118063400 119559152 
1131.542 121202976 123017552 125003504 127134960 129372584 131679520 
1134.435 134041008 136471072 139001824 141660112 144443712 147308704 
1137.328 150178864 152974288 155634032 158142176 160523440 162824768 
1140.221 165083088 167308304 169478272 171556112 173508800 175324816 
1143.114 177012560 178587664 180054624 181400656 182603280 183652128 
1146.007 184566608 185403040 186233440 187121968 188096000 189134256 
1148.900 190177040 191156272 192030544 192799760 193502928 194194448 
1151.793 194918096 195684272 196470896 197237136 197948416 198588896 
1154.686 199165008 199693968 200191200 200661424 201099856 201500080 
1157.579 201860960 202184768 202468272 202692992 202821792 202808896 
1160.472 202623872 202268640 201787312 201247296 200716528 200228608 
1163.365 199767792 199273632 198672656 197911584 196980416 195914544 
1166.258 194775600 193620448 192472688 191319664 190122880 188844208 
1169.151 187463104 185986096 184437392 182845568 181227920 179589312 
1172.045 177929664 176254384 174580704 172934528 171335584 169787248 
1174.938 168269120 166746304 165180880 163551008 161858832 160126544 
1177.831 158382880 156649840 154935424 153234928 151541184 149855408 
1180.724 148190624 146568832 145008736 143517904 142089184 140706544 
1183.617 139355216 138029120 136733120 135476304 134263168 133085680 
1186.510 131923648 130753728 129561680 128350064 127139760 125958024 
1189.403 124829144 123760104 122740016 121745384 120753240 119751144 
1192.296 118741552 117737080 116752744 115796848 114867224 113954056 
1195.189 113047016 112140376 111233984 110330168 109428360 108522296 
1198.082 107603688 106667480 105720400 104781840 103881736 103049624 
1200.975 102302824 101642392 101053408 100513544 100002168 99509272 99036744 
1204.350 98592296 98181856 97805096 97453624 97117360 96790080 96474360 
1207.726 96179440 95915552 95685824 95481144 95282416 95068232 94824808 
1211.101 94552272 94265536 93988120 93743496 93545320 93395952 93287832 
1214.476 93209840 93151440 93105832 93068640 93035176 93000288 92959528 
1217.851 92913608 92870800 92847992 92864728 92934904 93061608 93233616 
1221.227 93430424 93628912 93813936 93981952 94140984 94302832 94476808 
1224.602 94664248 94859520 95054288 95243384 95428432 95615328 95810440 
1227.977 96014616 96221584 96421768 96607112 96777080 96939128 97105304 
1231.352 97283928 97473696 97661856 97828928 97958144 98042856 98090568 
1234.728 98117816 98143856 98179872 98225808 98270592 98300392 98304216 
1238.103 98278576 98226144 98151128 98052608 97923104 97749776 97520440 
1241.478 97229544 96879568 96479648 96040416 95569704 95070424 94542424 
1244.853 93986552 93407040 92813032 92215576 91622744 91039336 90465328 
1248.229 89899328 89341840 88796288 88268552 87763232 87280992 86816720 
1251.604 86362200 85910136 85457208 85005232 84558560 84120272 83688288 
1254.979 83255608 82813504 82357264 81889704 81422560 80970376 80545904 
1258.354 80153200 79786776 79434544 79085584 78736056 78390872 78059360 
1261.730 77749696 77461560 77185456 76905928 76607960 76284440 75935664 
1265.105 75567776 75186712 74793832 74386008 73959384 73515336 73063272 
1268.480 72620760 72208464 71840200 71519424 71236840 70975936 70719008 
1271.855 70455648 70186680 69921464 69672904 69450032 69255200 69082768 
1275.231 68922280 68761624 68590736 68401304 68185976 67938256 67652064 
1278.606 67324584 66959268 66567384 66165120 65769708 65394840 65045120 
1281.981 64716676 64398736 64079344 63747644 63397132 63024840 62629984 
1285.356 62214064 61780860 61339044 60902516 60488556 60115548 59795528 
1288.732 59531336 59315500 59133864 58970560 58813500 58657940 58504940 
1292.107 58357976 58218716 58085072 57952188 57815632 57674392 57532140 
1295.482 57395604 57270452 57157128 57048860 56934500 56803288 56649728 
1298.857 56476564 56293772 56114756 55950168 55804336 55674856 55554304 
1302.233 55434388 55308332 55172836 55026056 54865828 54688828 54490520 
1305.608 54268204 54023072 53761876 53495256 53235988 52995560 52781112 
1308.983 52596168 52440500 52312544 52209808 52128880 52065340 52013084 
1312.358 51966436 51921924 51880848 51848924 51834216 51842912 51874128 
1315.734 51918112 51956648 51969536 51938312 51853440 51716776 51539784 
1319.109 51338172 51125292 50909344 50691684 50469776 50240612 50003656 
1322.484 49760360 49513416 49265716 49018680 48772600 48527588 48284376 
1325.859 48044080 47808572 47579332 47357828 47146996 46952068 46781580 
1329.234 46646500 46557420 46520388 46534592 46591208 46676312 46773388 
1332.610 46870524 46962108 47050128 47140716 47241556 47357680 47491096 
1335.985 47640264 47804100 47982424 48176668 48388816 48616668 48852832 
1339.360 49085268 49300460 49489572 49651248 49790496 49914552 50027300 
1342.735 50128736 50214244 50279932 50324316 50352256 50373724 50402304 
1346.111 50448932 50521508 50623208 50755060 50917504 51111724 51338396 
1349.486 51595008 51874164 52163700 52448984 52718108 52965048 53190744 
1352.861 53400112 53597692 53782388 53946644 54078384 54167296 54210916 
1356.236 54216584 54197624 54168120 54136292 54101988 54058756 53999504 
1359.612 53923348 53839396 53767428 53730752 53750664 53836396 53980144 
1362.987 54160124 54351072 54534472 54702580 54855680 54996272 55124676 
1366.362 55238716 55335052 55413344 55478132 55538412 55603184 55676888 
1369.737 55758448 55843256 55928684 56018580 56125048 56267368 56464600 
1373.113 56728104 57053584 57419388 57793152 58142228 58442576 58677016 
1376.488 58825452 58859032 58740476 58429612 57903308 57166084 56254168 
1379.863 55220732 54121692 52998628 51874164 50763296 49680408 48645204 
1383.238 47681052 46803724 46013620 45291616 44604484 43912204 43183588 
1386.614 42411872 41618440 40844436 40129120 39492592 38932516 38431656 
1389.989 37969560 37530384 37105440 36691332 36286084 35887544 35493648 
1393.364 35104928 34728828 34381528 34083492 33851140 33689012 33591380 
1396.739 33546310 33543232 33575340 33638384 33727900 33835664 33950552 
1400.115 34062240 34164392 34256488 34342436 34426108 34508900 34588044 
1403.490 34655612 34701944 34720572 34713212 34690352 34670112 34671544 
1406.865 34710128 34797424 34942332 35152600 35436340 35799564 36244480 
1410.240 36765396 37348680 37974408 38620552 39269296 39907600 40526188 
1413.616 41117352 41670224 42171624 42607548 42963104 43226296 43384336 
1416.991 43420624 43313128 43038240 42588616 41993476 41322616 40660284 
1420.366 40066000 39562052 39138452 38769716 38427240 38088868 37745016 
1423.741 37403928 37088012 36825404 36637472 36531672 36505940 36554744 
1427.117 36675540 36869768 37141568 37493324 37921432 38415584 38961908 
1430.492 39546084 40156924 40784672 41420108 42053772 42677184 43286548 
1433.867 43886328 44487888 45108364 45763380 46454676 47156636 47820704 
1437.242 48399632 48872152 49248828 49556048 49820332 50061692 50291428 
1440.618 50514064 50729032 50934420 51129352 51316660 51503036 51698340 
1443.993 51913784 52159108 52441772 52766632 53137196 53555448 54023260 
1447.368 54541348 55110836 55734448 56419584 57181920 58041140 59017816 
1450.743 60124456 61358124 62691188 64076848 65465644 66814796 68108104 
1454.119 69353464 70568680 71765768 72924744 73973216 74793280 75289752 
1457.494 75477088 75468736 75398648 75338736 75304328 75289592 75290464 
1460.869 75312448 75367464 75464200 75599912 75751600 75876784 75912224 
1464.244 75788880 75451584 74861816 73994120 72824264 71317896 69452976 
1467.620 67234096 64705520 61931468 58984144 55911464 52695288 49266348 
1470.995 45527344 41434944 37106956 32864418 29104766 26077094 23782418 
1474.370 22046644 20653874 19451768 18365650 17386586 16532861 15817693 
1477.745 15228559 14732592 14291769 13877974 13479269 13097696 12740990 
1481.120 12414102 12113048 11828884 11553414 11287469 11040857 10828760 
1484.496 10663117 10546115 10466955 10404845 10336466 10244486 10124849 
1487.871 9984495 9835307 9683425 9525364 9352634 9163153 8967565 8785352 
1491.728 8634007 8522381 8448150 8401732 8369843 8339815 8301581 8249371 
1495.586 8183256 8107799 8030701 7959287 7900369 7858632 7836702 7833058 
1499.443 7841088 7849590 7845035 7818754 7769705 7706799 7644576 7601448 
1503.301 7593321 7629705 7711217 7826445 7951221 8044169 8059695 7976532 
1507.158 7827222 7672365 7550164 7461907 7393181 7330869 7268262 7203239 
1511.016 7135430 7063658 6986274 6902474 6815223 6731793 6663755 6623246 
1514.873 6620555 6659044 6732029 6821820 6908332 6980281 7040960 7103466 
1518.730 7180837 7278033 7389069 7493593 7562200 7570663 7517293 7427930 
1522.588 7334441 7255156 7188719 7123708 7047762 6954725 6847772 6737514 
1526.445 6635022 6546244 6468919 6397727 6330515 6272287 6233664 6227412 
1530.303 6262102 6338718 6449077 6576586 6697167 6781533 6807751 6770696 
1534.160 6685996 6576350 6458930 6340634 6222606 6107399 6002905 5924030 
1538.017 5894003 5937466 6066606 6261362 6469322 6632902 6732870 6787322 
1541.875 6824075 6854100 6870123 6853730 6789846 6675531 6525994 6367767 
1545.732 6227614 6121378 6051587 6012681 5996757 5998571 6015167 6044632 
1549.590 6084179 6127729 6169367 6207145 6246236 6296525 6371096 6478470 
1553.447 6617628 6773355 6920553 7038165 7118353 7172550 7224935 7306741 
1557.305 7441817 7625220 7782759 7781477 7546286 7170091 6801558 6519604 
1561.162 6331288 6214707 6146279 6105785 6080047 6061566 6047253 6036199 
1565.019 6026053 6012581 5991013 5959569 5921578 5888394 5877411 5906195 
1568.877 5983689 6098796 6220992 6316024 6368272 6383941 6382731 6384983 
1572.734 6406100 6453348 6525961 6615374 6706050 6779548 6816705 6807078 
1576.592 6753768 6670417 6571372 6466497 6362623 6264153 6177635 6109717 
1580.449 6064926 6044901 6046715 6063649 6088480 6115329 6140801 6161537 
1584.307 6173602 6172392 6153706 6117950 6071109 6025918 5997093 5999344 
1588.164 6040936 6121916 6233900 6364405 6500870 6632801 6754206 6859688 
1592.021 6944928 7005669 7040185 7051669 7048166 7041835 7043519 7057899 
1595.879 7081069 7102961 7111954 7101277 7072852 7036548 7006141 6993008 
1599.736 7002302 7031093 7071639 7115052 7157224 7199803 7247406 7303439 
1603.594 7367230 7433255 7495380 7551310 7605999 7669363 7753649 7865279 
1607.451 8001101 8146318 8281453 8389874 8464299 8509574 8538229 8564521 
1611.308 8598282 8643842 8701880 8773586 8863666 8981941 9140447 9349486 
1615.166 9609638 9904454 10197774 10448796 10633644 10759500 10851182 
1618.541 10934863 11024782 11124609 11234015 11355080 11495504 11668442 
1621.916 11887963 12158603 12465180 12775692 13054569 13282548 13462180 
1625.292 13609714 13742695 13870209 13989615 14088689 14153246 14177174 
1628.667 14167692 14143764 14126237 14127436 14149959 14187102 14229726 
1632.042 14270505 14307692 14344643 14386495 14432700 14470209 14467880 
1635.417 14390468 14224522 13997382 13758358 13546947 13377771 13245380 
1638.793 13136457 13037940 12941085 12844524 12752216 12671288 12608896 
1642.168 12569262 12555483 12570831 12620972 12714582 12860190 13061330 
1645.543 13304480 13552724 13752099 13857380 13865521 13814108 13752544 
1648.918 13711882 13704974 13732503 13794099 13896721 14061788 14327999 
1652.294 14729678 15236383 15701665 15960803 15990986 15884636 15739730 
1655.669 15613589 15534289 15509462 15533122 15591882 15670162 15756324 
1659.044 15846834 15947226 16068099 16219066 16401846 16606629 16812750 
1662.419 16999120 17154926 17286446 17411626 17549086 17709024 17892604 
1665.795 18095916 18315462 18551442 18807064 19087038 19391650 19710104 
1669.170 20020396 20297506 20528452 20718196 20885738 21050596 21224322 
1672.545 21410124 21606000 21808862 22016492 22229348 22446492 22661060 
1675.920 22859456 23027162 23154498 23241002 23293228 23323960 23348226 
1679.296 23381162 23432112 23501920 23584962 23676102 23780072 23918094 
1682.671 24129466 24462106 24932362 25478878 25979572 26353380 26613002 
1686.046 26824106 27048110 27324520 27670564 28084568 28555478 29072240 
1689.421 29633676 30248554 30925958 31662296 32434836 33209146 33954208 
1692.797 34655040 35328468 36025980 36830456 37826020 39046292 40409804 
1696.172 41738904 42867240 43747820 44447912 45099760 45849612 46830184 
1699.547 48110296 49611980 51109788 52385432 53379392 54168200 54861696 
1702.922 55543268 56270276 57083056 58016108 59093924 60316404 61647644 
1706.297 63021512 64369112 65646552 66845900 67990992 69123248 70282856 
1709.673 71491384 72740968 73998328 75222496 76380624 77468736 78511264 
1713.048 79551648 80630864 81770048 82958312 84167888 85379600 86618120 
1716.423 87954376 89482576 91232904 93116872 94961800 96619280 98051656 
1719.798 99328856 100567424 101888752 103387952 105119960 107095560 
1722.692 109287840 111654160 114156776 116783960 119544584 122450272 
1725.585 125496936 128663864 131932128 135318592 138888496 142749984 
1728.478 147009584 151706560 156755872 161959696 167066240 171918208 
1731.371 176546432 181220128 186401104 192649328 200329968 209163600 
1734.264 218079440 225828464 231855632 236434512 240152800 243496896 
1737.157 246740992 249962832 253099200 255997264 258502720 260502096 
1740.050 261940096 262777392 262942944 262334288 260872992 258559888 
1742.943 255513696 251935008 248037232 243934256 239611824 234954400 
1745.836 229828080 224154080 217955600 211329744 204409296 197275408 
1748.729 189917840 182243552 174171344 165731728 157115792 148659904 
1751.622 140714512 133510712 127094120 121357440 116107472 111127240 
1754.515 106214608 101201040 95976600 90538216 85013256 79635504 74657304 
1757.891 70235256 66393696 63044264 60043256 57234652 54486540 51723348 
1761.266 48943612 46225408 43687504 41429548 39490704 37848364 36441828 
1764.641 35201464 34065536 32986626 31934742 30898384 29885116 28917696 
1768.016 28027238 27239490 26564496 25993820 25503894 25061380 24625978 
1771.391 24163128 23654198 23109556 22565908 22062994 21623552 21248052 
1774.767 20923114 20631566 20358964 20098192 19849926 19619862 19414796 
1778.142 19236668 19080182 18930640 18768764 18574544 18337134 18061028 
1781.517 17763284 17465914 17187466 16939824 16724655 16535580 16358800 
1784.892 16178964 15983079 15765395 15529172 15284945 15046240 14825493 
1788.268 14632308 14469490 14332759 14209595 14081605 13925494 13718517 
1791.643 13450184 13127441 12776477 12429923 12114751 11844241 11619874 
1795.018 11436069 11283491 11151839 11031001 10912914 10793127 10670316 
1798.393 10545164 10418760 10290219 10155951 10011246 9853711 9686068 
1801.769 9516559 9356731 9215677 9097913 9001730 8921193 8850207 8786603 
1805.626 8733861 8699075 8688968 8703909 8733760 8759183 8754010 8695863 
1809.484 8572327 8385855 8152902 7899458 7652063 7429042 7239826 7086357 
1813.341 6968193 6885608 6839963 6830403 6850802 6888638 6926107 6945399 
1817.198 6935803 6895674 6832154 6755350 6674421 6592935 6511666 6431388 
1821.056 6357580 6300997 6276053 6293836 6357075 6454726 6563130 6650801 
1824.913 6690605 6671662 6601783 6500870 6388009 6275918 6167519 6059315 
1828.771 5948316 5837950 5739598 5668426 5633179 5631232 5649762 5673327 
1832.628 5686956 5681518 5653253 5602936 5534907 5454205 5366775 5277049 
1836.485 5189689 5109151 5039087 4981503 4935487 4896715 4859453 4818744 
1840.343 4771708 4718446 4661071 4603068 4547315 4497763 4458829 4437405 
1844.200 4441388 4476873 4543464 4634011 4734357 4828762 4902177 4942257 
1848.058 4943128 4906365 4841795 4763199 4686626 4624533 4582775 4561813 
1851.915 4556355 4556858 4552036 4531779 4489193 4424049 4342616 4256715 
1855.773 4180833 4127142 4101854 4102188 4117642 4132393 4131958 4107808 
1859.630 4058406 3989013 3909334 3829869 3758307 3699722 3657150 3632124 
1863.487 3627245 3645622 3690031 3762585 3865738 4000550 4168154 4367215 
1867.345 4588300 4808727 4996283 5113979 5138018 5068955 4930158 4756633 
1871.202 4581737 4431547 4318554 4242360 4192475 4153468 4110785 4055129 
1875.060 3984532 3903449 3819875 3741429 3674860 3626109 3599581 3601118 
1878.917 3635398 3704100 3803596 3925048 4054594 4177688 4283250 4362764 
1882.775 4411865 4428769 4412835 4365508 4291381 4198732 4098175 4001052 
1886.632 3917257 3851163 3802359 3766629 3738622 3715195 3697015 3686221 
1890.489 3682780 3681243 3670917 3639675 3580304 3495890 3401239 3320064 
1894.347 3278298 3292587 3362169 3467165 3577598 3668277 3725120 3752057 
1898.204 3765559 3787619 3834014 3909534 4004697 4101185 4178458 4221315 
1902.062 4224527 4194081 4144503 4092656 4055129 4042152 4054995 4085632 
1905.919 4118779 4132293 4103292 4016936 3868547 3670416 3449263 3242577 
1909.776 3087611 3009965 3017672 3098656 3227756 3372421 3503271 3596741 
1913.634 3638572 3625441 3565037 3475648 3379901 3305374 3276228 3307911 
1917.491 3400872 3539180 3696347 3846383 3976106 4084929 4180097 4267857 
1921.349 4346364 4403162 4421639 4387732 4300416 4173172 4028374 3883256 
1925.206 3746776 3616019 3483464 3346509 3214637 3108468 3055076 3073695 
1929.064 3162233 3293989 3426219 3516766 3543256 3517000 3478955 3486871 
1932.921 3589057 3805869 4119682 4483535 4832414 5109453 5277821 5320954 
1936.778 5240258 5049010 4769061 4426760 4058139 3706907 3416935 3231494 
1940.636 3177754 3256531 3435904 3659122 3863866 4001888 4057437 4042186 
1944.493 3984299 3911674 3845848 3798582 3776322 3783107 3818939 3878509 
1948.351 3942902 3984031 3970889 3882788 3721410 3515330 3314021 3164369 
1952.208 3097088 3108735 3163668 3207293 3191605 3095887 2932899 2742364 
1956.066 2570110 2452835 2404055 2416083 2475628 2577643 2730360 2949412 
1959.923 3241108 3583177 3921303 4184212 4298642 4222218 3956712 3549469 
1963.780 3074796 2618742 2252285 2011913 1904706 1909797 1993139 2113419 
1967.638 2234266 2328263 2381199 2396558 2391927 2397758 2446037 2561344 
1971.495 2745932 2976535 3201018 3351150 3364807 3190571 2803921 2214916 
1975.353 1473249 658640 -123340 -760952 -1167134 -1288458 -1125858 -735780 
1979.210 -219987 306564 754155 1079322 1296114 1456227 1627741 1857983 
1983.068 2154675 2480993 2778210 2985843 3071793 3044465 2948311 2845942 
1986.925 2794150 2827866 2948411 3133097 3346776 3559525 3751355 3913413 
1990.782 4042052 4136107 4192642 4208501 4182506 4116973 4016535 3888940 
1994.640 3744003 3594302 3458782 3358696 3314255 3336024 3416835 3525685 
1998.497 3614549 3637837 3567409 3410623 3210865 3036357 2947944 2978303 
2002.355 3111705 3288781 3429325 3464426 3366577 3163435 2925827 2737529 
2006.212 2665513 2728460 2892504 3088578 3254695 3355825 3404245 3447059 
2010.069 3542588 3730434 4009479 4332107 4619175 4787587 4769162 4539212 
2013.927 4122225 3582543 2999755 2449736 1985050 1624248 1359361 1165926 
2017.784 1022559 923930 888038 946410 1132638 1463275 1923409 2464164 
2021.642 3019807 3520574 3916756 4190836 4350749 4418995 4419931 4369993 
2025.499 4275754 4140221 3966375 3759410 3525050 3261472 2959087 2600542 
2029.357 2173722 1680425 1147887 624097 163348 -185246 -397327 -481071 
2033.214 -470414 -402756 -302772 -169977 14778 271054 602595 990245 1394396 
2037.554 1779026 2130101 2459166 2796884 3171245 3585583 4006068 4368821 
2041.411 4598580 4644091 4493411 4180499 3766395 3325974 2917588 2566643 
2045.268 2273568 2022964 1803813 1621089 1498750 1467199 1548692 1741632 
2049.126 2017039 2326064 2620542 2859217 3022676 3113006 3150285 3164703 
2052.983 3187099 3243946 3345774 3486771 3643250 3780800 3862596 3862763 
2056.841 3775553 3619193 3430928 3255630 3134799 3091582 3122117 3199182 
2060.698 3284775 3339497 3337861 3275627 3167607 3041762 2929463 2856949 
2064.555 2838138 2874159 2953048 3055910 3161599 3248786 3301968 3312686 
2068.413 3280000 3209163 3110470 2996919 2878962 2765238 2660412 2565110 
2072.270 2477560 2395359 2314905 2232534 2145351 2051494 1951799 1851195 
2076.128 1758533 1685215 1643539 1643905 1693132 1793898 1945908 2145651 
2079.985 2386863 2657812 2939638 3204990 3422145 3563066 3611308 3570415 
2083.843 3462389 3327109 3205892 3133030 3127724 3190437 3307210 3458314 
2087.700 3627814 3804131 3978815 4142697 4277829 4358981 4360990 4265582 
2091.557 4072822 3805200 3507146 3228991 3021575 2918555 2928062 3033387 
2095.415 3200918 3392957 3576061 3731436 3855342 3955809 4046467 4139753 
2099.272 4241423 4349142 4450862 4529000 4568510 4558867 4501379 4408585 
2103.130 4301152 4198966 4115033 4049610 3990886 3919832 3820276 3687458 
2106.987 3532767 3381403 3261672 3196545 3192240 3235567 3296927 3344372 
2110.844 3353221 3315691 3243412 3161532 3099824 3079802 3108234 3174015 
2114.702 3253493 3316325 3336792 3301868 3213936 3089813 2956051 2841473 
2118.559 2765472 2735528 2743131 2767806 2783212 2767706 2711655 2623242 
2122.417 2525849 2450769 2431543 2490823 2635110 2852779 3119314 3399736 
2126.274 3657250 3862429 3993127 4038774 4002256 3897599 3745206 3567409 
2130.132 3384242 3207460 3042896 2892537 2759836 2655345 2598075 2608475 
2133.989 2702586 2880530 3119914 3376127 3596574 3735514 3766027 3689530 
2137.846 3529059 3320999 3100191 2894105 2722058 2597475 2534914 2549845 
2141.704 2654878 2848644 3109736 3397232 3657183 3846684 3947082 3971725 
2145.561 3956578 3945243 3964837 4009680 4045597 4025330 3913379 3703966 
2149.419 3430394 3152154 2940839 2851545 2912117 3117912 3443686 3848422 
2153.276 4287834 4719752 5095372 5363253 5480679 5421694 5193344 4842767 
2157.134 4452837 4111153 3888906 3809379 3838627 3908163 3949422 3927054 
2160.991 3850127 3764189 3722781 3773848 3936683 4199869 4527326 4871583 
2164.848 5178288 5395727 5488464 5436490 5245893 4949864 4602230 4259626 
2168.706 3967412 3745406 3580338 3436873 3272923 3065286 2818561 2566877 
2172.563 2350416 2198631 2103431 2020102 1879114 1624049 1238292 763880 
2176.421 288196 -80077 -250156 -183689 95303 510564 968427 1375482 1669449 
2180.760 1826439 1855155 1789839 1681323 1589628 1570473 1672343 1920847 
2184.618 2305012 2774608 3247184 3635064 3867711 3921604 3826426 3654611 
2188.475 3489543 3395328 3392857 3456778 3526821 3539782 3459984 3288447 
2192.333 3063051 2838071 2664813 2567443 2538680 2545279 2545346 2502554 
2196.190 2396592 2229037 2020767 1806874 1626377 1521127 1525982 1659936 
2200.047 1922943 2291388 2720224 3151219 3532199 3821913 4000484 4066601 
2203.905 4029912 3903817 3700290 3431229 3112672 2770940 2443472 2168161 
2207.762 1975497 1873690 1843941 1847535 1839449 1792634 1706903 1615435 
2211.620 1568345 1619559 1801751 2113985 2522483 2973532 3406783 3769403 
2215.477 4030380 4177922 4218806 4172302 4065397 3928425 3791830 3683381 
2219.334 3622568 3617122 3659656 3731436 3807039 3863064 3885429 3872358 
2223.192 3831273 3772478 3703999 3626611 3533101 3414230 3263909 3082371 
2227.049 2879295 2670747 2474994 2309076 2186510 2117049 2106427 2157372 
2230.907 2267373 2426945 2621209 2829167 3030417 3209062 3357127 3475482 
2234.764 3571184 3654109 3729398 3797981 3855609 3895626 3912811 3906358 
2238.622 3879178 3836722 3781903 3714326 3629083 3519539 3381503 3216873 
2242.479 3037024 2860451 2710788 2609575 2573910 2610975 2718123 2882264 
2246.336 3083606 3298530 3502570 3675094 3800788 3870352 3880849 3834984 
2250.194 3740092 3605161 3442650 3266680 3092349 2938370 2823364 2765472 
2254.051 2778043 2866121 3022610 3228156 3455242 3669681 3839363 3941732 
2257.909 3965372 3913613 3801724 3653074 3490445 3333654 3195410 3080736 
2261.766 2990914 2925694 2886267 2877061 2904279 2971997 3079735 3219778 
2265.624 3376661 3529293 3658052 3747345 3791563 3797212 3780934 3765894 
2269.481 3774918 3824822 3919063 4047169 4183777 4296166 4352087 4328025 
2273.338 4217936 4035531 3813289 3589659 3405046 3287512 3246750 3275026 
2277.196 3351083 3448929 3544559 3625140 3687859 3738689 3785279 3833078 
2281.053 3880348 3920033 3940997 3932871 3890879 3817100 3720308 3614683 
2284.911 3516566 3439578 3393859 3383440 3406649 3456277 3522311 3594369 
2288.768 3663065 3723148 3773213 3815629 3853804 3890210 3924246 3952198 
2292.625 3968114 3966877 3947216 3913580 3875634 3845714 3835986 3853403 
2296.483 3897432 3959253 4025364 4081050 4113795 4117542 4093258 4047805 
2300.340 3989950 3928926 3870753 3817936 3770239 3727125 3689196 3659088 
2304.198 3641446 3640276 3658353 3694475 3743735 3798616 3851665 3896562 
2308.055 3930331 3953034 3967178 3974768 3977611 3976374 3971324 3964402 
2311.913 3959220 3960657 3972929 3997039 4028742 4058540 4074594 4066668 
2315.770 4029678 3967445 3891213 3818471 3766295 3747478 3766595 3819473 
2319.627 3893186 3970488 4034895 4071383 4070246 4027471 3944340 3828131 
2323.485 3691368 3551073 3424616 3328145 3273324 3263442 3294156 3353554 
2327.342 3426119 3495055 3547465 3576162 3580237 3563133 3529694 3484199 
2331.200 3430193 3370417 3309314 3253794 3213369 3197981 3215071 3267682 
2335.057 3351384 3456644 3569012 3673323 3757438 3813356 3838627 3835886 
2338.915 3811518 3772578 3728028 3685988 3653274 3635999 3637136 3655647 
2342.772 3686957 3723048 3753461 3768534 3762886 3737051 3697483 3654744 
2346.629 3620095 3601218 3602254 3623069 3661227 3713123 3775052 3843107 
2350.487 3914483 3985435 4052754 4113360 4164574 4204787 4234129 4254473 
2354.344 4267556 4275319 4276490 4267656 4241390 4190267 4106972 3987977 
2358.202 3835184 3657451 3469536 3290751 3143410 3048402 3021976 3073295 
2362.059 3200284 3388382 3610406 3832978 4021284 4149086 4205390 4196658 
2365.917 4145004 4077972 4024562 4002925 4016903 4057002 4104062 4134869 
2369.774 4128848 4075029 3972528 3831440 3670951 3515530 3389952 3313754 
2373.631 3299364 3347310 3448295 3583678 3731971 3872224 3988512 4072688 
2377.489 4123630 4145105 4142830 4123094 4090849 4050346 4006302 3964235 
2381.346 3930230 3910437 3908565 3924948 3956311 3997106 4040681 4081317 
2385.204 4116772 4147213 4174844 4202278 4229914 4255844 4275553 4282446 
2389.061 4270367 4235535 4178759 4104965 4024729 3951328 3897632 3874163 
2392.918 3885797 3929762 3996236 4071216 4139351 4187457 4208401 4200873 
2396.776 4169258 4120318 4062086 4001186 3942869 3891480 3850695 3823685 
2400.633 3811785 3812487 3819340 3821212 3806471 3766161 3698519 3610907 
2404.491 3520474 3448896 3416234 3435938 3509384 3625107 3761215 3892584 
2408.348 3995768 4055196 4067303 4039744 3988713 3933273 3891480 3873829 
2412.206 3882120 3909501 3944072 3973832 3990619 3994096 3990652 3991622 
2416.063 4007205 4043357 4099446 4168388 4239784 4305235 4360253 4405739 
2419.920 4446008 4484774 4522538 4555786 4577182 4579661 4560139 4520764 
2423.778 4468537 4412601 4361492 4319491 4287031 4261165 4238680 4217902 
2427.635 4199066 4184078 4174711 4171031 4171265 4171800 4168990 4160125 
2431.493 4144168 4121623 4093860 4063390 4033758 4009713 3997808 4004597 
2435.350 4035999 4093994 4176517 4275754 4380469 4477978 4556289 4606684 
2439.208 4624667 4610636 4569247 4509448 4444100 4386225 4348506 4338199 
2443.065 4354397 4386728 4417890 4428534 4402861 4335789 4234330 4117240 
2446.922 4007539 3927188 3890444 3900340 3950192 4027337 4118813 4212917 
2450.780 4301420 4378728 4439213 4477208 4488590 4471115 4427497 4365140 
2454.637 4294961 4227772 4171834 4131724 4107607 4097940 4101118 4116337 
2458.495 4144135 4184112 4234330 4290411 4346900 4398074 4439681 4469642 
2462.352 4487385 4492340 4484405 4463850 4432384 4394493 4357408 4327690 
2466.209 4310121 4304164 4304164 4300918 4286663 4258822 4222152 4187591 
2470.067 4166715 4168388 4193312 4234397 4280205 4320394 4349912 4370361 
2473.924 4388133 4409120 4435296 4462813 4483100 4488590 4477308 4454343 
2477.782 4430844 4419396 4428936 4460235 4507372 4559135 4606014 4642216 
2481.639 4667602 4685822 4701129 4714326 4722867 4721661 4706555 4676645 
2485.497 4635987 4591380 4550630 4519458 4499939 4491603 4492406 4501346 
2489.354 4518085 4542929 4574537 4608593 4637728 4653067 4646804 4615391 
2493.211 4561177 4492708 4421371 4359919 4318420 4301889 4309853 4336759 
2497.069 4373440 4409187 4435530 4446510 4440987 4422107 4396200 4371064 
2500.926 4352656 4345494 4350213 4366646 4392886 4428032 4471282 4521400 
2504.784 4575676 4629322 4675606 4708464 4723705 4721092 4703976 4677985 
2508.641 4648478 4618472 4588367 4556958 4523141 4487954 4454377 4426124 
2512.499 4405505 4391748 4381574 4370830 4358245 4346632 4343218 4356405 
2516.356 4391782 4448652 4518721 4588501 4645431 4681300 4696775 4698684 
2520.213 4698114 4703842 4718446 4737874 4754187 4759681 4751005 4730404 
2524.071 4704780 4681836 4666597 4659497 4657320 4656114 4653167 4648813 
2527.928 4646569 4650488 4662444 4682673 4708096 4735663 4762696 4787989 
2531.786 4811173 4830973 4844912 4849703 4843504 4827791 4808292 4794321 
2535.643 4794924 4815360 4854159 4903082 4949898 4983111 4997121 4993837 
2539.500 4982609 4975268 4982944 5010830 5057323 5114951 5173727 5223893 
2543.358 5258905 5275942 5275607 5261319 5237475 5209641 5182781 5160684 
2547.215 5145394 5136208 5129435 5120115 5103653 5077940 5044685 5008417 
2551.073 4974967 4949328 4933610 4927009 4926774 4931331 4940748 4956902 
2554.930 4982474 5017501 5058228 5096747 5123098 5130038 5115119 5083538 
2558.788 5045657 5014852 5001210 5008987 5035434 5072039 5108782 5136979 
2562.645 5153006 5157599 5154716 5148848 5142913 5137247 5130407 5120249 
2566.502 5106168 5089338 5072945 5061011 5057658 5065134 5083571 5110526 
2570.360 5141773 5171548 5193645 5203303 5197837 5178422 5149821 5119746 
2574.217 5097350 5090779 5104793 5139963 5192673 5255786 5320920 5380865 
2578.075 5430149 5465714 5487289 5496148 5494437 5484605 5469304 5450917 
2581.932 5431424 5411830 5392472 5373250 5354230 5336652 5323705 5320115 
2585.790 5331587 5362985 5416527 5490276 5578201 5671178 5758804 5831637 
2589.647 5882818 5908680 5908815 5885035 5840435 5779487 5707032 5629554 
2593.504 5554372 5488397 5438000 5406496 5393714 5395626 5406697 5420117 
2597.362 5431792 5440147 5446891 5455077 5467056 5482424 5498329 5509034 
2601.219 5509068 5496349 5472525 5444710 5422029 5414313 5428035 5464506 
2605.077 5519537 5584577 5651238 5711497 5761389 5800373 5830327 5853667 
2608.934 5872105 5886009 5893768 5894608 5888327 5875967 5859746 5841913 
2612.792 5823745 5805309 5785699 5763571 5739263 5714653 5693536 5680846 
2616.649 5681216 5698202 5732682 5784121 5849436 5924870 6005223 6084583 
2620.506 6157000 6215951 6255782 6272556 6264959 6235379 6188860 6133005 
2624.364 6076014 6024776 5984596 5958360 5946569 5948618 5963365 5988661 
2628.221 6022391 6061667 6102727 6141003 6172258 6192490 6199011 6191112 
2632.079 6169804 6138012 6100712 6064456 6035863 6021853 6027128 6053267 
2635.936 6097317 6152228 6208455 6255379 6285835 6297164 6292760 6280591 
2639.793 6270540 6271447 6287482 6317638 6356369 6395878 6429404 6452978 
2643.651 6466564 6473694 6478134 6482742 6488156 6492461 6492798 6487282 
2647.508 6476082 6462327 6450926 6446924 6454054 6473560 6503594 6540324 
2651.366 6579378 6616652 6649354 6676305 6697032 6711434 6719409 6720621 
2655.223 6714967 6703190 6687544 6671830 6660861 6659886 6672671 6700902 
2659.081 6743201 6795635 6851946 6905235 6950112 6982907 7003009 7012269 
2662.938 7014155 7012842 7011663 7013010 7017690 7025738 7035841 7046819 
2666.795 7056451 7062849 7064196 7059616 7049446 7036212 7024190 7018263 
2670.653 7023078 7041364 7072751 7113840 7159312 7203037 7240466 7269104 
2674.510 7289119 7302799 7312773 7321265 7329184 7336159 7340776 7341787 
2678.368 7338383 7331206 7321804 7313009 7308022 7309808 7320422 7340338 
2682.225 7367163 7396989 7423346 7440098 7442356 7428200 7399146 7360086 
2686.083 7317255 7276517 7241679 7214053 7193167 7177670 7167059 7161838 
2689.940 7162950 7170226 7181747 7192526 7196939 7189696 7168238 7134756 
2693.797 7094844 7056484 7026580 7009743 7006410 7014155 7029241 7048941 
2697.655 7071774 7097639 7126268 7155236 7180028 7194143 7191482 7169114 
2701.512 7128222 7075175 7019139 6969506 6933144 6912304 6904999 6905437 
2705.370 6907860 6907423 6901902 6892745 6883016 6876755 6877395 6887157 
2709.227 6906346 6934019 6968125 7006073 7045068 7082315 7115389 7141931 
2713.084 7160221 7169215 7168879 7160659 7147118 7132432 7120980 7116905 
2716.942 7122226 7136710 7157021 7177670 7192930 7197950 7190707 7172651 
2720.799 7148061 7122597 7101950 7090163 7088984 7097976 7115456 7139000 
2724.657 7165746 7193503 7219612 7242083 7259199 7270857 7278269 7284402 
2728.514 7292926 7307618 7330565 7361939 7399450 7439761 7478795 7513079 
2732.372 7540218 7558593 7567190 7565235 7552625 7530306 7501381 7470940 
2736.229 7445053 7429649 7428469 7441446 7464671 7491301 7513618 7525215 
2740.086 7523327 7509303 7488132 7466693 7451659 7447783 7456311 7474986 
2743.944 7498751 7521473 7537083 7541566 7533913 7516484 7494032 7472491 
2747.801 7457727 7453446 7460525 7477446 7500943 7527339 7553771 7578687 
2751.659 7601683 7622893 7641710 7657290 7667946 7672230 7669936 7662079 
2755.516 7651220 7640361 7632099 7627716 7626872 7628154 7628963 7627243 
2759.374 7621612 7612103 7599728 7587151 7578216 7576698 7586308 7609473 
2763.231 7645723 7691858 7741944 7789000 7826243 7849725 7859340 7858902 
2767.088 7854684 7853099 7859610 7875873 7900369 7928882 7956723 7979670 
2770.946 7995634 8004881 8010147 8015344 8025267 8044708 8076809 8122889 
2774.803 8181432 8248189 8316374 8378017 8427069 8459873 8477577 8485111 
2778.661 8490451 8501702 8524443 8560634 8608117 8661588 8714118 8760333 
2782.518 8797118 8824541 8845777 8866101 8891397 8926503 8974533 9035897 
2786.375 9107997 9185861 9263604 9335605 9398240 9451435 9497762 9542028 
2790.233 9588466 9639077 9692471 9744043 9787384 9817242 9831748 9833612 
2794.090 9829375 9828494 9840153 9870624 9922556 9994633 10082999 10182001 
2797.948 10286623 10392593 10496553 10596260 10690149 10777468 10858384 
2801.323 10934388 11008162 11082663 11160678 11244046 11332701 11425048 
2804.698 11518605 11610822 11700029 11786462 11871993 11960060 12054415 
2808.073 12158331 12273178 12398283 12530723 12665898 12799340 12927397 
2811.449 13048423 13163335 13275237 13388261 13506681 13633613 13770397 
2814.824 13916667 14070858 14230993 14394646 14560416 14727210 14894891 
2818.199 15063837 15235457 15412260 15597172 15793502 16004324 16231071 
2821.574 16473904 16731199 17000738 17279860 17566786 17860840 18162488 
2824.950 18472400 18791598 19120692 19459530 19808620 20168856 20541896 
2828.325 20930554 21338042 21767510 22221708 22702462 23210836 23747664 
2831.700 24313502 24909344 25536996 26198814 26898408 27640654 28430654 
2835.075 29274404 30178506 31149562 32195582 33326014 34552740 35891864 
2838.451 37362004 38984780 40782560 42775016 44978360 47403096 50054516 
2841.826 52932748 56034640 59354964 62884808 66612072 70519216 74579600 
2845.201 78761120 83023088 87318544 91601176 95821272 99929464 103879128 
2848.576 107620240 111102504 114276552 117091944 119503472 121472208 
2851.469 122967672 123970624 124473960 124483048 124013824 123093424 
2854.363 121756520 120039576 117983088 115626744 113009760 110175008 
2857.256 107166416 104030632 100816808 97568264 94324528 91116696 87966584 
2860.631 84890960 81903504 79016536 76244704 73602352 71103384 68759800 
2864.006 66579892 64568944 62730268 61065560 59575608 58259296 57112644 
2867.381 56126668 55286244 54571480 53956324 53413036 52913660 52430408 
2870.757 51940180 51424292 50869112 50267840 49619596 48929444 48206472 
2874.132 47463928 46717044 45981532 45274260 44611060 44006760 43474088 
2877.507 43021964 42654736 42372088 42170712 42045672 41993076 42011396 
2880.882 42101852 42266788 42506940 42819660 43198260 43631852 44108268 
2884.258 44617040 45151668 45709928 46294224 46908804 47558188 48245684 
2887.633 48973020 49740372 50547600 51393408 52275580 53190672 54132952 
2891.008 55096088 56073392 57060196 58054736 59058616 60075712 61110292 
2894.383 62166160 63245176 64347512 65472268 66618488 67785160 68971952 
2897.759 70177416 71399984 72637400 73887856 75151304 76429176 77725608 
2901.134 79045672 80394440 81775848 83193008 84648104 86143760 87682864 
2904.509 89268992 90905376 92593704 94334208 96125448 97966280 99856872 
2907.884 101799480 103798584 105860080 107990064 110192856 112471528 
2910.777 114826648 117257848 119760968 122329352 124952520 127614912 
2913.670 130298304 132984104 135653424 138291136 140883728 143416528 
2916.563 145872416 148227680 150452352 152514784 154383056 156030080 
2919.457 157436288 158586768 159470704 160078128 160400528 160433696 
2922.350 160180640 159655344 158879392 157880208 156684288 155310800 
2925.243 153772272 152075296 150226720 148238304 146128672 143922528 
2928.136 141647024 139324928 136972912 134599664 132207512 129795136 
2931.029 127360064 124900352 122415480 119906936 117378488 114838392 
2933.922 112298384 109772944 107277792 104824352 102418168 100057688 
2936.815 97735632 95443088 93174360 90930376 88719744 86556232 84455072 
2940.190 82429800 80487832 78630384 76853680 75151576 73517376 71946232 
2943.565 70436512 68989472 67609208 66301316 65072596 63928648 62873548 
2946.941 61908348 61031120 60237796 59523088 58882140 58310340 57803032 
2950.316 57354124 56953688 56588576 56242852 55899440 55544176 55167488 
2953.691 54764784 54335376 53878780 53393140 52873276 52311460 51699868 
2957.066 51034168 50314716 49546764 48738980 47901024 47041604 46167404 
2960.442 45284116 44396784 43511116 42633244 41767940 40918520 40084896 
2963.817 39265812 38458120 37659876 36871032 36093124 35328320 34578392 
2967.192 33844048 33125136 32420982 31731908 31058834 30403894 29768464 
2970.567 29152704 28555230 27973592 27404978 26847930 26302580 25770006 
2973.943 25252274 24750484 24265674 23798692 23350426 22923758 22522214 
2977.318 22148900 21805170 21488694 21193912 20912300 20635596 20357610 
2980.693 20076504 19793570 19513662 19241518 18979962 18729254 18487268 
2984.068 18250804 18017474 17787100 17561266 17343686 17138072 16947162 
2987.444 16772075 16612446 16466746 16333170 16210468 16098255 15996864 
2990.819 15907492 15831815 15771030 15725575 15694896 15676998 15668273 
2994.194 15664358 15661506 15656490 15648831 15639968 15633820 15635092 
2997.569 15648110 15675796 15718497 15773881 15836902 15901616 15961217 
3000.945 16009308 16041076 16052937 16043276 16011612 15958672 15886253 
3004.320 15796456 15692836 15579484 15460635 15340720 15221936 15104591 
3007.695 14985495 14858991 14717544 14555277 14369198 14161461 13939316 
3011.070 13712771 13493077 13288184 13101623 12931425 12772314 12617151 
3014.446 12459895 12297992 12131310 11962785 11795484 11633012 11477642 
3017.821 11331034 11194370 11068693 10954300 10850570 10755254 10664442 
3021.196 10572902 10476119 10370875 10256767 10136346 10015044 9899436 
3024.571 9796297 9711174 9647410 9605878 9584029 9577491 9579388 9581997 
3028.429 9578406 9563231 9533493 9489668 9434470 9371627 9304427 9235138 
3032.286 9163999 9090775 9016005 8941351 8870802 8808919 8759116 8722637 
3036.144 8697520 8679030 8661317 8640293 8614200 8585203 8556849 8533498 
3040.001 8517481 8507513 8499303 8487240 8466529 8435615 8396530 8355048 
3043.858 8317962 8290572 8274867 8268282 8265141 8258084 8241165 8211483 
3047.716 8170931 8124442 8078970 8041367 8016154 8004780 8005658 8014939 
3051.573 8027731 8039207 8045451 8043291 8030735 8007244 7974305 7934686 
3055.431 7892979 7854988 7825603 7808532 7804889 7812749 7828065 7845845 
3059.288 7861601 7872026 7875771 7873713 7867573 7859880 7853132 7849725 
3063.146 7851479 7859340 7873005 7891191 7910593 7927363 7937622 7938196 
3067.003 7927566 7905937 7875063 7837309 7795274 7751557 7708856 7669869 
3070.860 7637731 7615610 7604954 7605696 7615003 7628457 7640833 7648589 
3074.718 7650781 7649432 7648488 7652164 7663023 7680391 7700930 7719716 
3078.575 7732027 7735164 7728789 7715298 7697928 7679987 7664136 7651894 
3082.433 7643396 7639046 7637967 7639619 7642756 7646296 7649264 7651827 
3086.290 7654929 7660359 7669531 7682347 7696613 7708519 7713443 7707945 
3090.147 7691824 7667946 7642081 7620634 7608765 7608933 7620095 7638641 
3094.005 7659482 7678064 7690239 7693308 7685618 7665890 7634359 7592445 
3097.862 7543185 7490998 7441008 7397967 7364535 7341281 7327027 7319580 
3101.720 7317255 7319276 7325848 7337440 7353582 7373061 7393080 7411347 
3105.577 7425503 7434705 7438716 7438278 7434132 7427896 7422200 7419874 
3109.435 7425099 7440974 7467705 7501549 7534116 7555322 7555120 7528452 
3113.292 7477211 7410505 7341585 7283862 7246362 7231774 7235480 7249394 
3117.149 7266712 7282953 7299362 7319546 7347752 7384991 7427863 7468480 
3121.007 7497942 7508292 7495785 7462143 7413875 7361063 7313380 7279448 
3124.864 7264286 7268161 7287198 7313279 7337305 7349942 7344786 7320861 
3128.722 7281976 7236187 7193638 7162849 7148667 7152070 7169619 7196603 
3132.579 7227967 7260344 7291713 7320962 7345898 7364163 7373061 7370870 
3136.437 7358603 7339866 7318906 7300575 7287164 7278168 7270755 7261793 
3140.294 7249563 7235042 7220858 7210179 7204755 7203744 7203172 7199028 
3144.151 7188248 7170630 7148701 7127447 7111954 7105723 7110101 7124685 
3148.009 7147421 7176256 7208595 7242151 7273485 7299463 7316615 7323152 
3151.866 7319445 7307719 7291646 7274529 7257851 7241342 7223048 7201386 
3155.724 7176222 7150150 7127515 7113334 7110876 7120980 7141425 7168474 
3159.581 7197512 7225069 7248451 7265971 7276551 7278842 7272474 7257750 
3163.438 7236996 7214660 7195255 7183599 7182353 7191314 7208764 7231504 
3167.296 7256604 7281403 7304248 7323623 7337676 7344988 7345056 7339192 
3171.153 7330970 7325477 7327195 7338316 7357558 7380677 7401977 7417246 
3175.011 7425402 7429042 7433289 7442659 7459041 7480076 7500571 7514158 
3178.868 7516619 7507314 7489177 7466592 7443873 7422874 7403696 7385362 
3182.726 7367736 7352739 7343910 7344786 7356985 7378689 7405280 7430795 
3186.583 7450715 7464165 7473435 7483480 7498346 7519787 7545579 7570596 
3190.440 7588871 7596255 7592175 7579295 7562841 7547264 7535903 7529328 
3194.298 7525687 7522248 7516686 7507314 7493256 7474682 7451491 7424661 
3198.155 7395169 7365511 7339293 7320254 7311796 7315536 7330970 7354795 
3202.013 7382666 7409628 7431604 7446232 7453142 7454086 7452570 7453345 
3205.870 7461266 7480952 7515236 7563582 7622455 7684337 7740797 7782489 
3209.728 7803101 7800570 7777834 7740999 7697928 7656211 7620870 7594029 
3213.585 7575619 7563987 7556772 7551984 7547669 7542477 7535296 7525182 
3217.442 7512337 7498482 7486244 7478660 7478424 7485469 7497200 7509472 
3221.300 7516787 7515405 7504651 7487559 7470266 7459850 7462749 7481525 
3225.157 7515371 7559638 7607618 7652299 7688182 7712499 7725214 7728148 
3229.015 7724911 7719514 7715130 7713915 7716816 7722482 7728587 7731724 
3232.872 7728789 7718064 7700053 7677457 7655064 7637630 7628659 7628930 
3236.729 7636382 7647240 7657088 7663056 7664675 7663360 7661978 7663259 
3240.587 7668250 7676513 7686664 7697220 7707574 7718300 7730442 7744912 
3244.444 7761406 7778273 7793048 7803438 7808363 7808060 7803641 7796725 
3248.302 7788089 7778205 7767681 7757831 7750714 7749128 7755065 7768018 
3252.159 7784378 7798445 7804214 7797973 7780938 7759383 7742889 7740831 
3256.017 7758607 7795780 7846317 7900908 7950479 7990234 8019428 8040962 
3259.874 8058311 8072826 8082076 8080792 8063341 8027495 7975958 7917814 
3263.731 7863895 7825805 7811197 7821419 7852187 7895274 7941773 7983383 
3267.589 8015513 8036135 8045822 8046970 8042582 8036067 8031343 8031106 
3271.446 8037823 8051392 8070531 8091628 8110972 8125555 8133759 8136730 
3275.304 8137000 8137339 8140410 8147804 8159385 8174375 8191156 8208241 
3279.161 8223875 8235728 8241435 8238260 8224315 8199124 8164415 8124104 
3283.019 8083763 8049670 8027056 8018888 8025976 8045890 8074683 8106887 
3286.876 8137474 8162322 8179170 8188084 8191393 8192574 8195850 8204527 
3290.733 8220533 8243394 8271321 8301446 8330290 8355150 8373930 8384841 
3294.591 8386631 8378896 8362041 8337822 8309889 8282939 8261427 8247885 
3298.448 8242381 8241705 8240996 8235965 8225125 8211044 8199529 8198146 
3302.306 8212833 8245284 8292159 8345253 8394705 8431460 8450346 8450953 
3306.163 8436697 8413860 8388084 8364168 8344814 8331067 8323231 8321204 
3310.021 8325257 8334883 8348698 8363999 8377342 8385550 8386496 8380382 
3313.878 8369505 8358291 8351535 8353697 8367917 8395313 8434670 8482915 
3317.735 8535425 8586453 8629781 8661283 8678049 8680584 8673114 8662162 
3321.593 8655368 8658647 8674906 8702590 8735213 8764390 8782276 8783865 
3325.450 8769495 8745051 8719561 8702490 8700731 8715740 8743902 8776934 
3329.308 8805098 8820517 8819266 8802157 8774161 8742583 8714626 8695458 
3333.165 8687750 8691874 8706580 8729871 8760265 8796138 8835802 8877802 
3337.022 8919502 8957722 8989789 9012149 9022670 9019389 9002102 8972030 
3340.880 8932692 8889875 8849801 8819063 8802190 8799418 8807600 8819571 
3344.737 8827753 8825589 8811185 8786975 8759859 8738053 8728486 8734740 
3348.595 8755667 8786806 8821667 8854873 8882402 8903031 8916796 8924947 
3352.452 8929107 8931340 8934350 8941520 8956775 8982787 9019422 9062997 
3356.310 9106271 9140988 9159769 9158855 9139838 9109113 9075583 9048009 
3360.167 9032176 9029977 9038604 9053050 9067767 9078086 9081673 9078594 
3364.024 9070575 9060358 9050546 9044118 9042596 9046690 9055824 9067463 
3367.882 9078932 9087290 9091383 9092263 9093245 9098895 9113241 9138112 
3371.739 9172459 9211616 9250064 9282085 9304833 9318577 9326600 9333608 
3375.597 9343426 9357882 9375385 9392348 9403724 9405519 9396276 9377552 
3379.454 9353751 9331441 9317324 9316308 9330595 9358830 9396445 9436231 
3383.312 9470500 9492919 9499659 9490820 9469959 9443478 9418386 9401422 
3387.169 9397360 9408601 9435012 9474395 9522587 9574206 9623019 9663165 
3391.026 9689591 9699316 9692437 9672075 9643752 9613974 9588975 9572411 
3394.884 9566043 9569498 9581692 9601101 9626441 9656761 9690540 9725642 
3398.741 9758987 9786706 9805889 9814396 9812124 9801212 9784843 9767492 
3402.599 9752785 9743941 9742924 9750007 9764341 9783453 9803991 9821648 
3406.456 9832731 9834324 9825783 9808362 9785250 9760443 9737062 9716867 
3410.313 9699756 9684678 9670618 9657743 9647885 9644362 9650053 9667535 
3414.171 9696266 9734487 9778099 9823783 9868726 9912081 9953711 9994124 
3418.028 10032575 10067197 10094428 10111520 10116472 10110300 10096462 
3421.404 10080253 10067536 10062483 10067197 10080896 10101617 10125934 
3424.779 10150625 10173691 10193330 10208663 10219178 10224029 10222944 
3428.154 10215685 10203100 10186308 10167721 10149811 10135261 10125866 
3431.529 10122713 10125765 10133429 10143605 10154221 10163243 10170129 
3434.905 10175386 10181323 10190786 10206492 10230306 10262059 10299617 
3438.280 10339791 10379290 10416349 10450901 10485352 10522760 10565433 
3441.655 10613509 10664068 10711612 10750160 10775328 10785484 10782427 
3445.030 10770879 10756002 10742892 10734808 10732668 10735759 10742892 
3448.406 10753012 10765206 10778521 10791360 10800906 10803929 10797746 
3451.781 10781374 10756613 10728016 10701865 10684206 10680063 10692322 
3455.156 10720985 10764391 10819758 10882301 10946348 11005579 11053161 
3458.531 11083547 11094118 11086708 11067028 11044018 11027399 11023558 
3461.906 11035045 11058632 11089053 11120224 11149188 11176385 11204434 
3465.282 11236429 11272303 11308351 11337088 11350931 11343992 11315220 
3468.657 11268052 11209908 11147861 11087796 11032632 10983320 10940232 
3472.032 10904862 10879516 10867489 10871090 10889708 10920015 10957052 
3475.407 10995656 11032802 11067979 11102208 11136133 11169042 11197158 
3478.783 11215110 11218715 11206270 11180295 11146808 11113867 11087829 
3482.158 11071582 11063458 11059415 11054758 11046431 11034603 11021145 
3485.533 11008842 10999531 10993414 10988826 10983082 10974349 10961334 
3488.908 10944922 10926471 10907274 10888077 10869154 10850265 10831682 
3492.284 10813474 10796014 10779846 10764969 10750839 10737049 10723464 
3495.659 10709676 10696296 10683357 10670520 10657107 10642608 10626853 
3499.034 10611471 10598807 10592525 10595479 10608551 10629501 10652795 
3502.409 10670758 10675614 10662981 10633100 10591676 10546930 10507959 
3505.785 10481685 10470790 10473913 10486099 10500288 10509690 10510200 
3509.160 10501578 10488067 10475916 10471266 10477952 10495094 10518516 
3512.535 10542042 10559491 10566995 10563701 10551683 10535150 10518007 
3515.910 10503274 10492242 10484911 10480125 10476832 10473539 10469602 
3519.286 10464036 10456127 10445572 10433014 10420185 10409460 10402774 
3522.661 10400535 10400093 10396903 10384856 10359846 10320892 10271423 
3526.036 10217788 10168161 10130038 10107179 10099515 10103584 10113691 
3529.411 10124544 10131565 10132819 10127291 10115149 10097514 10076658 
3532.787 10055192 10036406 10022572 10014230 10009415 10003651 9991886 
3536.162 9970358 9938658 9900047 9860659 9826596 9801551 9785690 9776269 
3540.019 9769525 9762511 9754716 9748245 9745873 9748888 9755632 9760037 
3543.877 9755157 9733944 9693793 9637857 9574409 9512732 9460104 9418488 
3547.734 9385373 9355580 9324298 9290006 9254059 9220889 9195337 9181258 
3551.592 9179498 9187011 9197232 9202817 9197029 9175877 9138349 9086714 
3555.449 9025410 8960529 8898973 8846656 8807262 8781194 8765336 8754247 
3559.306 8740724 8719358 8687683 8647154 8602743 8561851 8532282 8519712 
3563.164 8528599 8559755 8610955 8676020 8744984 8803306 8833806 8822749 
3567.021 8765675 8671322 8558201 8447001 8352210 8279865 8229549 8196829 
3570.879 8175996 8161072 8146859 8128898 8103106 8066446 8017268 7956553 
3574.736 7888120 7819462 7759079 7714320 7689396 7683831 7692532 7707608 
3578.594 7722010 7730341 7730948 7725416 7715770 7704168 7691318 7677254 
3582.451 7662888 7651152 7647072 7656447 7684168 7730712 7790956 7852491 
3586.308 7897265 7907860 7874422 7800469 7701099 7595681 7498583 7416234 
3590.166 7349672 7297037 7256840 7228068 7210111 7201083 7196535 7190337 
3594.023 7175009 7146141 7104409 7056720 7012875 6982334 6971223 6979843 
3597.881 7003783 7035639 7066790 7089893 7099795 7094036 7072481 7037053 
3601.738 6990752 6938463 6886147 6840199 6807987 6795130 6805395 6838684 
3605.595 6891062 6953715 7013616 7057225 7071909 7052073 7001359 6931696 
3609.453 6858846 6797318 6757437 6742764 6751379 6775609 6804116 6823537 
3613.310 6823302 6799707 6757234 6705815 6656857 6620017 6600773 6600067 
3617.168 6614465 6637040 6658607 6670787 6669643 6657059 6639732 6625400 
3621.025 6620151 6626711 6644476 6670585 6701272 6732331 6760095 6782274 
3624.883 6798563 6810478 6820205 6830000 6840097 6846594 6840434 6810814 
3628.740 6750941 6667019 6575072 6491251 6423418 6371971 6332834 6300324 
3632.597 6270439 6240286 6210170 6183382 6164225 6156731 6162713 6181197 
3636.455 6208522 6239312 6267884 6289701 6302375 6306913 6305502 6301736 
3640.312 6297904 6294172 6288222 6276389 6255984 6226337 6190541 6155017 
3644.170 6128670 6120235 6137810 6186306 6265833 6368911 6480286 6580151 
3648.027 6648883 6675801 6662544 6622136 6569959 6519301 6476755 6442855 
3651.885 6416188 6394869 6377619 6363565 6352099 6341240 6328262 6310141 
3655.742 6284188 6250269 6211581 6173199 6140633 6118219 6109213 6115564 
3659.599 6137508 6173098 6217463 6262573 6297769 6313301 6302308 6263917 
3663.457 6203985 6134988 6073427 6033444 6026019 6054645 6115968 6200086 
3667.314 6293668 6381587 6448471 6481531 6474199 6429034 6358017 6278204 
3671.172 6203582 6142146 6097922 6074066 6075611 6110389 6186105 6302946 
3675.029 6444268 6576115 6665370 6701272 6694273 6661871 6617628 6567470 
3678.886 6512877 6454020 6390935 6326883 6267077 6217564 6184525 6171148 
3682.744 6177736 6201599 6237833 6280255 6323589 6364943 6402737 6435995 
3686.601 6462899 6479345 6479950 6460410 6421569 6371533 6324967 6294777 
3690.459 6287012 6298677 6320059 6339155 6345375 6333439 6303115 6258505 
3694.316 6205834 6152328 6104374 6065800 6038114 6020274 6009960 6004417 
3698.174 6001393 6000117 6000587 6003006 6008549 6018023 6032100 6051352 
3702.031 6076014 6105248 6138012 6172459 6206775 6238606 6265934 6286709 
3705.888 6298946 6301165 6292760 6273834 6245833 6211749 6176593 6146716 
3709.746 6129241 6130048 6151723 6190877 6238606 6283986 6317571 6335120 
3713.603 6337171 6327455 6310276 6289802 6269329 6250875 6235950 6225732 
3717.461 6220959 6222606 6231244 6247681 6271851 6303652 6342248 6385857 
3721.318 6432127 6478201 6521387 6559497 6591522 6616552 6633676 6641078 
3725.176 6636569 6617863 6584659 6539449 6487719 6436398 6391137 6356201 
3729.033 6333809 6324564 6328161 6343828 6370020 6403914 6442115 6480690 
3732.890 6516207 6547690 6574971 6599428 6622439 6643298 6659717 6668331 
3736.748 6665471 6649657 6621295 6582607 6537094 6489939 6447530 6415919 
3740.605 6400619 6405898 6434448 6488829 6569993 6676911 6799337 6914796 
3744.463 6995130 7022506 7001932 6952974 6896583 6847435 6815930 6809064 
3748.320 6830808 6879683 6946981 7016041 7064399 7073323 7035067 6954860 
3752.177 6847334 6730312 6619176 6522833 6446891 6394398 6367163 6367431 
3756.035 6395912 6450523 6523674 6602859 6671695 6713386 6716886 6679535 
3759.892 6609621 6522867 6438215 6370895 6329237 6315957 6328867 6363565 
3763.750 6412893 6468717 6521521 6562894 6587721 6596232 6592060 6579983 
3767.607 6564375 6547590 6529829 6510758 6489670 6466632 6443326 6421299 
3771.465 6402266 6386866 6375030 6366490 6360337 6357143 6356975 6360774 
3775.322 6369348 6383369 6402367 6425335 6450287 6474064 6492764 6502316 
3779.179 6499962 6485264 6461184 6431892 6402233 6376073 6355461 6341710 
3783.037 6335322 6336129 6343526 6356975 6375434 6396887 6419618 6440064 
3786.894 6454525 6459166 6450657 6428294 6393961 6353007 6312561 6280120 
3790.752 6262338 6261665 6277901 6307014 6343862 6383504 6422308 6458695 
3794.609 6491856 6521689 6547522 6568479 6584592 6597308 6610798 6630244 
3798.467 6660861 6707060 6770191 6846089 6921663 6976240 6987587 6946577 
3802.324 6864367 6764840 6669946 6595290 6550045 6537734 6558622 6607569 
3806.181 6672537 6733913 6771975 6776249 6749326 6703156 6651676 6607165 
3810.039 6576653 6563534 6566393 6581800 6604407 6630009 6656924 6685255 
3813.896 6716415 6750806 6785168 6811790 6821080 6807314 6773086 6729236 
3817.754 6689428 6665841 6669441 6707632 6782206 6883757 6988227 7064836 
3821.611 7091240 7068204 7013616 6949877 6893149 6852518 6830976 6826129 
3825.469 6830875 6836193 6833365 6817176 6788130 6751143 6713386 6680814 
3829.326 6657261 6644375 6641885 6649018 6665336 6691480 6728798 6778167 
3833.183 6837977 6904056 6968731 7023247 7057764 7065813 7045136 6999945 
3837.041 6939103 6874735 6817310 6772513 6740576 6718366 6703291 6694307 
3840.898 6692490 6699926 6717222 6742595 6771807 6798428 6816906 6823941 
3844.756 6820003 6808357 6793851 6780894 6772278 6769754 6773456 6782745 
3848.613 6796779 6814853 6836226 6860059 6885406 6910890 6934087 6952772 
3852.470 6964725 6970213 6972267 6974758 6978664 6981190 6977856 6964355 
3856.328 6938362 6899545 6850061 6794760 6739903 6691211 6654266 6633003 
3860.185 6629100 6642659 6672503 6715304 6767600 6824850 6882006 6933279 
3864.043 6972940 6996274 7002167 6994153 6979641 6966745 6961829 6967553 
3867.900 6982738 7000786 7009811 6997857 6959775 6903450 6845618 6803881 
3871.758 6787793 6798630 6829730 6868945 6900858 6911496 6895943 6859082 
3875.615 6813170 6770561 6741047 6729404 6737009 6762417 6802905 6854572 
3879.472 6911664 6966038 7009171 7033416 7035033 7015333 6979742 6935467 
3883.330 6891634 6857265 6839222 6841276 6860361 6887022 6909375 6920283 
3887.187 6919307 6911261 6902609 6899343 6904628 6918600 6937352 6953513 
3891.045 6958934 6947553 6919037 6878539 6834274 6794322 6765009 6751110 
3894.902 6754239 6775038 6811757 6861438 6918936 6978361 7033349 7078173 
3898.760 7109663 7127077 7133274 7132197 7128693 7126403 7127481 7132567 
3902.617 7140146 7147354 7148937 7138731 7112088 7067396 7007420 6938901 
3906.474 6870898 6811992 6769686 6748619 6749124 6767835 6797890 6830774 
3910.332 6858038 6873355 6873860 6860126 6835755 6806338 6778235 6756965 
3914.189 6747307 6752691 6775004 6812430 6860294 6910688 6953782 6981122 
3918.047 6988564 6976375 6949439 6915570 6883723 6860967 6852114 6857904 
3921.904 6876519 6903787 6934457 6963715 6987654 7004188 7013548 7017960 
3925.761 7019980 7021731 7024358 7027456 7030453 7032541 7033618 7034258 
3929.619 7035235 7037659 7041700 7046314 7049816 7049917 7044866 7034292 
3933.476 7019071 7000450 6979809 6958260 6935669 6911900 6886989 6861371 
3937.334 6836597 6815459 6801188 6797688 6807684 6832625 6871470 6920654 
3941.191 6973210 7019509 7050692 7059953 7046785 7017354 6983075 6955802 
3945.049 6946005 6959337 6996140 7051635 7116534 7180803 7234402 7271463 
3948.906 7290534 7295083 7290635 7282818 7276382 7273754 7275540 7280493 
3952.763 7286052 7288950 7285446 7272676 7249529 7217456 7180803 7146040 
3956.621 7119903 7107306 7109966 7125292 7147859 7170798 7188484 7197714 
3960.478 7198658 7193773 7186395 7179523 7173695 7167632 7159817 7148129 
3964.336 7132533 7114716 7097404 7084067 7077061 7077331 7084336 7096528 
3968.193 7112055 7129300 7147724 7167228 7187709 7208461 7227832 7243565 
3972.051 7253471 7256099 7252022 7243869 7235783 7232178 7236423 7248956 
3975.908 7267285 7286592 7301316 7307449 7303507 7291342 7275135 7260075 
3979.765 7250136 7247002 7250102 7257042 7264893 7271025 7274159 7273316 
3983.623 7267487 7255257 7235480 7207551 7173325 7137350 7105453 7084437 
3987.480 7078577 7088243 7109394 7135497 7158874 7174167 7180197 7179321 
3991.338 7176559 7176222 7180129 7187035 7193301 7195356 7191415 7183027 
3995.195 7174605 7171135 7177064 7193470 7218635 7248215 7276686 7299733 
3999.052 7314862 7321164 7319411 7311459 
##END=
