##TITLE=bd_5 Sep 16 14:19:40 2026 (GMT+02:00)
##JCAMP-DX=5.01  $$ Nicolet v. 970
##DATATYPE=INFRARED SPECTRUM
##ORIGIN=Vojna akademija
##OWNER=Nicolet
##LONGDATE=2026/09/16
##TIME=14:20:10
##SPECTROMETER/DATA SYSTEM=Nicolet iS20
##DATA PROCESSING=
Ratio against background
%Transmittance->Absorbance
Truncated
ElementMultiply or ElementDivide
##COMMENTS=
Number of sample scans: 8
Collection length: 11,90 sec
Sample gain: 8,0
Background collected on: Wed Sep 16 13:55:34 2026 (GMT+02:00);
Number of background scans: 8
Background gain: 8,0
Sample spacing:  1,000
Number of scan points: 12415
Resolution points: 8286
Number of FFT points: 65536
Apodization: N-B strong;
Phase correction: Mertz;
Laser frequency: 15798,00 cm-1
Number of rejected sample scans: 0
Number of rejected background scans: 0
Bench serial number: BER2010005;
##RESOLUTION= 4,000
##XUNITS=1/CM
##YUNITS=ABSORBANCE
##FIRSTX=400.156891
##LASTX=4000.123047
##FIRSTY=0.010286
##MAXX=4000.123047
##MINX=400.156891
##MAXY=0.265712
##MINY=0.000313
##XFACTOR=1.000000
##YFACTOR=1.000000E-009
##NPOINTS=7468
##DELTAX=0.482117
##ZPD=6100
##XYDATA=(X++(Y..Y))
400.157 10286317 12497881 14720184 16544668 17757724 18354208 18469460 
403.532 18308862 18088040 18004972 18254984 19005370 20376084 22417742 
406.907 25083636 28238712 31675160 35166360 38474372 41408920 43855388 
410.281 45763932 47126204 47921964 48095448 47580924 46355864 44517436 
413.656 42290744 39997840 37957844 36378488 35350604 34842836 34749360 
417.031 34899744 35094436 35139308 34895184 34367004 33716976 33173810 
420.406 32894082 32939118 33274536 33805076 34383680 34831024 34976736 
423.781 34688452 33938512 32812384 31478040 30107794 28834938 27751724 
427.155 26928054 26459224 26478594 27122980 28492494 30573614 33207786 
430.530 36078072 38796376 41008456 42486296 43211072 43340620 43128144 
433.905 42791320 42458964 42133356 41731500 41153052 40363184 39421800 
437.280 38462680 37622440 36991160 36594536 36408464 36393764 36526448 
440.655 36809464 37256320 37854508 38536756 39163184 39561544 39596824 
444.030 39221092 38505400 37619764 36791360 36228740 36093480 36449792 
447.404 37245020 38314928 39430108 40366604 40936980 41040432 40669564 
450.779 39908836 38907004 37842724 36876840 36090384 35480312 34982556 
454.154 34534800 34114640 33764680 33569148 33619124 33947900 34495732 
457.529 35101660 35589552 35856920 35934116 35945776 36036168 36292100 
460.904 36710188 37216428 37714480 38149136 38545700 39008956 39664124 
464.278 40583080 41725628 42925900 43929768 44500660 44491996 43931380 
467.653 43002280 41981212 41108064 40505672 40171316 40009100 39893652 
471.028 39723848 39459496 39115720 38729360 38317136 37859824 37313472 
474.403 36645872 35857456 34988692 34106716 33295784 32632142 32176062 
477.778 31967300 32017484 32311962 32806062 33428886 34073928 34619512 
481.152 34959424 35028704 34841868 34493400 34138436 33926764 33953380 
484.527 34214540 34608028 34963844 35110460 34942296 34437084 33660476 
487.902 32734134 31814468 31046340 30533230 30319962 30378024 30611762 
491.277 30879670 31044134 30997620 30706772 30222906 29668264 29186014 
494.652 28887878 28825802 28972522 29240096 29506770 29673514 29693312 
498.027 29587810 29426452 29296876 29262140 29334558 29475848 29615160 
501.401 29686890 29665428 29587564 29540604 29629350 29924270 30440284 
504.776 31125356 31882320 32581672 33100858 33358142 33323258 33027880 
508.151 32544744 31963448 31356148 30767124 30216620 29712434 29268734 
511.526 28914898 28688548 28627350 28749612 29045138 29474784 29982348 
514.901 30507352 30991714 31392940 31678796 31822990 31802204 31597152 
518.276 31204706 30651194 30003578 29358308 28814330 28449686 28290412 
521.650 28309296 28438966 28603498 28744054 28837380 28899068 28970716 
525.025 29094524 29287306 29532056 29785602 30003400 30159184 30257968 
528.400 30325718 30397106 30496688 30634658 30806854 31001358 31200682 
531.775 31381756 31511422 31536826 31393048 31018972 30380262 29496982 
535.150 28454178 27394250 26465776 25794934 25444586 25401620 25589850 
538.524 25900046 26229928 26500112 26673424 26745728 26734064 26663240 
541.899 26561186 26458730 26387638 26379716 26457112 26624030 26860092 
545.274 27124990 27373922 27566788 27685184 27729860 27710152 27630274 
548.649 27483194 27256848 26950618 26592536 26247384 25995790 25916576 
552.024 26047538 26368942 26800950 27231870 27552138 27689034 27633876 
555.398 27437554 27190208 26980022 26875496 26904542 27056750 27293506 
558.773 27563506 27817142 28008542 28104436 28085948 27952354 27722654 
562.148 27434026 27131798 26852374 26615152 26418658 26250482 26102850 
565.523 25989036 25946016 26026852 26274138 26697030 27255860 27873526 
568.898 28454746 28924212 29256966 29480278 29657374 29851114 30099876 
572.273 30395364 30691198 30918342 31017940 30957482 30739490 30393728 
575.647 29968146 29514962 29078900 28701822 28419368 28260600 28245678 
579.022 28375932 28627244 28946878 29269796 29533582 29702290 29779854 
582.397 29804410 29832232 29910496 30064898 30287312 30543254 30781492 
585.772 30956842 31040254 31025308 30926064 30770148 30591142 30417218 
589.147 30267098 30143772 30033828 29909218 29739686 29503684 29202740 
592.521 28866170 28544862 28298440 28171002 28180762 28312832 28525894 
595.896 28761400 28961720 29085810 29110186 29028702 28844746 28563934 
599.271 28191474 27737560 27221958 26674340 26135540 25648968 25249288 
602.646 24962648 24800542 24762130 24836608 25006448 25249498 25538822 
606.021 25847434 26148770 26419856 26646258 26820966 26943638 27015808 
609.396 27034638 26992046 26877364 26683148 26413764 26089514 25745150 
612.770 25417532 25138296 24923274 24769006 24656804 24560934 24459160 
616.145 24336840 24189822 24021806 23840448 23654374 23472014 23302912 
619.520 23156804 23042710 22965570 22923966 22909786 22910450 22916284 
622.895 22923688 22939302 22975494 23046624 23159390 23309590 23480934 
626.270 23653114 23806916 23931118 24025098 24094930 24148206 24189122 
629.644 24215816 24221598 24197002 24132722 24021176 23858196 23643598 
633.019 23383610 23093516 22800228 22534918 22330808 22208702 22170518 
636.394 22196706 22253446 22305310 22326692 22312460 22276638 22243088 
639.769 22230288 22242564 22265164 22272452 22240402 22161522 22050340 
643.144 21942392 21877854 21888654 21985260 22154306 22363006 22571946 
646.519 22751202 22883136 22967108 23014096 23040964 23064444 23097534 
649.893 23149988 23226426 23326372 23442604 23562012 23665362 23731704 
653.268 23744374 23693492 23578736 23407458 23193326 22953554 22708816 
656.643 22486340 22315530 22227534 22247796 22385996 22629922 22941258 
660.018 23267710 23549630 23739370 23814896 23779616 23661966 23504298 
663.393 23355288 23255580 23235586 23314346 23500696 23789906 24152198 
666.767 24517846 24749714 24680230 24225344 23495798 22740590 22179340 
670.142 21923398 21983658 22324912 22884744 23587062 24336630 25035228 
673.517 25605736 25996422 26192830 26209900 26084096 25862626 25601940 
676.892 25365824 25210414 25179340 25291116 25532252 25858618 26205606 
680.267 26509200 26718630 26815574 26813566 26751928 26678144 26634352 
683.642 26649676 26734238 26883180 27082634 27318664 27579534 27859322 
687.016 28156048 28468118 28792238 29120284 29437302 29723648 29957106 
690.391 30117170 30193246 30188416 30123314 30030632 29951638 29924162 
693.766 29973828 30113406 30341460 30645824 31007408 31405586 31817108 
697.141 32218776 32590922 32918494 33196948 33435040 33654604 33883880 
700.516 34147076 34458604 34818208 35215548 35637352 36078072 36543204 
703.890 37047016 37601124 38204996 38837576 39462764 40037404 40532336 
707.265 40944296 41301916 41655128 42059360 42559748 43176556 43903556 
710.640 44714728 45577908 46462124 47347148 48225576 49100664 49986404 
714.015 50906660 51897464 52999860 54253412 55686080 57302020 59078816 
717.390 60970340 62922648 64880340 66800148 68650656 70398872 72000088 
720.765 73390360 74488496 75223752 75554328 75485600 75066968 74379640 
724.139 73511488 72531976 71489904 70409200 69297288 68154544 66976352 
727.514 65755136 64476916 63126220 61693776 60187252 58636168 57092580 
730.889 55617872 54261708 53054184 51996572 51067968 50235704 49470564 
734.264 48754216 48076908 47433328 46813244 46199024 45571208 44916260 
737.639 44236360 43551700 42894376 42292500 41756376 41270944 40798684 
741.013 40292544 39713752 39050788 38325820 37590824 36907464 36335072 
744.388 35908168 35627212 35458740 35345504 35225972 35046880 34782024 
747.763 34435508 34039056 33636844 33273208 32973792 32737528 32536458 
751.138 32328274 32074776 31754862 31375882 30970328 30587444 30270686 
754.513 30048208 29925086 29886536 29907870 29964596 30041178 30129564 
757.888 30225890 30324084 30412314 30476110 30503798 30492460 30449204 
761.262 30387866 30319750 30246636 30157018 30031662 29855304 29624914 
764.637 29357174 29083754 28843790 28667700 28569490 28542562 28566022 
768.012 28610576 28647950 28657788 28626042 28544898 28411480 28229800 
771.387 28013632 27788140 27589068 27450720 27397250 27431414 27530884 
774.762 27651036 27736148 27740032 27632958 27412744 27099422 26730152 
778.136 26345176 25980312 25663660 25410788 25226252 25103680 25028454 
781.511 24979178 24933450 24874676 24796894 24707516 24624646 24572012 
784.886 24567174 24616406 24711094 24833380 24961666 25077246 25169366 
788.261 25232256 25259790 25242826 25167684 25023612 24810856 24546768 
791.636 24265182 24006784 23807160 23680930 23617776 23586186 23549700 
795.010 23481004 23376966 23259634 23169350 23146912 23216430 23376896 
798.385 23601368 23847204 24067648 24230566 24321386 24344936 24319144 
801.760 24268652 24218374 24187754 24192484 24241638 24338980 24482822 
805.135 24667114 24880676 25109998 25339902 25556078 25744904 25895896 
808.510 26001806 26061542 26081984 26080330 26080682 26108586 26184632 
811.885 26315744 26491694 26685860 26864674 26993842 27050402 27029808 
815.259 26945470 26824810 26702244 26614446 26591408 26653728 26809724 
818.634 27053258 27364218 27709128 28049754 28344840 28562164 28685254 
822.009 28717220 28679344 28604382 28531062 28492564 28511282 28596596 
825.384 28742496 28929842 29128646 29307298 29435210 29493186 29479890 
828.759 29415036 29335622 29286136 29308468 29425530 29635842 29912590 
832.133 30214808 30496086 30719396 30866900 30939692 30955170 30937450 
835.508 30913826 30906532 30932006 30999790 31111224 31259928 31432264 
838.883 31611654 31782240 31935454 32073702 32210104 32362544 32545172 
842.258 32761428 33000388 33241588 33459946 33638096 33769548 33860096 
845.633 33921316 33965384 34000712 34032820 34068336 34117504 34192280 
849.008 34300912 34437836 34580332 34688884 34725096 34665016 34517616 
852.382 34324508 34152636 34068264 34110408 34278500 34531464 34806868 
855.757 35041600 35201140 35285264 35324044 35355244 35408120 35489336 
859.132 35584880 35671668 35735124 35777760 35821112 35892476 36010748 
862.507 36177240 36374308 36574964 36755372 36908728 37045320 37186972 
865.882 37353700 37554408 37781704 38017800 38242084 38442768 38620588 
869.256 38786852 38955020 39133124 39318152 39496076 39645284 39743668 
872.631 39775076 39732196 39619112 39450424 39253120 39060356 38907148 
876.006 38824712 38829420 38919796 39074676 39261244 39441032 39582488 
879.381 39670440 39705472 39701732 39678428 39656028 39650436 39674652 
882.756 39740148 39856244 40027992 40252084 40514256 40788168 41043928 
886.131 41258884 41425392 41557216 41682804 41836380 42039612 42291984 
889.505 42567420 42824488 43018232 43117680 43117128 43036228 42913064 
892.880 42787812 42694068 42645524 42635328 42638656 42623996 42562668 
896.255 42436968 42246844 42008988 41752876 41508324 41299076 41132468 
899.630 40998880 40875668 40739432 40576388 40391840 40209076 40063348 
903.005 39988680 40001432 40094708 40236776 40383220 40487668 40517496 
906.379 40463336 40336604 40163244 39971572 39785576 39616788 39466500 
909.754 39327364 39189620 39045604 38892724 38734680 38582672 38453232 
913.129 38364728 38334072 38370228 38470028 38616244 38781992 38935124 
916.504 39046948 39101580 39096684 39042956 38956148 38850980 38733848 
919.879 38603244 38452796 38277652 38081164 37878336 37693084 37556248 
923.254 37498052 37539852 37690192 37939512 38260900 38610736 38938096 
926.628 39194552 39341660 39364332 39273900 39107852 38915956 38751636 
930.003 38655064 38644096 38714108 38844384 39007652 39179140 39343144 
933.378 39493536 39629708 39753804 39868992 39980944 40099104 40238268 
936.753 40414492 40637912 40906800 41204596 41503952 41773556 41993440 
940.128 42162056 42299144 42437372 42611424 42844640 43140220 43482000 
943.502 43841276 44190392 44509800 44793992 45050396 45292536 45533268 
946.877 45780904 46037932 46302964 46573980 46850632 47135508 47433472 
950.252 47750764 48092380 48461012 48853908 49260856 49662836 50036744 
953.627 50359700 50617476 50812792 50968024 51121228 51311808 51571236 
957.002 51909228 52312696 52750956 53191384 53612952 54014404 54414160 
960.377 54841544 55323952 55874228 56486980 57141368 57810412 58467256 
963.751 59092824 59675500 60208296 60687828 61113384 61490144 61829224 
967.126 62147156 62459276 62771240 63073380 63341656 63547232 63666148 
970.501 63693160 63644736 63555324 63462740 63395680 63365772 63366652 
973.876 63381032 63390040 63381264 63348636 63288452 63194356 63055032 
977.251 62857964 62597564 62282708 61936856 61592616 61280432 61014228 
980.625 60786908 60572352 60339208 60062012 59735376 59375328 59014548 
984.000 58688092 58420516 58219816 58074848 57961388 57850120 57717496 
987.375 57548256 57337976 57092768 56827156 56562912 56323796 56135188 
990.750 56016356 55975872 56009608 56100992 56224524 56351412 56458600 
994.125 56530452 56560912 56551248 56508528 56443280 56370576 56309652 
997.500 56282304 56308708 56401928 56560912 56768808 56995740 57208984 
1000.874 57381576 57503240 57582792 57646052 57725440 57848528 58032580 
1004.249 58278544 58573604 58894964 59217284 59515412 59766820 59955528 
1007.624 60072400 60117948 60102800 60048012 59979456 59922284 59897868 
1010.999 59919432 59994368 60127804 60323788 60586596 60916848 61306724 
1014.374 61735252 62170096 62576212 62921004 63189604 63386128 63533380 
1017.748 63661276 63797532 63959860 64153240 64373492 64612424 64862728 
1021.123 65116288 65361984 65583736 65758028 65863824 65890624 65847860 
1024.498 65764620 65686024 65658196 65710224 65846816 66044204 66261524 
1027.873 66451876 66580400 66635132 66625976 66578120 66521696 66480876 
1031.249 66466124 66473076 66486248 66487096 66460564 66402144 66320076 
1034.624 66233696 66166548 66137224 66151812 66199580 66254496 66283172 
1037.999 66259520 66172996 66036300 65879092 65741144 65656424 65642624 
1041.374 65699592 65815276 65973544 66163504 66383420 66636332 66922432 
1044.750 67233048 67548424 67843024 68098104 68307680 68482880 68645528 
1048.125 68818336 69012848 69227032 69448744 69668160 69887528 70125896 
1051.500 70411696 70772592 71220640 71745488 72316512 72894992 73451016 
1054.875 73970512 74458800 74931224 75401400 75872008 76333024 76768968 
1058.251 77169352 77535952 77882760 78227504 78583560 78951280 79319024 
1061.626 79669416 79990280 80280024 80548328 80808144 81067480 81323856 
1065.001 81565224 81775888 81946480 82078864 82184752 82279888 82375848 
1068.376 82478120 82587024 82705376 82844424 83024776 83271952 83607384 
1071.752 84038160 84554256 85132152 85746376 86376592 87016544 87670904 
1075.127 88347496 89047504 89761232 90469528 91154416 91807192 92435320 
1078.502 93059808 93709080 94407256 95166776 95985976 96853608 97752600 
1081.877 98666104 99581488 100489488 101386592 102274984 103167552 104085872 
1085.253 105055888 106101808 107233040 108439312 109690272 110946168 
1088.146 112171944 113348280 114477136 115574728 116657936 117730912 
1091.039 118780440 119782448 120715312 121571536 122361112 123102272 
1093.932 123806632 124465576 125047296 125506056 125805024 125929904 
1096.825 125897360 125743136 125508488 125220864 124887936 124505296 
1099.718 124069816 123591080 123094792 122611640 122165016 121760600 
1102.611 121386672 121024304 120662544 120307960 119983056 119713864 
1105.504 119514560 119380112 119289136 119217064 119152408 119104144 
1108.397 119098704 119161952 119300816 119494360 119697848 119864488 
1111.290 119963664 119996760 119993272 119994368 120025944 120085136 
1114.183 120137744 120137440 120046088 119851912 119572680 119242872 
1117.076 118893232 118533592 118152160 117725824 117238360 116693480 
1119.969 116115656 115539056 114991176 114479464 113991616 113507080 
1122.862 113013968 112522184 112063640 111680904 111415224 111290024 
1125.755 111310616 111470688 111764688 112197128 112783808 113542888 
1128.649 114484248 115599984 116866128 118250728 119729104 121295488 
1131.542 122962792 124753840 126688464 128773048 130998672 133347568 
1134.435 135802832 138357104 141008720 143751600 146565168 149405952 
1137.328 152217424 154948400 157566800 160072736 162490288 164849536 
1140.221 167163472 169418160 171576320 173599760 175467584 177189360 
1143.114 178796160 180324496 181791520 183187200 184481120 185645856 
1146.007 186676480 187601136 188467472 189323632 190194288 191071104 
1148.900 191922448 192715936 193442304 194123280 194801856 195519376 
1151.793 196295984 197120176 197958240 198773664 199548928 200290048 
1154.686 201016496 201739776 202446576 203094256 203630192 204010208 
1157.579 204224032 204297824 204282208 204224640 204150608 204057120 
1160.472 203924000 203730144 203468704 203147584 202775184 202344032 
1163.365 201823856 201167856 200339200 199334848 198198176 197002736 
1166.258 195827520 194721840 193682496 192658160 191573040 190365344 
1169.151 189007040 187514592 185930736 184304096 182663728 181016192 
1172.045 179354752 177675904 175991392 174327296 172708816 171145472 
1174.938 169618880 168090688 166514400 164859760 163126048 161340496 
1177.831 159543904 157772736 156046208 154363312 152712128 151083680 
1180.724 149480608 147917392 146410752 144967712 143580288 142227696 
1183.617 140887392 139545648 138204624 136879024 135586896 134336208 
1186.510 133120120 131918784 130711064 129483368 128240224 126999872 
1189.403 125789928 124633128 123540880 122511808 121534664 120594352 
1192.296 119676288 118768208 117858280 116933960 115984328 115003176 
1195.189 113994376 112972920 111962440 110985696 110056480 109175392 
1198.082 108331592 107509840 106701112 105907976 105144824 104430448 
1200.975 103777336 103185280 102640536 102121752 101608776 101092096 
1203.868 100575904 100073304 99598360 99159584 98756224 98381088 98025864 
1207.244 97686376 97364608 97065184 96790712 96537208 96295064 96053432 
1210.619 95807176 95562104 95333048 95139552 94996568 94906672 94858936 
1213.994 94831656 94802880 94755072 94682008 94587248 94479896 94369328 
1217.369 94262616 94165016 94081688 94020336 93990384 94000056 94052800 
1220.745 94144688 94265616 94403136 94548560 94700592 94866112 95055248 
1224.120 95277008 95533160 95817384 96116224 96414240 96699248 96963440 
1227.495 97205248 97427000 97633264 97829912 98023624 98221112 98427384 
1230.870 98642520 98859560 99065752 99244440 99381336 99471528 99520856 
1234.245 99544440 99558768 99576280 99598240 99616120 99615784 99586112 
1237.621 99523232 99432816 99324736 99208088 99084944 98949720 98791376 
1240.996 98599488 98368616 98098296 97790528 97445872 97060136 96626144 
1244.371 96136976 95591872 94998000 94370816 93727664 93082424 92442992 
1247.746 91810512 91182536 90558016 89939440 89332648 88744744 88181144 
1251.122 87644104 87133888 86650432 86195440 85770960 85377096 85008744 
1254.497 84654136 84296696 83918960 83509024 83063608 82588472 82093600 
1257.872 81589656 81083696 80579720 80083144 79604656 79160320 78768872 
1261.247 78442112 78179224 77962880 77766104 77559600 77322344 77047984 
1264.623 76742720 76418632 76084200 75739728 75377992 74990960 74577480 
1267.998 74147960 73722960 73326960 72975384 72671048 72401056 72145080 
1271.373 71882344 71602296 71308728 71016360 70743928 70505224 70304984 
1274.748 70137504 69990128 69847208 69694728 69520952 69316344 69073288 
1278.124 68785808 68452192 68077096 67673208 67257928 66849804 66464544 
1281.499 66109636 65784744 65482436 65192088 64901428 64599080 64275704 
1284.874 63923852 63541056 63130660 62704892 62282020 61882100 61520916 
1288.249 61202868 60919556 60652660 60383296 60098772 59799444 59496716 
1291.625 59209236 58952608 58733536 58548804 58389204 58246756 58120072 
1295.000 58015424 57942836 57908156 57906828 57921784 57928032 57903008 
1298.375 57832820 57718100 57571592 57411676 57253212 57102368 56956860 
1301.750 56809556 56653916 56488716 56316820 56143412 55970180 55794388 
1305.126 55608908 55407284 55188220 54958288 54729640 54516968 54331808 
1308.501 54178256 54054328 53952912 53866852 53789816 53717064 53643616 
1311.876 53562984 53468420 53356348 53230668 53103232 52992452 52916840 
1315.251 52885776 52895584 52927656 52955616 52950864 52894196 52781824 
1318.627 52624780 52443080 52255664 52074340 51899592 51723124 51533592 
1322.002 51322548 51086008 50826272 50549536 50264012 49977296 49695748 
1325.377 49423296 49161216 48908640 48662620 48420112 48180964 47949824 
1328.752 47737264 47558300 47428372 47357088 47344524 47379816 47444820 
1332.128 47518820 47587728 47648104 47707936 47782052 47887000 48034420 
1335.503 48227760 48462492 48730008 49021352 49328740 49646376 49966368 
1338.878 50275988 50557984 50795624 50979168 51110084 51200332 51266880 
1342.253 51323816 51380876 51441748 51507024 51576872 51653628 51741336 
1345.629 51844744 51965388 52102508 52252860 52414516 52589100 52782684 
1349.004 53001584 53248424 53516768 53790640 54047276 54265800 54433092 
1352.379 54548784 54623140 54672480 54711976 54750236 54789180 54827972 
1355.754 54868236 54917412 54986492 55084880 55213880 55364072 55516500 
1359.130 55648340 55742548 55792880 55806744 55799624 55790544 55791824 
1362.505 55804860 55822756 55837716 55848192 55860928 55886100 55933208 
1365.880 56006368 56103896 56219248 56344280 56472752 56600616 56726144 
1369.255 56847588 56962680 57069720 57170204 57272192 57389516 57540384 
1372.630 57741488 57999896 58308064 58643680 58978112 59286668 59554400 
1376.006 59772408 59925252 59985656 59912848 59659684 59194276 58512064 
1379.381 57643100 56638628 55555848 54439516 53313492 52192284 51087424 
1382.756 50016332 49002952 48068136 47222200 46458988 45757600 45086640 
1386.131 44414916 43725172 43017352 42309116 41623472 40976884 40374532 
1389.507 39813680 39289388 38798444 38340224 37914488 37518320 37145180 
1392.882 36786744 36437000 36096904 35778836 35503140 35289112 35145668 
1396.257 35069296 35046700 35062396 35101800 35152708 35206784 35258708 
1399.632 35307188 35354348 35404456 35462120 35530796 35610808 35698612 
1403.008 35786896 35864584 35921084 35949268 35950780 35935088 35918676 
1406.383 35919036 35950960 36027236 36158228 36353844 36623696 36974056 
1409.758 37406640 37915248 38486464 39101868 39741492 40389440 41032456 
1413.133 41659208 42258604 42816152 43317192 43748700 44100860 44369004 
1416.509 44549120 44632872 44602064 44430148 44095284 43604264 43003892 
1419.884 42365584 41749956 41188712 40684044 40222964 39790256 39377788 
1423.259 38990396 38646556 38368384 38171420 38055920 38009448 38016680 
1426.634 38069336 38170624 38335016 38581116 38923312 39361972 39880868 
1430.010 40451700 41044252 41637404 42220224 42790700 43350248 43900876 
1433.385 44445524 44990820 45547472 46131844 46759736 47434916 48133428 
1436.760 48804892 49395192 49875600 50251920 50551696 50806644 51045348 
1440.135 51287236 51542432 51811180 52085548 52352876 52601104 52824592 
1443.511 53026032 53217040 53414652 53639192 53910368 54244812 54654404 
1446.886 55142776 55703144 56319988 56976320 57664972 58396900 59197160 
1450.261 60099912 61134324 62311124 63612052 64990276 66388516 67749216 
1453.636 69041280 70261856 71424976 72548192 73628816 74624376 75448984 
1457.012 76021592 76336104 76465568 76510568 76532312 76550256 76566064 
1460.387 76580960 76602304 76641392 76706152 76795344 76892040 76964672 
1463.762 76966288 76843160 76546536 76030040 75247904 74154096 72697256 
1467.137 70847944 68611072 66036492 63196732 60173928 57026304 53745756 
1470.513 50273312 46520832 42450380 38176344 34005480 30315308 27339764 
1473.888 25075526 23353924 21966928 20768556 19685766 18708222 17852070 
1477.263 17128800 16527319 16018385 15568048 15151251 14756895 14384884 
1480.638 14038996 13720055 13421921 13136730 12858927 12592591 12347861 
1484.014 12137034 11966464 11831609 11716674 11600000 11462197 11295224 
1487.389 11104893 10906900 10717996 10544452 10380750 10215549 10044646 
1490.764 9876421 9725677 9604320 9514289 9447676 9392280 9336350 9273725 
1494.621 9206945 9147925 9112530 9112666 9145794 9194219 9233040 9245055 
1498.479 9226744 9184473 9127419 9060188 8981670 8888354 8779773 8662162 
1502.336 8547455 8453049 8396665 8391699 8445582 8556849 8714355 8890382 
1506.194 9044897 9137469 9157366 9127758 9079473 9027474 8972841 8913245 
1510.051 8847671 8776832 8702050 8623427 8539919 8451596 8361973 8278887 
1513.909 8214995 8183221 8194363 8249911 8337416 8429028 8493356 8512582 
1517.766 8491464 8450515 8413319 8396766 8406056 8433791 8461022 8466799 
1521.623 8438420 8381665 8312287 8243832 8180217 8119108 8057029 7993238 
1525.481 7930974 7875670 7830123 7792440 7755807 7714623 7668216 7623197 
1529.338 7589376 7577811 7594737 7639619 7704067 7773888 7830460 7853875 
1533.196 7832552 7768052 7674590 7567493 7454929 7337406 7212605 7080126 
1537.053 6945062 6819060 6723986 6689158 6744278 6902339 7142301 7411347 
1540.911 7655739 7845473 7970120 8026179 8010586 7921965 7769705 7576564 
1544.768 7378824 7210549 7092217 7024931 6996443 6989776 6991426 6995769 
1548.625 7003480 7019139 7046617 7084909 7129300 7175414 7224834 7284637 
1552.483 7365478 7475255 7612271 7761406 7897939 8000966 8062936 8094431 
1556.340 8117994 8161444 8245082 8363594 8453859 8410616 8182884 7856607 
1560.198 7552827 7329453 7185317 7098111 7045001 7008127 6977082 6947958 
1564.055 6922505 6905033 6898097 6900219 6907086 6915873 6928026 6952032 
1567.912 6999877 7081170 7193470 7316143 7416672 7468918 7470401 7438278 
1571.770 7398000 7370769 7370297 7401506 7462513 7545039 7635741 7718502 
1575.627 7773449 7784344 7744642 7660831 7547702 7422065 7300406 7196063 
1579.485 7121822 7086323 7090836 7128357 7184509 7242690 7290635 7324904 
1583.342 7350481 7376229 7408819 7449098 7492076 7530205 7556806 7570056 
1587.200 7572686 7570056 7566819 7565336 7565909 7568438 7574810 7588466 
1591.057 7613620 7652063 7702279 7759012 7815751 7868315 7916531 7962898 
1594.914 8009404 8053384 8085957 8096253 8076404 8028473 7965159 7908670 
1598.772 7883060 7905396 7980312 8096996 8234478 8367310 8475584 8549483 
1602.629 8587771 8594733 8576686 8540325 8492782 8445683 8415751 8421494 
1606.487 8480078 8598552 8768345 8963641 9151681 9303140 9402709 9453704 
1610.344 9472329 9480964 9496814 9529768 9582335 9654390 9748210 9871201 
1614.202 10035220 10251339 10522318 10832429 11141879 11402767 11583597 
1617.577 11689034 11748265 11795790 11854422 11933495 12035917 12162897 
1620.952 12318171 12507738 12735463 12996322 13269497 13525310 13738009 
1624.327 13900382 14024006 14130482 14239484 14361184 14493264 14622129 
1627.703 14729816 14802969 14839790 14850762 14851413 14853127 14860945 
1631.078 14873220 14886044 14897292 14909396 14928908 14964093 15018078 
1634.453 15081469 15125210 15109943 15009744 14835848 14627442 14423383 
1637.828 14244346 14093344 13966210 13857516 13764651 13688663 13631903 
1641.203 13596107 13580312 13581851 13599423 13635527 13698990 13803129 
1644.579 13961556 14179708 14441092 14698966 14886798 14951267 14894273 
1647.954 14767247 14633541 14531191 14473738 14458631 14481138 14545101 
1651.329 14673022 14912893 15323420 15904296 16513828 16941650 17110808 
1654.704 17091542 16986336 16864724 16765324 16704271 16682509 16692908 
1658.080 16724586 16768321 16820258 16882844 16962150 17064248 17190154 
1661.455 17334444 17486956 17638762 17788412 17941808 18106762 18286676 
1664.830 18478312 18674426 18867930 19056882 19247716 19454470 19695784 
1668.205 19987398 20330630 20704296 21069726 21390110 21648802 21853182 
1671.581 22022696 22176760 22330040 22491854 22669298 22868816 23093446 
1674.956 23336546 23577126 23786896 23943162 24038756 24082042 24091954 
1678.331 24092690 24107680 24155772 24242548 24358848 24484856 24603816 
1681.706 24713446 24833626 25007116 25291572 25719416 26244498 26749674 
1685.082 27146506 27437802 27686208 27955640 28290164 28709716 29212132 
1688.457 29780136 30391454 31031928 31699184 32396600 33121668 33858304 
1691.832 34581332 35269380 35916840 36548400 37222928 38028832 39051948 
1695.207 40318500 41728364 43083392 44206092 45054476 45709780 46321688 
1698.583 47052564 48048372 49383312 50968732 52551964 53890300 54919896 
1701.958 55729324 56442788 57153764 57923600 58790548 59781572 60909452 
1705.333 62163176 63501932 64862804 66184416 67428552 68588448 69684464 
1708.708 70752704 71830424 72941320 74086264 75245224 76391368 77504064 
1712.084 78586184 79662488 80770280 81940080 83178200 84458336 85739432 
1715.459 86993592 88240256 89548336 91011592 92663264 94423760 96134664 
1718.834 97663056 98981016 100161832 101320776 102575872 104017544 105696056 
1722.209 107617608 109751488 112054376 114491624 117058624 119774144 
1725.102 122660288 125720248 128936704 132288424 135785392 139481648 
1727.995 143472944 147854848 152657120 157789552 163052976 168198432 
1730.889 173073888 177717152 182407728 187621808 193941424 201760096 
1733.782 210816336 220026480 228093616 234411728 239226032 243119184 
1736.675 246581824 249889664 253120304 256211904 259022688 261420880 
1739.568 263325216 264706160 265530384 265711840 265121968 263659328 
1742.461 261312752 258205200 254554368 250594256 246452192 242113296 
1745.354 237446368 232296208 226564608 220267520 213511664 206456288 
1748.247 199215328 191804256 184138320 176120704 167749232 159176672 
1751.140 150715648 142713424 135417424 128895376 123059688 117727656 
1754.033 112683520 107721544 102667192 97405984 91934192 86383096 80993296 
1757.408 76023448 71631680 67838416 64546876 61602624 58836076 56101372 
1760.784 53313492 50469404 47658420 45019084 42673340 40674184 39001776 
1764.159 37590536 36362456 35248180 34196080 33175454 32176420 31207448 
1767.534 30288662 29443116 28686284 28020100 27434378 26911944 26433130 
1770.909 25976090 25521078 25051166 24559146 24053042 23548370 23061404 
1774.285 22603464 22181468 21798830 21457012 21156270 20894290 20666660 
1777.660 20468706 20295562 20142478 20003532 19870078 19729452 19568146 
1781.035 19376962 19154072 18905998 18643988 18381792 18129874 17893848 
1784.410 17671408 17453636 17228766 16987784 16730923 16467331 16212635 
1787.786 15983732 15794085 15649347 15544660 15465442 15390391 15293319 
1791.161 15149192 14945060 14684126 14386460 14078319 13781170 13506100 
1794.536 13255593 13028108 12820942 12631819 12459076 12301025 12156525 
1797.911 12023927 11900665 11782206 11661226 11528847 11376372 11199980 
1801.286 11004424 10802638 10611912 10448049 10321231 10232239 10173724 
1804.662 10133022 10097141 10055328 10001210 9933370 9853168 9762680 9664181 
1808.519 9560454 9454550 9350975 9253753 9164608 9080150 8992461 8892851 
1812.377 8775784 8643369 8504338 8372308 8260042 8174105 8113706 8070733 
1816.234 8033233 7991212 7941098 7885455 7829651 7776485 7722887 7661101 
1820.091 7583880 7488874 7383272 7281436 7201352 7156112 7150823 7179624 
1823.949 7229247 7284402 7334575 7377947 7418695 7461165 7502763 7533913 
1827.806 7540353 7507415 7427660 7307146 7166655 7034359 6929945 6857769 
1831.664 6807381 6763427 6711703 6643803 6556604 6450926 6329842 6197397 
1835.521 6060558 5927389 5809003 5716768 5657650 5631467 5628950 5635931 
1839.379 5637945 5627339 5604715 5578368 5558903 5555748 5572159 5605554 
1843.236 5647982 5692126 5735771 5782408 5835633 5894070 5948451 5986309 
1847.093 5996220 5972066 5917212 5843323 5766728 5700754 5651775 5617537 
1850.951 5590518 5562796 5530612 5494605 5459003 5428169 5402738 5380898 
1854.808 5359731 5338195 5319545 5309382 5313877 5335310 5370465 5411998 
1858.666 5451655 5484370 5509604 5529940 5548969 5566823 5579510 5578805 
1862.523 5556486 5506450 5427330 5322295 5197602 5062351 4927746 4806181 
1866.380 4715465 4675205 4703741 4807923 4973660 5160416 5315051 5396666 
1870.238 5389185 5306062 5178724 5045221 4936157 4867897 4840757 4841862 
1874.095 4851713 4852920 4836937 4805309 4765946 4727925 4696909 4673497 
1877.953 4655444 4641780 4635752 4645598 4681234 4749431 4849334 4970576 
1881.810 5095942 5202062 5266317 5272287 5213396 5097317 4945105 4788257 
1885.668 4658660 4581469 4570486 4622524 4719250 4830605 4925702 4980396 
1889.525 4988608 4962432 4926170 4903651 4907773 4939609 4991591 5053065 
1893.382 5115354 5175672 5234926 5294121 5352082 5402235 5436255 5448166 
1897.240 5436624 5406462 5367178 5329373 5300360 5283422 5276848 5276546 
1901.097 5277586 5275540 5266048 5244652 5207629 5153978 5087695 5018104 
1904.955 4958142 4919468 4906097 4910856 4915883 4900903 4850373 4764002 
1908.812 4658559 4564124 4510251 4513130 4567506 4649249 4726452 4771607 
1912.670 4772177 4731979 4667635 4597509 4535830 4487619 4448217 4411162 
1916.527 4372637 4336626 4312965 4312731 4341612 4397773 4475165 4567974 
1920.384 4674066 4794421 4926606 5060307 5176142 5246898 5249984 5176745 
1924.242 5037244 4854260 4658860 4480388 4339805 4248718 4209003 4215359 
1928.099 4257685 4322637 4393824 4451029 4474362 4449021 4371566 4253703 
1931.957 4122392 4016201 3973063 4023257 4178558 4429170 4743937 5077470 
1935.814 5378382 5592498 5675039 5601057 5375665 5035467 4645464 4284856 
1939.672 4020381 3899137 3931100 4088542 4311727 4534223 4710909 4829935 
1943.529 4911426 4983983 5061580 5131078 5155453 5093159 4923523 4658860 
1947.386 4347468 4053724 3839563 3738020 3745005 3827630 3945143 4066467 
1951.244 4178892 4285458 4391615 4492808 4570686 4600288 4566903 4475835 
1955.101 4358446 4258622 4212549 4234397 4309284 4403396 4485008 4545507 
1958.959 4605144 4702602 4868534 5102111 5357181 5556755 5615289 5476652 
1962.816 5136040 4644158 4085464 3559692 3148583 2896273 2811458 2875160 
1966.673 3054742 3308646 3593367 3863331 4074862 4198263 4223189 4166147 
1970.531 4065062 3970354 3927923 3958752 4051851 4168388 4267121 4316713 
1974.388 4315877 4287868 4270300 4287533 4336124 4377256 4355735 4221850 
1978.246 3958384 3593033 3195544 2852913 2638677 2600642 2746699 3049904 
1982.103 3453772 3889073 4281644 4565831 4702335 4675573 4496692 4196390 
1985.961 3822281 3431696 3081337 2824564 2695851 2707754 2851112 3099657 
1989.818 3414297 3749517 4063858 4325649 4519994 4648980 4722800 4751340 
1993.675 4735027 4667836 4541757 4358547 4137545 3914115 3731670 3628549 
1997.533 3620329 3692972 3804498 3906124 3956210 3942100 3883256 3822315 
2001.390 3801089 3844778 3943705 4058139 4130386 4104095 3944440 3646424 
2005.248 3232997 2745698 2236331 1751945 1330844 1002931 795116 729627 
2009.105 824892 1087461 1504968 2044736 2659112 3283439 3847285 4281509 
2012.963 4520730 4522304 4280138 3835752 3271421 2702820 2253583 2013976 
2016.820 2023830 2249653 2601608 2958853 3222648 3346542 3341166 3262140 
2020.677 3179122 3152588 3207060 3328111 3471640 3589091 3638338 3600016 
2024.535 3480425 3305407 3115142 2950613 2849211 2832402 2903478 3039727 
2028.392 3200217 3327777 3368080 3286844 3077833 2760837 2371271 1948570 
2032.250 1525849 1125662 771017 489632 321585 313395 498555 879007 1410119 
2036.589 2009682 2574243 3017605 3299565 3428724 3452737 3431696 3417436 
2040.447 3431329 3468200 3511589 3550104 3592298 3661962 3780500 3952365 
2044.304 4151227 4327255 4423078 4403229 4270199 4068139 3866140 3735012 
2048.161 3721578 3829067 4019445 4229914 4401388 4490264 4482263 4390711 
2052.019 4249387 4100115 3983897 3933072 3961527 4063724 4213553 4372536 
2055.876 4498600 4560574 4549558 4481828 4392920 4324611 4312363 4369491 
2059.734 4483435 4619376 4737037 4802160 4796666 4723437 4599317 4447414 
2063.591 4286194 4127877 3975136 3828332 3688160 3558823 3449430 3370584 
2067.448 3331250 3336559 3389117 3485736 3619227 3777458 3942133 4089779 
2071.306 4197427 4246911 4228006 4143533 4004898 3832410 3646458 3467532 
2075.163 3313587 3199549 3139338 3144811 3222415 3369916 3572854 3805468 
2079.021 4033825 4226702 4361191 4428066 4430811 4382645 4300416 4198799 
2082.878 4090984 3987007 3895827 3827663 3791296 3792833 3833613 3909835 
2086.736 4015967 4147480 4305168 4493177 4714828 4965449 5226508 5465580 
2090.593 5643786 5723818 5684505 5527088 5278357 4980664 4687664 4450326 
2094.450 4303127 4262503 4324678 4470244 4668975 4888706 5099999 5279095 
2098.308 5412602 5497323 5539136 5549439 5541015 5523799 5503162 5479370 
2102.165 5450581 5415017 5371036 5316895 5248206 5155822 5028763 4857544 
2106.023 4641680 4393556 4140990 3921370 3769403 3708778 3741730 3848288 
2109.880 3990786 4129918 4235635 4295129 4315040 4315341 4320194 4346164 
2113.738 4399045 4471249 4548453 4613750 4655042 4669143 4661138 4641379 
2117.595 4621720 4611071 4609564 4609598 4595901 4551266 4461474 4323373 
2121.452 4147346 3958618 3790326 3673423 3630887 3666974 3768434 3907528 
2125.310 4055698 4189966 4301554 4396301 4488423 4591582 4711177 4837976 
2129.167 4950334 5020048 5017601 4923389 4731710 4455414 4123596 3781402 
2133.025 3482128 3274759 3199917 3277530 3501668 3838427 4234564 4627982 
2136.882 4956433 5174432 5253237 5184256 4977045 4659664 4277393 3884594 
2140.740 3544693 3313888 3228490 3295759 3487105 3743267 3987910 4155743 
2144.597 4210307 4156445 4033591 3904051 3827864 3840901 3949155 4131189 
2148.454 4352221 4576714 4784136 4964845 5119377 5251460 5363287 5456118 
2152.312 5532088 5592364 5635529 5654025 5628480 5531551 5339403 5040127 
2156.169 4647038 4200672 3762251 3392891 3139338 3019207 3022309 3127256 
2160.027 3318228 3591362 3948419 4377824 4842600 5278122 5612536 5789729 
2163.884 5789829 5639322 5402302 5157130 4967325 4869673 4863843 4924059 
2167.741 5009791 5082030 5108514 5062385 4924294 4682673 4341679 3927288 
2171.599 3490879 3101526 2820862 2690450 2704653 2811791 2922592 2950346 
2175.456 2839072 2589175 2255182 1929899 1710595 1660701 1793832 2069371 
2179.314 2412917 2731994 2947711 3012667 2916287 2687250 2386230 2092244 
2183.171 1877617 1798457 1877583 2099302 2414117 2753734 3056444 3281002 
2187.029 3421510 3502169 3563333 3638940 3743535 3865972 3980988 4060681 
2190.886 4091686 4080782 4050848 4028006 4028273 4052453 4086669 4112323 
2194.743 4115702 4093726 4053122 4004028 3952064 3896663 3833613 3760880 
2198.601 3684918 3621532 3588022 3597109 3649699 3731704 3822883 3905623 
2202.458 3971558 4025030 4075330 4130253 4188594 4241725 4277962 4294225 
2206.316 4300215 4316044 4360554 4440150 4537806 4618003 4637795 4566401 
2210.173 4403564 4183141 3965539 3814393 3779664 3876971 4085632 4356706 
2214.031 4634245 4867998 5024506 5091819 5074353 4987804 4853791 4698884 
2217.888 4550395 4433053 4364604 4348105 4370127 4402258 4412567 4377055 
2221.745 4290544 4169157 4044862 3953034 3913413 3925583 3966075 4000918 
2225.603 3997240 3940094 3836354 3713657 3608335 3553478 3568779 3655813 
2229.460 3799117 3972728 4149387 4302324 4413271 4473860 4485142 4457456 
2233.318 4407949 4356672 4320595 4308548 4318587 4338232 4348439 4332208 
2237.175 4281777 4203014 4114832 4043189 4014060 4041517 4124633 4244870 
2241.032 4373574 4477810 4530440 4519358 4448786 4338199 4215828 4112357 
2244.890 4050681 4040882 4079979 4153368 4241758 4326485 4395799 4445640 
2248.747 4478045 4495755 4498734 4482062 4436300 4353828 4233527 4084963 
2252.605 3930331 3797880 3716999 3709346 3781369 3922373 4106804 4303160 
2256.462 4477476 4604240 4670884 4677884 4637695 4570419 4498667 4439782 
2260.320 4403597 4390510 4393321 4401556 4406810 4406543 4405405 4413271 
2264.177 4439213 4488088 4556389 4632972 4703071 4755628 4786950 4803702 
2268.034 4819414 4850306 4907270 4992194 5096076 5202498 5293551 5353726 
2271.892 5375397 5359395 5313206 5247234 5172587 5098189 5028528 4965415 
2275.749 4907907 4853791 4801859 4752579 4709804 4680095 4672257 4693961 
2279.607 4750871 4841762 4958946 5088097 5212659 5315855 5385293 5415587 
2283.464 5407703 5369057 5310590 5245490 5185363 5139628 5113845 5108983 
2287.322 5121020 5142612 5164507 5177818 5177282 5162126 5137080 5109453 
2291.179 5087628 5077806 5082264 5098926 5122930 5148714 5171816 5189555 
2295.036 5201258 5207629 5209373 5206589 5199380 5187274 5170777 5150592 
2298.894 5127792 5104055 5081292 5061412 5047534 5042741 5049915 5070129 
2302.751 5102044 5141405 5180836 5213396 5233283 5238414 5231237 5217588 
2306.609 5205248 5201660 5212726 5241197 5287983 5351747 5429310 5516383 
2310.466 5605924 5689910 5759609 5806988 5828346 5824014 5799298 5761893 
2314.323 5720226 5680175 5644424 5611663 5579073 5543029 5501182 5453568 
2318.181 5402369 5352284 5309751 5281678 5274265 5290633 5328635 5379758 
2322.038 5430082 5462459 5462661 5424110 5350540 5254109 5152939 5064295 
2325.896 4997758 4955327 4930963 4915212 4900568 4885657 4876844 4885388 
2329.753 4921613 4988340 5078141 5175907 5261890 5319948 5342556 5330883 
2333.611 5292779 5237341 5172855 5104290 5034562 4968130 4911459 4873828 
2337.468 4863708 4885221 4934817 5000373 5065268 5112303 5130072 5116494 
2341.325 5079180 5032283 4991055 4969135 4973325 5004998 5060608 5133894 
2345.183 5218058 5305256 5389587 5465680 5529236 5577965 5610153 5625157 
2349.040 5623143 5605253 5573200 5530209 5480041 5426525 5372948 5320518 
2352.898 5268463 5214973 5159946 5105899 5059502 5028897 5020350 5033557 
2356.755 5059669 5081158 5076599 5028629 4929522 4786079 4618539 4455850 
2360.613 4326853 4251328 4238379 4284052 4374678 4491770 4617501 4736433 
2364.470 4838445 4918496 4975838 5013478 5036741 5053736 5071570 5095607 
2368.327 5127490 5164574 5200553 5227582 5240560 5238783 5226643 5213866 
2372.185 5212022 5229829 5270912 5331486 5401396 5467425 5516954 5542424 
2376.042 5543800 5528061 5505577 5487222 5479673 5482927 5491685 5497356 
2379.900 5492759 5474941 5447327 5418070 5397974 5395224 5413038 5448468 
2383.757 5494168 5540746 5580650 5611059 5633380 5651339 5668426 5684808 
2387.615 5696893 5698303 5682055 5644659 5588034 5519437 5449508 5389721 
2391.472 5349768 5334673 5345005 5377846 5427833 5487759 5550815 5609616 
2395.329 5657281 5688567 5699948 5691320 5665069 5626566 5581456 5534337 
2399.187 5487961 5442428 5397169 5351915 5307805 5268262 5237307 5217722 
2403.044 5209574 5209272 5210881 5207528 5195087 5173627 5148010 5126451 
2406.902 5117466 5127658 5158169 5205482 5261688 5318707 5369929 5412468 
2410.759 5447864 5480142 5513094 5548398 5583906 5614651 5635193 5641503 
2414.616 5633850 5616463 5596190 5579073 5567629 5559842 5549539 5529202 
2418.474 5494638 5447226 5395425 5352317 5331520 5343328 5390091 5465815 
2422.331 5557124 5648284 5723214 5769447 5780360 5754472 5694644 5608005 
2426.189 5504806 5397639 5300292 5226475 5185665 5181674 5210580 5261822 
2430.046 5320417 5371472 5405321 5418943 5416929 5408073 5403141 5409012 
2433.904 5427733 5456252 5489202 5521585 5551754 5582161 5618242 5664901 
2437.761 5723516 5788788 5849738 5891988 5901795 5872340 5805611 5714888 
2441.618 5618511 5537357 5486182 5469271 5479001 5498732 5510041 5497658 
2445.476 5456688 5393882 5325113 5268966 5241063 5248877 5290163 5354934 
2449.333 5429981 5504336 5571152 5628077 5675945 5715593 5745440 5762262 
2453.191 5761658 5740874 5700888 5647143 5587665 5532558 5490880 5468398 
2457.048 5467861 5488833 5527726 5579274 5637408 5695853 5748831 5792583 
2460.906 5824517 5844834 5854372 5855380 5849872 5840167 5829320 5821126 
2464.763 5819950 5830126 5852794 5885069 5918219 5940859 5940221 5907639 
2468.620 5842349 5752122 5652111 5559272 5489202 5450548 5444274 5465714 
2472.478 5507759 5564172 5631064 5706965 5789930 5875799 5957755 6026556 
2476.335 6074569 6098393 6100174 6086834 6067547 6050882 6040634 6037140 
2480.193 6037072 6037375 6036232 6034889 6035863 6041844 6052259 6063481 
2484.050 6068824 6061129 6035157 5990341 5930513 5864716 5804436 5760214 
2487.907 5741143 5751249 5789997 5851182 5925945 6003375 6072822 6126721 
2491.765 6160562 6173871 6168829 6149573 6120706 6086263 6050209 6016813 
2495.622 5990609 5976500 5978516 5998134 6033074 6077560 6122151 6156260 
2499.480 6171787 6163923 6133912 6087708 6035863 5989669 5959166 5950802 
2503.337 5965750 5999713 6043389 6085792 6115732 6124839 6110087 6073561 
2507.195 6022189 5964339 5909486 5864078 5832141 5815350 5814074 5828178 
2511.052 5856992 5898840 5949794 6003509 6052696 6091034 6115833 6129678 
2514.909 6139827 6155219 6182575 6222841 6270674 6315184 6344164 6349746 
2518.767 6330245 6292256 6246505 6206472 6182340 6179047 6196524 6230337 
2522.624 6274909 6324228 6373686 6419450 6458224 6486946 6503493 6506823 
2526.482 6497742 6478605 6451935 6420963 6388783 6358219 6333675 6320160 
2530.339 6322311 6343223 6381621 6431556 6482640 6523102 6544024 6541636 
2534.197 6518595 6482102 6441039 6402031 6368138 6339088 6314041 6294441 
2538.054 6285398 6293903 6326816 6386563 6468717 6562726 6654704 6732130 
2541.911 6786716 6816200 6823032 6812161 6787827 6753129 6710526 6662577 
2545.769 6613793 6570194 6536792 6516409 6507664 6505780 6505276 6502753 
2549.626 6499356 6500298 6512036 6538675 6578873 6625736 6668532 6696797 
2553.484 6705478 6695518 6673007 6646696 6623213 6604878 6589638 6573087 
2557.341 6552669 6529594 6509749 6501105 6510893 6541938 6591186 6650196 
2561.198 6708339 6755956 6786716 6799573 6797755 6786783 6772244 6757874 
2565.056 6745018 6732197 6716347 6694307 6664057 6625870 6582406 6538945 
2568.913 6501912 6477259 6468885 6478134 6502854 6538642 6580151 6622910 
2572.771 6664226 6703863 6743436 6785706 6833365 6888369 6950584 7018297 
2576.628 7087502 7152171 7205968 7242487 7257110 7248518 7218938 7173460 
2580.486 7118252 7059414 7000618 6943480 6887830 6833837 6783485 6740812 
2584.343 6710526 6697537 6703493 6726981 6762922 6805362 6848378 6888066 
2588.200 6922640 6951526 6974018 6988328 6992200 6984119 6965028 6939002 
2592.058 6912944 6894192 6889042 6900421 6927219 6965061 7009575 7056282 
2595.915 7102355 7146983 7189225 7227967 7261153 7286120 7300676 7303406 
2599.773 7294005 7272844 7241039 7200039 7153653 7107239 7069417 7049042 
2603.630 7053689 7085515 7139775 7203643 7260816 7296296 7300878 7275135 
2607.488 7228540 7177300 7135666 7113873 7113334 7128222 7148802 7166554 
2611.345 7177603 7184206 7192594 7209808 7240971 7286187 7340270 7395068 
2615.202 7442188 7473873 7485604 7476907 7450816 7413302 7372353 7337305 
2619.060 7315570 7311830 7326320 7355503 7392204 7429177 7461637 7488301 
2622.917 7512135 7537083 7566482 7599897 7632942 7658470 7670476 7665991 
2626.775 7647982 7624411 7604718 7597367 7606168 7629165 7659853 7690644 
2630.632 7714084 7726226 7726496 7717119 7701065 7682279 7664372 7650916 
2634.490 7645959 7653007 7673815 7706664 7746531 7785897 7815751 7830325 
2638.347 7828031 7813018 7793756 7779588 7778441 7793250 7822802 7861770 
2642.204 7904891 7947914 7989323 8029959 8071543 8114516 8156954 8195208 
2646.062 8225057 8243089 8248155 8241739 8226577 8206047 8182546 8158101 
2649.919 8134333 8113234 8098380 8093317 8101857 8125320 8162288 8208005 
2653.777 8255753 8299184 8333701 8357784 8373153 8383558 8392577 8403117 
2657.634 8416291 8431764 8449265 8469604 8493593 8523361 8559586 8601189 
2661.491 8644180 8683085 8712361 8727776 8728824 8718817 8703977 8691198 
2665.349 8686365 8692044 8706918 8726390 8744240 8755126 8756039 8747417 
2669.206 8732644 8717803 8708472 8709216 8722232 8746674 8779570 8817170 
2673.064 8855753 8893155 8928668 8962965 8997028 9031127 9064181 9093177 
2676.921 9114392 9124273 9121024 9105763 9082587 9058159 9039484 9032886 
2680.779 9041412 9064655 9098286 9135439 9168906 9192020 9200684 9193983 
2684.636 9173677 9143898 9109553 9075447 9045235 9021385 9004775 8995607 
2688.493 8993070 8996182 9003353 9012386 9020268 9023245 9017156 8998889 
2692.351 8967193 8923391 8872086 8819909 8774668 8742719 8728283 8731731 
2696.208 8750224 8778523 8811219 8843443 8871783 8894441 8910302 8918419 
2700.066 8917507 8906548 8885411 8855686 8821634 8788598 8762598 8747925 
2703.923 8745930 8754585 8768751 8782478 8790188 8788699 8778286 8761178 
2707.781 8741840 8724463 8712326 8707019 8708980 8717329 8731157 8749311 
2711.638 8770814 8794549 8819063 8842564 8863565 8880474 8892784 8900393 
2715.495 8904147 8905094 8904147 8901475 8897281 8891093 8882604 8872086 
2719.353 8860318 8848786 8839284 8833536 8833299 8839522 8852744 8872627 
2723.210 8898060 8927213 8957586 8985933 9009307 9024869 9031229 9028354 
2727.068 9017900 9003320 8988875 8979032 8977679 8987523 9009510 9042731 
2730.925 9084717 9131649 9178551 9220618 9253246 9273115 9278971 9271795 
2734.782 9254769 9232566 9210668 9193442 9183695 9181867 9186605 9195439 
2738.640 9205591 9215102 9222987 9229215 9234427 9238692 9241704 9242482 
2742.497 9239538 9231821 9218791 9200955 9179498 9156452 9133815 9113207 
2746.355 9095917 9082044 9070981 9061068 9050681 9038469 9024226 9009341 
2750.212 8996690 8990736 8995573 9014416 9048212 9095037 9150362 9208637 
2754.070 9263874 9311366 9348436 9374844 9391535 9400745 9404368 9404063 
2757.927 9400643 9394379 9385001 9372440 9357069 9339668 9321996 9306796 
2761.784 9296912 9295220 9303614 9321657 9347184 9376062 9403589 9425666 
2765.642 9440226 9448082 9452857 9459190 9471957 9495019 9529259 9573258 
2769.499 9623189 9674176 9721102 9759597 9787283 9803991 9811684 9814531 
2773.357 9818395 9828324 9848254 9878997 9918353 9961305 10001719 10035152 
2777.214 10059159 10075606 10089103 10105755 10130716 10166703 10212903 
2780.589 10266199 10322046 10376067 10425683 10470451 10511557 10551208 
2783.965 10592219 10636665 10686243 10741329 10801652 10865247 10929019 
2787.340 10989573 11043984 11090923 11131476 11169177 11208480 11252887 
2790.715 11303317 11357495 11410182 11455494 11489175 11511052 11525546 
2794.090 11540008 11563044 11601531 11658231 11731686 11817376 11909895 
2797.466 12004306 12097954 12189578 12279347 12366986 12451609 12531644 
2800.841 12605962 12674461 12739046 12802924 12869985 12943611 13025410 
2804.216 13114839 13209684 13306565 13402203 13494411 13582398 13666916 
2807.591 13750252 13835966 13927409 14027873 14139074 14261088 14391940 
2810.967 14528381 14666167 14801769 14932818 15058965 15181548 15303444 
2814.342 15427228 15555719 15690533 15832469 15981635 16137799 16300969 
2817.717 16471529 16649835 16836962 17034232 17242866 17464086 17698534 
2821.092 17945884 18204848 18472988 18748040 19027560 19310930 19599132 
2824.468 19895190 20202976 20526506 20868632 21230166 21609900 22005374 
2827.843 22413034 22830436 23256348 23691290 24138012 24600380 25082968 
2831.218 25590308 26126462 26694916 27298480 27940128 28623706 29354340 
2834.593 30138194 30982390 31894658 32882392 33953276 35115348 36378088 
2837.969 37754452 39259432 40911680 42731436 44737312 46945236 49366344 
2841.344 52006620 54867408 57946320 61238808 64736516 68427872 72295888 
2844.719 76314216 80451496 84667952 88917768 93156456 97336528 101410528 
2848.094 105333416 109056160 112528664 115701688 118524704 120953288 
2850.987 122949824 124484992 125539768 126105112 126182424 125781816 
2853.880 124923672 123637064 121954936 119916712 117563176 114935992 
2856.773 112080832 109044320 105876144 102628616 99348720 96079848 92856320 
2860.149 89701024 86629760 83652856 80778136 78016216 75379368 72881632 
2863.524 70537768 68359688 66355668 64530380 62884124 61414760 60117228 
2866.899 58983652 58002512 57157848 56430112 55794688 55226148 54698708 
2870.274 54187340 53671508 53134384 52563852 51953700 51302564 50614796 
2873.650 49898496 49166040 48431524 47709416 47015052 46362752 45766140 
2877.025 45238404 44789916 44428236 44156204 43971780 43867812 43834936 
2880.400 43863928 43947692 44083620 44273192 44520520 44829772 45202924 
2883.775 45638260 46130632 46672916 47257736 47879824 48535664 49223816 
2887.151 49944248 50696744 51480204 52293668 53135624 54005024 54901660 
2890.526 55825584 56776664 57753560 58754132 59774956 60812100 61861508 
2893.901 62919928 63985384 65057084 66136336 67225704 68329016 69450296 
2897.276 70593360 71759672 72949624 74162264 75396048 76651048 77928944 
2900.652 79233880 80570584 81943760 83355960 84806968 86295016 87818072 
2904.027 89375384 90968984 92603880 94286080 96020360 97809456 99653088 
2907.402 101548864 103494448 105490072 107539848 109651672 111834984 
2910.295 114098464 116447120 118880200 121390384 123964360 126586632 
2913.188 129239200 131905512 134571344 137222832 139847728 142431904 
2916.081 144957488 147403328 149743456 151948608 153990320 155840464 
2918.974 157474432 158871600 160014128 160887456 161480544 161787408 
2921.867 161809472 161556624 161047776 160305616 159354304 158214896 
2924.760 156901072 155421856 153783056 151991968 150059856 148003056 
2927.654 145840416 143592144 141275168 138903408 136488096 134037944 
2930.547 131561176 129065392 126556696 124039440 121516960 118991224 
2933.440 116466392 113949016 111447776 108973584 106534968 104136912 
2936.333 101780464 99462608 97179064 94927576 92709328 90529360 88395488 
2939.708 86315592 84296736 82343168 80457408 78641136 76896352 75225720 
2943.083 73633400 72122792 70696944 69356840 68100896 66925600 65825768 
2946.458 64796636 63834184 62936820 62105484 61344312 60657536 60048696 
2949.834 59516700 59054820 58648988 58280100 57927464 57570764 57195456 
2953.209 56793280 56361148 55899744 55409956 54890984 54340068 53753364 
2956.584 53128432 52465588 51768848 51044116 50297976 49535248 48758404 
2959.959 47967736 47162916 46343844 45511892 44668896 43817416 42959556 
2963.335 42097508 41234108 40373840 39523148 38689660 37880572 37100100 
2966.710 36348728 35622532 34915436 34220852 33533748 32852732 32179772 
2970.085 31519402 30876362 30255516 29660388 29092258 28551160 28035368 
2973.460 27541616 27065636 26602786 26149438 25703842 25266426 24840816 
2976.836 24431680 24042852 23676346 23330708 23001764 22683402 22370680 
2980.211 22060554 21753784 21453394 21164690 20892136 20638898 20405706 
2983.586 20190896 19991424 19802620 19620452 19440228 19258592 19073430 
2986.961 18884264 18692864 18502306 18317086 18141620 17979520 17833668 
2990.337 17705746 17597080 17509378 17444356 17403244 17386206 17391242 
2993.712 17414072 17447840 17486094 17522452 17553090 17576584 17594182 
2997.087 17608502 17622474 17638830 17660158 17687730 17722624 17764732 
3000.462 17812370 17861462 17906622 17940118 17954966 17945608 17909386 
3003.838 17847478 17764112 17665748 17558506 17447184 17333514 17216250 
3007.213 17091922 16955570 16802762 16630659 16438941 16230313 16010202 
3010.588 15785839 15564098 15351155 15149913 14960527 14779931 14603933 
3013.963 14427425 14246674 14060351 13869626 13678302 13491984 13317600 
3017.339 13161934 13029815 12923403 12841112 12777057 12722157 12666205 
3020.714 12599380 12515274 12412125 12293253 12165588 12037042 11915513 
3024.089 11806311 11711602 11631514 11564678 11508908 11462197 11421646 
3027.464 11384195 11345931 11302807 11251799 11191378 11123045 11050475 
3030.840 10978223 10910842 10851046 10799037 10753047 10710423 10668585 
3034.215 10626581 10584173 10542789 10503987 10469365 10440141 10417334 
3037.590 10401451 10392729 10390625 10393306 10398125 10401655 10400535 
3040.965 10392865 10378408 10358659 10336805 10315428 10296564 10279837 
3044.341 10263586 10244723 10220434 10189090 10150999 10108129 10063636 
3047.716 10021486 9985173 9957101 9938523 9929437 9928794 9935032 9945845 
3051.573 9958695 9971205 9980766 9984699 9980393 9966221 9941134 9905776 
3055.431 9861812 9813040 9763528 9717307 9677868 9646462 9622918 9605675 
3059.288 9592769 9582403 9573562 9566517 9562181 9561775 9566517 9577255 
3063.146 9594021 9616210 9641990 9669500 9695656 9718019 9734114 9743195 
3067.003 9745838 9743229 9737604 9729641 9719137 9704194 9682002 9650527 
3070.860 9609739 9562452 9514391 9473345 9445610 9436265 9446322 9473244 
3074.718 9511580 9554865 9596800 9632064 9657778 9672312 9675260 9667331 
3078.575 9649782 9624476 9593378 9558794 9522790 9487433 9454178 9424176 
3082.433 9398341 9377213 9361098 9349350 9341225 9335436 9331034 9327684 
3086.290 9326126 9327684 9333709 9344610 9358830 9373387 9384121 9387777 
3090.147 9382800 9370510 9354766 9340277 9331915 9332220 9341022 9355918 
3094.005 9372914 9388421 9399560 9405214 9405926 9402912 9397596 9391265 
3097.862 9384425 9377112 9368919 9359439 9347590 9332829 9315361 9295490 
3101.720 9275112 9256157 9240519 9229181 9221769 9216591 9210905 9202038 
3105.577 9188094 9168568 9144338 9117809 9092398 9072131 9061440 9063843 
3109.435 9081943 9115745 9162172 9214797 9264687 9302903 9322301 9319762 
3113.292 9297589 9262385 9222548 9186233 9158686 9141089 9131514 9126674 
3117.149 9124476 9124949 9130262 9143560 9167146 9200514 9240046 9279140 
3121.007 9310622 9328090 9327819 9310181 9279648 9243667 9211040 9189786 
3124.864 9184440 9194897 9215170 9235138 9243160 9229283 9189042 9125524 
3128.722 9048888 8972808 8911384 8875536 8869347 8891464 8935567 8994254 
3132.579 9059614 9125727 9186978 9238251 9274029 9289871 9283676 9257849 
3136.437 9219671 9180210 9149821 9135845 9138958 9153475 9169008 9175877 
3140.294 9167857 9145455 9114256 9082620 9058226 9044626 9040871 9042935 
3144.151 9046114 9047535 9047028 9046791 9050140 9058936 9073756 9093177 
3148.009 9114561 9135135 9152257 9163864 9167756 9162916 9148907 9127588 
3151.866 9102346 9077917 9058801 9047535 9043374 9042765 9041344 9035390 
3155.724 9025004 9013468 9007075 9012183 9032176 9066549 9109993 9154964 
3159.581 9193171 9218656 9228639 9223190 9204745 9176656 9142815 9106880 
3163.438 9072741 9044389 9025140 9017392 9021791 9037149 9061406 9092229 
3167.296 9128265 9168365 9212055 9257477 9301447 9339227 9365737 9376875 
3171.153 9371492 9350942 9318814 9279817 9238726 9199770 9166638 9143966 
3175.011 9135879 9146504 9177671 9227827 9290345 9354801 9409887 9445645 
3178.868 9457564 9446762 9419808 9385170 9351009 9322267 9300602 9284895 
3182.726 9273115 9263942 9256766 9252163 9250809 9252502 9256766 9262554 
3186.583 9269595 9278294 9289465 9303174 9319017 9335030 9348741 9358051 
3190.440 9362147 9362080 9359472 9355952 9351991 9346066 9336147 9320710 
3194.298 9299484 9274638 9250031 9230501 9219501 9218791 9227794 9244175 
3198.155 9264619 9285538 9304359 9318374 9326228 9327684 9323994 9317731 
3202.013 9312348 9310994 9314954 9322741 9330798 9334928 9332761 9326498 
3205.870 9322605 9330899 9360658 9416151 9494003 9582742 9665943 9725880 
3209.728 9750108 9735402 9687999 9620817 9550225 9490346 9449878 9431016 
3213.585 9429763 9438939 9449979 9456007 9452688 9439651 9419876 9398476 
3217.442 9382360 9377349 9387235 9411242 9444798 9479203 9504299 9512596 
3221.300 9500133 9469179 9426242 9381819 9345016 9322605 9317324 9327446 
3225.157 9348706 9375351 9402438 9426140 9444120 9455262 9459359 9457090 
3229.015 9450114 9440531 9431084 9423940 9420384 9419876 9421061 9421603 
3232.872 9420417 9417946 9416490 9419605 9430949 9452688 9484758 9523874 
3236.729 9565569 9603913 9634232 9653712 9661403 9658895 9648935 9635215 
3240.587 9621494 9610993 9606725 9610552 9623528 9645378 9674683 9708091 
3244.444 9741569 9770779 9791452 9800602 9797348 9781827 9756377 9723712 
3248.302 9688134 9653916 9626068 9609367 9607403 9622206 9652493 9693895 
3252.159 9738113 9775490 9797111 9797077 9775287 9737401 9694267 9657981 
3256.017 9638399 9640703 9663775 9700975 9742721 9780674 9808565 9824495 
3259.874 9829986 9828528 9823478 9817072 9810735 9805380 9802465 9803956 
3263.731 9811617 9826291 9846254 9867744 9885471 9895132 9895132 9887132 
3267.589 9875844 9866863 9864523 9870320 9881674 9893674 9901538 9901810 
3271.446 9894691 9883200 9872590 9868083 9872251 9885539 9905403 9928116 
3275.304 9949880 9968120 9982088 9993209 10003008 10013484 10025759 10039153 
3279.161 10051563 10060008 10060889 10051563 10030947 10001007 9965916 
3282.536 9931810 9905166 9891471 9893098 9909200 9935675 9967103 9997346 
3286.394 10021792 10038068 10045527 10045765 10040543 10032269 10023013 
3289.769 10014807 10009111 10007754 10011111 10018673 10029252 10039865 
3293.144 10047664 10050614 10047935 10040882 10032168 10025386 10023148 
3296.520 10026607 10034406 10043256 10048953 10047664 10037423 10019384 
3299.895 9997210 9977274 9966764 9971137 9993887 10034304 10088188 10148048 
3303.752 10205168 10251915 10282619 10295207 10290932 10274103 10250525 
3307.127 10226099 10206050 10193907 10190515 10195026 10204558 10215582 
3310.503 10224301 10228474 10226981 10221010 10212699 10204864 10199504 
3313.878 10197401 10197536 10198656 10199775 10201607 10207000 10220128 
3317.253 10245266 10284587 10336737 10396360 10455890 10506669 10542313 
3320.628 10560543 10563328 10556131 10545979 10538680 10537764 10542721 
3324.004 10550902 10557896 10560170 10555791 10545029 10530397 10514782 
3327.379 10502086 10494924 10494652 10501645 10515019 10532672 10551887 
3330.754 10569234 10581797 10587059 10583935 10573342 10558438 10543909 
3334.129 10535184 10537663 10554569 10586279 10630044 10681082 10732668 
3337.505 10778249 10813712 10836574 10847343 10847750 10840651 10827843 
3340.880 10810723 10789119 10762863 10731683 10696193 10657752 10619110 
3344.255 10582951 10551920 10528462 10514443 10510675 10517159 10533181 
3347.630 10556742 10585600 10616768 10648041 10677516 10704344 10728423 
3351.006 10749413 10766429 10778215 10782733 10779303 10768569 10753251 
3354.381 10738035 10728389 10728084 10738442 10757700 10781612 10805219 
3357.756 10824719 10838578 10848328 10857297 10868915 10885563 10907954 
3361.131 10934150 10961368 10986038 11004764 11015027 11014857 11003778 
3364.507 10982879 10954877 10925214 10899696 10884476 10883151 10895552 
3367.882 10917976 10943664 10966125 10980601 10985835 10984238 10979752 
3371.257 10975640 10973194 10971291 10967858 10961334 10953315 10948252 
3374.632 10951921 10968878 10999768 11040347 11082187 11116213 11135385 
3378.008 11137425 11125595 11106933 11088509 11075933 11070665 11070902 
3381.383 11072976 11074098 11073078 11071276 11071480 11075763 11085280 
3384.758 11099795 11118150 11139397 11164044 11193316 11228201 11269073 
3388.133 11314608 11361441 11406339 11445595 11476893 11499858 11514590 
3391.509 11521838 11522450 11517483 11508126 11496694 11486249 11479206 
3394.884 11478255 11484310 11496796 11513604 11532182 11549978 11565120 
3398.259 11576859 11585163 11590879 11595372 11600646 11609631 11624843 
3401.634 11648429 11680184 11717014 11753405 11782240 11797527 11796096 
3405.010 11778597 11750408 11718512 11689579 11667693 11653364 11643426 
3408.385 11633692 11620283 11601327 11577540 11551373 11525410 11502648 
3411.760 11484888 11473627 11471144 11479819 11501797 11537897 11586592 
3415.135 11643086 11700743 11753133 11794735 11823948 11842743 11854933 
3418.510 11865148 11876555 11890586 11906012 11920827 11933154 11942486 
3421.886 11949332 11955293 11961457 11968303 11975490 11981791 11985844 
3425.261 11986900 11984346 11978180 11969189 11958562 11948481 11941363 
3428.636 11940239 11946642 11960845 11980599 12001615 12018919 12028491 
3432.011 12028218 12019260 12005021 11990204 11978453 11972186 11971436 
3435.387 11975626 11983733 11995347 12011323 12032238 12058299 12088517 
3438.762 12121429 12155434 12190022 12226418 12266191 12310604 12358259 
3442.137 12405375 12445847 12474761 12489561 12492221 12488742 12487412 
3445.512 12495222 12515683 12547093 12583996 12618276 12643997 12658597 
3448.888 12663169 12660030 12651570 12637140 12615240 12583382 12541705 
3452.263 12494097 12449256 12418228 12411307 12435446 12491812 12574753 
3455.638 12673642 12775999 12868893 12942212 12989561 13008475 13000145 
3459.013 12968770 12921594 12866981 12813673 12770233 12742253 12732290 
3462.389 12739591 12760986 12791765 12827802 12865821 12903401 12938696 
3465.764 12969727 12994443 13010900 13018274 13017148 13009090 12996765 
3469.139 12982563 12968156 12953852 12939515 12924735 12909374 12893775 
3472.514 12877357 12859712 12839405 12815107 12787192 12758221 12733416 
3475.890 12720621 12726114 12753990 12802344 12865070 12930810 12987274 
3479.265 13024659 13038077 13028721 13003729 12973892 12948868 12934906 
3482.640 12932346 12936921 12940914 12936749 12919751 12889167 12848927 
3486.015 12806097 12769823 12748190 12745256 12760440 12787943 12818451 
3489.391 12841487 12848825 12835515 12801832 12752011 12693532 12635230 
3492.766 12584304 12546957 12526494 12523254 12535054 12557734 12584611 
3496.141 12608214 12621824 12620050 12600710 12565476 12519060 12469306 
3499.516 12423479 12388737 12369441 12366884 12378884 12400363 12424366 
3502.892 12443050 12450108 12441857 12418058 12382293 12341180 12302218 
3506.267 12273144 12259987 12265713 12289913 12328977 12377248 12428321 
3509.642 12476807 12518991 12552856 12577379 12590818 12591773 12579187 
3513.017 12553642 12519196 12481684 12448438 12426172 12417751 12422354 
3516.393 12435174 12449699 12459042 12458633 12447347 12427093 12401454 
3519.768 12375032 12351952 12335317 12327647 12329760 12340839 12358190 
3523.143 12375953 12387782 12387305 12370736 12337601 12291447 12237868 
3526.518 12183342 12133866 12093117 12062795 12043344 12033976 12034044 
3529.894 12041538 12053904 12066237 12072675 12067701 12047670 12012583 
3533.269 11965749 11913470 11861879 11815912 11777270 11745030 11716436 
3536.644 11689341 11662927 11638219 11617220 11600749 11588192 11577812 
3540.019 11567910 11558075 11550147 11547323 11552529 11566141 11584210 
3543.395 11599013 11601769 11584857 11546541 11491591 11430287 11373038 
3546.770 11327226 11293319 11267203 11242346 11213852 11181485 11149120 
3550.145 11123657 11111454 11115431 11133006 11156157 11172237 11170436 
3553.520 11143986 11092079 11019037 10932791 10842281 10755628 10679281 
3556.896 10617311 10571068 10539665 10520180 10508603 10500016 10490240 
3560.271 10475644 10454498 10426328 10392797 10357301 10324726 10301687 
3563.646 10296157 10316006 10367651 10453446 10567198 10691371 10799920 
3567.021 10864330 10866299 10806816 10702034 10575210 10446420 10329952 
3570.396 10232103 10154289 10094191 10048342 10012162 9980969 9950999 
3573.772 9918590 9881302 9837984 9790096 9741433 9697384 9663707 9644193 
3577.629 9639855 9647784 9662623 9677258 9685695 9684645 9673092 9652391 
3581.487 9624137 9589720 9549480 9504231 9456243 9410530 9375216 9360658 
3585.344 9376300 9426987 9507448 9600424 9678106 9713919 9694911 9626102 
3589.201 9525669 9414086 9309098 9220787 9153136 9104883 9072538 9051087 
3593.059 9036067 9025004 9015634 9006940 8997738 8986677 8972841 8956639 
3596.916 8940438 8927586 8921937 8926469 8941215 8963810 8989112 9011303 
3600.774 9025241 9028049 9019422 9001019 8974939 8942434 8904925 8863328 
3604.631 8819604 8776595 8738053 8707425 8685959 8671559 8658579 8639786 
3608.489 8610415 8571009 8527552 8489910 8468218 8469131 8494674 8541440 
3612.346 8600749 8660167 8707493 8734842 8741332 8731900 8714186 8696201 
3616.203 8683863 8681260 8690387 8711110 8740149 8771524 8798843 8815885 
3620.061 8820315 8813923 8800872 8786130 8773079 8762395 8752185 8738121 
3623.918 8715605 8680855 8633161 8576078 8515590 8461562 8424433 8413217 
3627.776 8431190 8470347 8510082 8524578 8500418 8441055 8359642 8269768 
3631.633 8182344 8105300 8044540 8004274 7986521 7990706 8013217 8048928 
3635.490 8093452 8142132 8191224 8236943 8275036 8301683 8314416 8314112 
3639.348 8304114 8290132 8278684 8273955 8277232 8286147 8296583 8304149 
3643.205 8307323 8308978 8315597 8335356 8376261 8442609 8532857 8636304 
3647.063 8734672 8808243 8842970 8839251 8811557 8779977 8757154 8743294 
3650.920 8729027 8705633 8669396 8623833 8575977 8535019 8508629 8501533 
3654.778 8513494 8537756 8561479 8569555 8553301 8513697 8460346 8405650 
3658.635 8361263 8334647 8328533 8341166 8366735 8396800 8422068 8434569 
3662.492 8429973 8408286 8372680 8330087 8288477 8253930 8231507 8223268 
3666.350 8229312 8249506 8284391 8335255 8402880 8484031 8567224 8631437 
3670.207 8655807 8629748 8559080 8461731 8359236 8272301 8219486 8220060 
3674.065 8289424 8429771 8614099 8789443 8902557 8935297 8903707 8834888 
3677.922 8750360 8661047 8571854 8484233 8399975 8322690 8257442 8208917 
3681.780 8180757 8172890 8182175 8202501 8226813 8249135 8265716 8277232 
3685.637 8287194 8300974 8323737 8359743 8410144 8472205 8539547 8604061 
3689.494 8658816 8698974 8721859 8726187 8711820 8679976 8633972 8578883 
3693.352 8520557 8465414 8418960 8385787 8368424 8366870 8378085 8396360 
3697.209 8415143 8427507 8428420 8415481 8388557 8349712 8304013 8258049 
3701.067 8219486 8195140 8189502 8202738 8232419 8274158 8323805 8377106 
3704.924 8430143 8480145 8524307 8561715 8593212 8621636 8651210 8686703 
3708.781 8731833 8787956 8852439 8918149 8975378 9012656 9021046 8996994 
3712.639 8943110 8866337 8776528 8683220 8594869 8518293 8458319 8416528 
3716.496 8392104 8381565 8380010 8382882 8388456 8398590 8417508 8449805 
3720.354 8496802 8554687 8614538 8664562 8694647 8701948 8690962 8672168 
3724.211 8656247 8650771 8655841 8665542 8669361 8658545 8630018 8587603 
3728.069 8539277 8494708 8461799 8445649 8448927 8471969 8512785 8566312 
3731.926 8626300 8685520 8738662 8784338 8824406 8862787 8902592 8943178 
3735.783 8979100 9002474 9005992 8987252 8947608 8891262 8823324 8749514 
3739.641 8676358 8609300 8553876 8515623 8499573 8513021 8563777 8658275 
3743.498 8791979 8940268 9061744 9120279 9111008 9055723 8985086 8923831 
3747.356 8890382 8895895 8944192 9029266 9133916 9233953 9304156 9329985 
3751.213 9311874 9260964 9190497 9111753 9031229 8952412 8878343 8812943 
3755.071 8760536 8726762 8716180 8730412 8767297 8820112 8878816 8931103 
3758.928 8966347 8976596 8958229 8913380 8849091 8775041 8701239 8637521 
3762.785 8592131 8570874 8577092 8609029 8658207 8710737 8751880 8772470 
3766.643 8771051 8753301 8729162 8708607 8698128 8699412 8708607 8717634 
3770.500 8718682 8708269 8688258 8664021 8641949 8626943 8621095 8624509 
3774.358 8634107 8646749 8659593 8671525 8683390 8697520 8716417 8740961 
3778.215 8768988 8794820 8811658 8813079 8797491 8768447 8733455 8701069 
3782.073 8679300 8674771 8691300 8729365 8784203 8847265 8906278 8948995 
3785.930 8967531 8958669 8925117 8873406 8813552 8756175 8709690 8680145 
3789.787 8668145 8670207 8679469 8688258 8690895 8684979 8672033 8657497 
3793.645 8647965 8649588 8666353 8697925 8738662 8778353 8806553 8816561 
3797.502 8810170 8796003 8788226 8803408 8857173 8960056 9108673 9278057 
3801.360 9419740 9486349 9459427 9355783 9210465 9059985 8934451 8854738 
3805.217 8835023 8879323 8976224 9095714 9198619 9255446 9257511 9216117 
3809.074 9150463 9079541 9014585 8960902 8917574 8881251 8848212 8817778 
3812.932 8793332 8783019 8796780 8843275 8923933 9026966 9128130 9200582 
3816.789 9231212 9226473 9206674 9195269 9215170 9283033 9403623 9560590 
3820.647 9711886 9804804 9803346 9713004 9568888 9412731 9274740 9173576 
3824.504 9117809 9106982 9132833 9179939 9229316 9262994 9270780 9251994 
3828.362 9213917 9166402 9119806 9083297 9062726 9061609 9079676 9113817 
3832.219 9158483 9207995 9257139 9302294 9340649 9371391 9394176 9410530 
3836.076 9423601 9437687 9457361 9485130 9519607 9554899 9582302 9593276 
3839.934 9583487 9552698 9504502 9445136 9381987 9321319 9268681 9227489 
3843.791 9198247 9180040 9170598 9167688 9169921 9176351 9186267 9198654 
3847.649 9211413 9221802 9226779 9224341 9214357 9199331 9184710 9179701 
3851.506 9196183 9246307 9336519 9457259 9580777 9674176 9721475 9725914 
3855.364 9698536 9649274 9584503 9508159 9423499 9335571 9250876 9176351 
3859.221 9119264 9085361 9077477 9095646 9136860 9195371 9264213 9336553 
3863.078 9405452 9463727 9503892 9518726 9505450 9467927 9417167 9366955 
3866.936 9330967 9320777 9342443 9394853 9464473 9526821 9554153 9532883 
3870.793 9471754 9395565 9329782 9291428 9287129 9311671 9348944 9375826 
3874.651 9374031 9336248 9269426 9188805 9112463 9056365 9032345 9048381 
3878.508 9106847 9202579 9319524 9433183 9517270 9553273 9538234 9483471 
3882.365 9407517 9328597 9262757 9221870 9211852 9231957 9272709 9318780 
3886.223 9355376 9376097 9383545 9385644 9390282 9403928 9429289 9465725 
3890.080 9508125 9548396 9577051 9586942 9575764 9546329 9504637 9456988 
3893.938 9409007 9364923 9327074 9296878 9274232 9258357 9248068 9242618 
3897.795 9241941 9247391 9261302 9285334 9320371 9365330 9418217 9476867 
3901.653 9539759 9605065 9669093 9725371 9763528 9772982 9747906 9689930 
3905.510 9608655 9518117 9432946 9363807 9316918 9293255 9289465 9299417 
3909.367 9316343 9333879 9347285 9353412 9350230 9336925 9313668 9282965 
3913.225 9249523 9219806 9201970 9203426 9228944 9277448 9341428 9409075 
3917.082 9466031 9501894 9513070 9501657 9473718 9437010 9398307 9362182 
3920.940 9332525 9312144 9303513 9309437 9331136 9368207 9416693 9469857 
3924.797 9519336 9557913 9581522 9589652 9584334 9568617 9545517 9518523 
3928.655 9491124 9467622 9452824 9450352 9461695 9484555 9513138 9538675 
3932.512 9553002 9550902 9531562 9497898 9455600 9411072 9369122 9333811 
3936.369 9307947 9292477 9288279 9294711 9310351 9333167 9360861 9391197 
3940.227 9422415 9453264 9482183 9506872 9524822 9533154 9530411 9517914 
3944.084 9500234 9483674 9475479 9481676 9505213 9545212 9596460 9651239 
3947.942 9700468 9737265 9758716 9766306 9764205 9756885 9747804 9738316 
3951.799 9727778 9714698 9698028 9677496 9654017 9629455 9606962 9588941 
3955.656 9578406 9577255 9586095 9603811 9627660 9652967 9675361 9690405 
3959.514 9696131 9692979 9684374 9674582 9668653 9669906 9678648 9692505 
3963.371 9707312 9718256 9721272 9715037 9700094 9679190 9656321 9635757 
3967.229 9620648 9612755 9611704 9615532 9621697 9627525 9630912 9631725 
3971.086 9630574 9629286 9629422 9632640 9639077 9648393 9659098 9669873 
3974.944 9679020 9684882 9685966 9681155 9670076 9653577 9634131 9615363 
3978.801 9602050 9598629 9607809 9630404 9664520 9706601 9751972 9795925 
3982.658 9834866 9865269 9883979 9887607 9872726 9836866 9780167 9706498 
3986.516 9622816 9539691 9468198 9417133 9392145 9394075 9419063 9460070 
3990.373 9509819 9561571 9611061 9655881 9695961 9731098 9761528 9787147 
3994.231 9807719 9823241 9834595 9842458 9848390 9853168 9857202 9859914 
3998.088 9859744 9855033 9844220 9826461 9802262 9773795 
##END=
