##TITLE=bd_6 Sep 17 09:05:02 2026 (GMT+02:00)
##JCAMP-DX=5.01  $$ Nicolet v. 970
##DATATYPE=INFRARED SPECTRUM
##ORIGIN=Vojna akademija
##OWNER=Nicolet
##LONGDATE=2026/09/17
##TIME=09:05:27
##SPECTROMETER/DATA SYSTEM=Nicolet iS20
##DATA PROCESSING=
Ratio against background
%Transmittance->Absorbance
Truncated
ElementMultiply or ElementDivide
##COMMENTS=
Number of sample scans: 8
Collection length: 11,90 sec
Sample gain: 8,0
Background collected on: Thu Sep 17 08:59:36 2026 (GMT+02:00);
Number of background scans: 8
Background gain: 8,0
Sample spacing:  1,000
Number of scan points: 12415
Resolution points: 8286
Number of FFT points: 65536
Apodization: N-B strong;
Phase correction: Mertz;
Laser frequency: 15798,00 cm-1
Number of rejected sample scans: 0
Number of rejected background scans: 0
Bench serial number: BER2010005;
##RESOLUTION= 4,000
##XUNITS=1/CM
##YUNITS=ABSORBANCE
##FIRSTX=400.156891
##LASTX=4000.123047
##FIRSTY=0.027984
##MAXX=4000.123047
##MINX=400.156891
##MAXY=0.234602
##MINY=-0.000911
##XFACTOR=1.000000
##YFACTOR=1.000000E-009
##NPOINTS=7468
##DELTAX=0.482117
##ZPD=6100
##XYDATA=(X++(Y..Y))
400.157 27984124 29083896 29780776 30214700 30296834 29842774 28771490 
403.532 27234410 25648020 24566158 24528748 25767826 28081210 30858006 
406.907 33364404 34984528 35436988 34828548 33564640 32172140 31071432 
410.281 30488160 30404496 30656562 31035308 31388416 31641874 31793114 
413.656 31886670 31991198 32185874 32545924 33139084 33988744 35038400 
417.031 36069576 36685240 36387280 34817452 32126148 29044430 26508248 
420.406 25112702 25016872 26055070 27930446 30306392 32839008 35193308 
423.781 37002960 37958964 37881440 36775168 34846284 32452188 30033010 
427.155 27978822 26584892 25962160 26025762 26541566 27238962 27930340 
430.530 28561350 29211742 30006242 31012746 32161898 33248204 34003652 
433.905 34229348 33865860 33048798 32048162 31192886 30715448 30665416 
437.280 30919874 31274386 31542562 31615432 31481530 31185908 30793552 
440.655 30353506 29907550 29514890 29271036 29317542 29781594 30708194 
444.030 32010816 33481706 34849512 35851340 36332084 36270776 35797580 
447.404 35134132 34542048 34224616 34277072 34693476 35388312 36231732 
450.779 37060296 37707540 38016860 37871612 37241372 36198560 34910264 
454.154 33578132 32411914 31568002 31120942 31060042 31291016 31662688 
457.529 32004822 32203824 32232732 32149374 32043204 31998082 32064680 
460.904 32259926 32576602 32990664 33467892 33970044 34468612 34949300 
464.278 35412976 35867356 36307012 36693712 36952232 36971284 36640748 
467.653 35901796 34781988 33407196 31973046 30718436 29851292 29511060 
471.028 29726522 30397852 31301592 32144450 32677222 32758358 32406024 
474.403 31761206 31031642 30410290 30027224 29932042 30076438 30329946 
477.778 30512258 30468504 30108008 29441272 28565490 27640936 26835384 
481.152 26272516 26013310 26038252 26271638 26608564 26955590 27238714 
484.527 27401310 27401520 27206330 26806588 26230806 25560610 24920502 
487.902 24446016 24256808 24403150 24848502 25470970 26118930 26654010 
491.277 26998708 27152572 27170278 27121286 27049308 26956752 26813566 
494.652 26586548 26264984 25873916 25466614 25104452 24827136 24641408 
498.027 24521070 24427788 24324436 24187826 24007728 23777482 23491112 
501.401 23144362 22750470 22347378 22001398 21793324 21785730 22008894 
504.776 22447610 23050188 23737936 24426528 25042530 25522272 25820252 
508.151 25908486 25780028 25456286 24994832 24490254 24047896 23764602 
511.526 23688454 23796170 23995928 24164986 24204886 24074442 23810626 
514.901 23506222 23273898 23184798 23235934 23341406 23377526 23229924 
518.276 22852088 22282498 21626512 21008412 20521470 20210994 20069842 
521.650 20061410 20142304 20280806 20457072 20657800 20870442 21080336 
525.025 21275784 21455970 21631632 21817782 22016876 22209470 22355576 
528.400 22409020 22338866 22149668 21890642 21648522 21515954 21568182 
531.775 21828340 22260282 22773900 23254390 23591118 23693388 23517380 
535.150 23068848 22405914 21620766 20832202 20163094 19711562 19542496 
538.524 19668638 20052976 20617702 21273696 21942812 22565210 23106376 
541.899 23541688 23844090 23984058 23931678 23675786 23239290 22690768 
545.274 22135512 21687324 21447300 21463106 21721214 22151480 22657534 
548.649 23136080 23495274 23674318 23640238 23393260 22963126 22408498 
552.024 21805204 21232220 20766088 20458044 20329240 20369034 20546132 
555.398 20819826 21153382 21517488 21880536 22201728 22431106 22515548 
558.773 22422802 22159952 21783918 21385272 21062178 20889668 20886572 
562.148 21014392 21194156 21347892 21423700 21417468 21363866 21316290 
565.523 21315838 21374342 21474664 21586952 21686836 21768068 21841616 
568.898 21922702 22014122 22102878 22164730 22183212 22164276 22140986 
572.273 22160476 22265268 22474512 22775644 23131712 23498212 23845524 
575.647 24166002 24471220 24776056 25082372 25370952 25609358 25764732 
579.022 25822010 25790786 25704650 25604612 25527192 25492194 25501118 
582.397 25544482 25610200 25686826 25757910 25797362 25769128 25633364 
585.772 25367228 24980336 24524928 24079974 23734750 23557640 23569920 
589.147 23744794 24018304 24321036 24594172 24807524 24954576 25034106 
592.521 25035546 24933942 24698504 24316586 23808212 23234816 22680330 
595.896 22232798 21948004 21830014 21831232 21874926 21887296 21819804 
599.271 21667922 21465334 21267120 21120404 21050528 21049276 21083116 
602.646 21102074 21057518 20916960 20670378 20337538 19962698 19610398 
606.021 19342940 19208650 19225550 19374848 19604366 19845556 20039306 
609.396 20148170 20167084 20116308 20026606 19920894 19804946 19669020 
612.770 19499070 19289664 19053488 18818310 18620088 18488754 18435684 
616.145 18454698 18525646 18625692 18734306 18837824 18921884 18967398 
619.520 18950784 18847030 18640634 18334748 17954102 17542670 17149584 
622.895 16824424 16604012 16511142 16556336 16736846 17036404 17416728 
626.270 17821828 18177828 18408478 18460230 18312872 17990984 17553640 
629.644 17084408 16660232 16334236 16130097 16043825 16058506 16156025 
633.019 16322814 16544254 16794564 17036714 17222940 17314204 17298410 
636.394 17200428 17076894 16996570 17020036 17172886 17443598 17791174 
639.769 18169604 18543280 18900392 19246954 19592130 19931198 20238000 
643.144 20466276 20570314 20521400 20321256 20003670 19623848 19243492 
646.519 18910288 18655714 18492522 18420126 18429392 18505902 18631052 
649.893 18781496 18935900 19078832 19205046 19321080 19439120 19567624 
653.268 19702860 19824470 19901400 19904558 19817464 19646208 19418710 
656.643 19177654 18965010 18813570 18742160 18755096 18847860 19007898 
660.018 19216302 19444526 19655846 19814308 19890890 19878506 19797558 
663.393 19694190 19621802 19627176 19738954 19963772 20292230 20703114 
666.767 21168412 21641976 22062052 22368692 22540920 22608384 22625106 
670.142 22637914 22673452 22743732 22846918 22968854 23082790 23155894 
673.517 23164248 23101622 22987090 22859144 22764924 22739996 22798342 
676.892 22930674 23113994 23326828 23561664 23827042 24137488 24497264 
680.267 24888430 25268708 25586512 25803200 25909718 25934232 25933634 
683.642 25976724 26112104 26356160 26685438 27050296 27390368 27656580 
687.016 27823430 27889812 27875292 27810960 27733004 27674838 27666856 
690.391 27736924 27905042 28180478 28555654 29004720 29484570 29945568 
693.766 30346362 30658978 30880596 31030896 31149562 31280796 31464078 
697.141 31723670 32062500 32463544 32896120 33327338 33728472 34086576 
700.516 34404408 34698464 34990488 35300036 35638756 36008880 36405148 
703.890 36818984 37244480 37679712 38126600 38589736 39075328 39591164 
707.265 40147328 40758648 41439392 42200432 43042560 43953048 44905200 
710.640 45865928 46808928 47721360 48610368 49496852 50408184 51364876 
714.015 52375152 53435972 54540036 55684724 56878480 58138140 59482960 
717.390 60924400 62459160 64066328 65710536 67349272 68930592 70399464 
720.765 71695648 72752720 73512592 73931776 73993016 73707408 73108472 
724.139 72241376 71147728 69865816 68429504 66873572 65245532 63602156 
727.514 62004192 60508972 59150456 57933712 56830516 55790620 54753960 
730.889 53671660 52521636 51313044 50081100 48873708 47740040 46711140 
734.264 45794088 44970976 44208296 43466872 42713884 41934244 41132904 
737.639 40333152 39567060 38868444 38257932 37736996 37285060 36866556 
741.013 36440392 35973748 35454892 34895436 34327448 33786024 33299648 
744.388 32876316 32502140 32146450 31777214 31373282 30932078 30468574 
747.763 30006950 29570998 29173578 28815818 28488708 28181680 27884902 
751.138 27592104 27298022 26994230 26669194 26313386 25924912 25516650 
754.513 25118600 24772654 24518124 24383520 24374864 24475356 24649614 
757.888 24855798 25056114 25218210 25318650 25341342 25276224 25122112 
761.262 24889588 24602660 24291882 23991622 23729152 23518778 23363540 
764.637 23259286 23203148 23196716 23243904 23343190 23477436 23613158 
768.012 23704584 23710358 23613334 23428126 23198708 22976680 22804350 
771.387 22691466 22613900 22525180 22384598 22177354 21925664 21676350 
774.762 21481312 21369018 21329238 21313924 21260334 21121310 20882924 
778.136 20572502 20243590 19955342 19743530 19611300 19532480 19470376 
781.511 19394770 19295586 19181672 19072668 18984290 18920742 18875788 
784.886 18840352 18811112 18793744 18797342 18825438 18866062 18892224 
788.261 18868208 18765754 18579004 18330602 18068246 17847340 17718034 
791.636 17704608 17801702 17977482 18187330 18384558 18531248 18607534 
795.010 18611236 18557184 18471846 18388670 18337374 18335302 18382172 
798.385 18459746 18536954 18581148 18572952 18510708 18412798 18305612 
801.760 18215178 18156510 18132016 18137682 18172990 18246276 18373530 
805.135 18567038 18823014 19111656 19385136 19589080 19686700 19675920 
808.510 19595078 19510368 19490960 19588664 19815106 20140846 20504830 
811.885 20840266 21088962 21215380 21211830 21093136 20890398 20640288 
815.259 20386222 20169584 20026746 19984520 20050894 20211898 20432654 
818.634 20669198 20877986 21029696 21116614 21149174 21150356 21142252 
822.009 21141938 21157036 21188174 21234900 21298682 21383566 21494368 
825.384 21632746 21795206 21973134 22156258 22332098 22488784 22615296 
828.759 22700090 22735806 22723130 22676874 22625802 22610688 22675058 
832.133 22847792 23134228 23507060 23915398 24292758 24578536 24734490 
835.508 24749116 24640076 24443596 24207304 23974848 23783606 23661650 
838.883 23626068 23685758 23838070 24068418 24349178 24645160 24922818 
842.258 25156762 25338776 25478806 25601484 25735094 25902226 26112314 
845.633 26357216 26615010 26856108 27055868 27198074 27282532 27322826 
849.008 27343294 27368806 27417650 27496820 27600154 27713226 27820144 
852.382 27913804 27998366 28089942 28207738 28365674 28562554 28778926 
855.757 28979820 29127830 29194980 29172336 29072772 28927470 28775420 
859.132 28649118 28571932 28551160 28582900 28655806 28757222 28875448 
862.507 28998946 29116670 29218052 29294042 29340514 29358736 29355756 
865.882 29340726 29323888 29313822 29316692 29338812 29385324 29459322 
869.256 29558054 29670856 29776446 29848418 29864708 29816442 29715132 
872.631 29589514 29479500 29421098 29432338 29510742 29634422 29774106 
876.006 29902722 30005920 30080024 30125586 30140078 30113760 30033828 
879.381 29896264 29715274 29529076 29391600 29362884 29484074 29765198 
882.756 30178470 30670252 31173946 31629972 32001934 32275628 32455686 
886.131 32555852 32591924 32575778 32516568 32423768 32307752 32181274 
889.505 32057542 31947296 31858574 31796608 31764560 31763882 31791796 
892.880 31840534 31894266 31932496 31936168 31893908 31807266 31690166 
896.255 31564046 31446230 31344074 31250990 31151946 31030574 30881202 
899.630 30711892 30544036 30403360 30309340 30269230 30276512 30315202 
903.005 30367754 30422266 30471632 30510764 30532448 30523242 30468220 
906.379 30356418 30189162 29982594 29765516 29571850 29427624 29344768 
909.754 29318356 29332644 29367846 29408690 29447868 29482478 29508506 
913.129 29517338 29494322 29425458 29304214 29138532 28950810 28774676 
916.504 28643916 28580104 28587502 28650144 28739804 28822192 28869464 
919.879 28866382 28812880 28722424 28617442 28524372 28464510 28451808 
923.254 28488850 28566978 28668372 28771632 28857954 28915500 28941744 
926.628 28942344 28927292 28905230 28881964 28859832 28840922 28830406 
930.003 28838336 28878140 28962356 29096652 29275574 29482230 29693738 
933.378 29888914 30053250 30185858 30298042 30409578 30540162 30704994 
936.753 30908916 31145860 31400528 31652744 31884462 32082230 32242794 
940.128 32373932 32492320 32617390 32766502 32948018 33159040 33386122 
943.502 33611568 33820692 34007628 34177652 34345376 34529704 34745768 
946.877 35001480 35296084 35622680 35971732 36334248 36703628 37074768 
950.252 37443624 37806828 38163352 38515536 38868660 39228528 39596244 
953.627 39965068 40319808 40643220 40923144 41162628 41382676 41620628 
957.002 41918004 42306008 42796880 43378916 44022676 44691368 45357452 
960.377 46008828 46650008 47294272 47955600 48639308 49340172 50044328 
963.751 50735140 51398628 52023168 52598488 53113452 53553276 53903240 
967.126 54151044 54291556 54329068 54276576 54154460 53984836 53791840 
970.501 53597320 53418244 53265468 53140452 53034976 52931848 52811344 
973.876 52656796 52461624 52231860 51983916 51736636 51501096 51274596 
977.251 51040468 50774800 50455816 50076416 49648792 49203220 48776792 
980.625 48405076 48111628 47902652 47769404 47692884 47651988 47624888 
984.000 47592200 47537188 47444416 47303956 47113756 46882040 46625328 
987.375 46364488 46116444 45888868 45678200 45474140 45266832 45054296 
990.750 44845788 44658612 44512112 44417264 44372524 44364088 44372744 
994.125 44380748 44378508 44364968 44344232 44319464 44289448 44250816 
997.500 44202940 44154228 44125800 44145424 44240944 44426808 44697100 
1000.874 45022868 45360580 45667008 45907980 46070240 46161068 46204108 
1004.249 46229724 46265440 46331716 46436164 46574460 46731140 46885956 
1007.624 47015900 47104152 47146736 47155972 47159664 47193128 47290396 
1010.999 47470620 47732528 48053848 48402188 48743612 49054956 49328888 
1014.374 49569940 49786704 49984768 50163212 50317544 50445432 50553520 
1017.748 50656828 50775136 50924360 51107996 51316696 51531204 51732976 
1021.123 51910120 52061788 52194492 52315908 52428500 52527544 52605220 
1024.498 52657508 52688740 52712384 52743360 52791552 52854340 52918152 
1027.873 52963780 52979012 52965648 52941320 52930952 52953968 53013636 
1031.249 53093348 53160112 53178240 53125324 52998400 52814748 52602036 
1034.624 52388348 52190644 52012336 51848624 51695088 51555268 51443388 
1037.999 51376848 51370100 51422984 51518592 51624076 51701512 51720620 
1041.374 51665532 51540940 51371700 51197720 51062528 51006704 51059732 
1044.750 51233024 51520196 51897128 52330148 52780772 53217040 53621536 
1048.125 53990988 54334620 54665864 54996308 55329444 55661596 55984996 
1051.500 56294152 56588200 56873044 57156976 57448132 57750760 58064356 
1054.875 58385492 58711568 59040208 59371376 59704584 60037776 60367536 
1058.251 60690952 61008052 61322712 61641912 61973004 62319308 62679088 
1061.626 63044800 63406600 63756356 64088024 64398356 64682180 64930828 
1065.001 65133108 65277876 65361292 65391756 65392488 65396264 65437056 
1068.376 65543472 65728268 65988272 66305832 66657572 67021436 67383088 
1071.752 67739808 68100624 68483656 68910360 69403376 69976584 70631328 
1075.127 71351800 72108504 72863448 73582256 74248904 74872128 75486664 
1078.502 76137336 76867912 77699528 78624416 79605408 80593328 81542920 
1081.877 82426560 83243568 84012832 84764360 85525304 86315792 87146840 
1085.253 88023152 88945952 89912744 90915792 91938768 92961376 93963728 
1088.628 94936856 95888040 96839440 97818128 98840544 99902280 100974848 
1092.003 102016296 102982912 103846856 104601496 105256400 105822696 
1094.896 106302840 106684344 106946256 107070840 107055536 106916288 
1097.789 106684216 106391688 106060784 105699856 105303768 104863792 
1100.682 104375208 103841552 103274712 102689648 102099160 101513360 
1103.575 100941280 100393080 99883344 99428904 99044904 98742376 98527152 
1106.951 98400744 98365336 98425472 98587224 98853064 99215664 99653792 
1110.326 100134672 100625104 101098240 101544472 101969576 102385784 
1113.219 102796768 103188144 103522088 103753224 103841128 103769088 
1116.112 103550344 103224112 102838584 102431256 102021576 101606384 
1119.005 101170128 100695208 100172520 99604368 99000616 98373064 97732432 
1122.380 97088560 96453328 95845440 95288936 94806504 94415984 94122504 
1125.755 93920080 93797568 93749248 93783376 93926416 94214328 94686296 
1129.131 95370192 96275416 97393296 98703616 100186376 101827544 103622520 
1132.506 105571992 107674240 109921688 112300232 114792424 117384608 
1135.399 120065088 122821248 125634400 128471776 131291208 134052696 
1138.292 136727888 139310736 141813904 144254528 146636672 148938912 
1141.185 151113792 153108240 154879856 156417600 157743824 158905104 
1144.078 159950672 160914912 161814336 162651648 163427600 164151776 
1146.971 164842176 165518544 166192240 166859856 167506640 168117776 
1149.864 168690480 169239408 169791008 170370160 170988928 171639488 
1152.757 172299984 172945440 173563056 174154576 174731888 175302592 
1155.651 175859936 176379184 176828512 177180304 177426560 177578240 
1158.544 177657136 177678352 177640032 177522432 177302432 176969584 
1161.437 176539168 176048592 175545104 175060560 174596656 174120672 
1164.330 173581136 172928128 172130224 171183792 170105808 168919760 
1167.223 167643088 166286480 164859712 163380448 161881664 160402976 
1170.116 158975520 157609040 156283296 154954032 153568608 152091216 
1173.009 150514240 148860816 147170720 145485200 143830912 142214272 
1175.902 140628896 139065888 137523072 136007664 134529424 133092984 
1178.795 131691456 130307776 128921536 127518952 126100288 124678560 
1181.688 123273832 121902544 120574192 119289920 118048312 116850168 
1184.581 115701600 114610072 113578000 112597072 111645296 110693552 
1187.474 109717696 108705560 107663632 106612296 105577480 104577672 
1190.367 103617768 102689224 101776864 100868296 99960128 99059472 98179120 
1193.743 97330024 96514696 95726136 94950792 94175264 93389952 92591120 
1197.118 91780048 90959176 90130552 89296752 88463848 87643016 86852208 
1200.493 86110960 85434016 84827320 84283624 83786616 83314696 82850512 
1203.868 82385264 81919912 81461968 81021680 80607048 80222544 79870512 
1207.244 79554032 79277624 79046976 78866008 78732960 78638720 78569224 
1210.619 78508048 78440920 78360552 78264360 78154512 78033152 77902224 
1213.994 77763688 77621240 77483144 77360984 77266440 77207504 77184584 
1217.369 77189968 77211736 77240912 77276176 77327448 77410960 77544944 
1220.745 77740472 77996152 78298048 78624264 78952152 79263464 79549576 
1224.120 79810072 80049640 80274520 80490704 80701840 80910888 81119280 
1227.495 81326968 81532640 81732016 81920552 82094840 82255544 82407248 
1230.870 82557736 82714520 82880952 83054864 83229128 83395344 83546736 
1234.245 83679856 83794568 83890096 83962608 84003664 84001448 83947384 
1237.621 83837408 83676840 83477176 83253888 83020928 82787160 82556576 
1240.996 82328064 82097760 81858016 81598608 81305192 80961152 80552872 
1244.371 80074264 79532384 78946304 78344080 77752512 77187240 76648824 
1247.746 76122768 75588400 75026880 74431704 73811584 73187288 72581480 
1251.122 72013144 71490480 71011048 70566728 70149024 69754216 69383664 
1254.497 69039688 68721176 68420232 68123224 67814168 67481344 67121856 
1257.872 66743536 66361228 65991016 65645128 65328440 65038072 64766788 
1261.247 64507320 64254916 64008004 63766672 63531160 63299300 63067564 
1264.623 62830620 62582560 62318352 62033584 61725132 61392812 61039396 
1267.998 60672132 60300720 59937080 59590696 59267644 58969764 58695984 
1271.373 58444624 58216748 58016824 57851708 57727296 57643784 57593764 
1274.748 57562440 57530248 57477556 57391404 57267236 57109396 56927060 
1278.124 56730864 56527812 56318784 56098504 55858328 55588420 55280860 
1281.499 54931892 54543152 54122292 53680436 53231120 52787508 52358668 
1284.874 51948956 51557804 51182212 50819164 50469440 50137884 49832708 
1288.249 49562100 49329892 49133832 48964788 48809748 48655468 48494648 
1291.625 48326408 48158156 48001556 47869724 47771956 47710932 47682012 
1295.000 47674356 47672584 47659712 47622112 47550756 47444708 47312084 
1298.375 47168936 47035620 46930472 46865248 46839596 46841000 46846280 
1301.750 46831404 46775712 46669968 46518068 46334220 46136856 45941092 
1305.126 45756164 45581952 45413108 45242156 45064328 44879552 44693092 
1308.501 44512332 44345772 44200448 44080760 43988428 43922764 43879944 
1311.876 43852968 43832476 43808508 43773068 43723632 43663944 43602764 
1315.251 43549756 43510748 43484600 43462332 43428788 43368152 43270184 
1318.627 43132644 42962480 42771944 42573964 42377204 42184660 41994644 
1322.002 41803692 41609176 41410632 41209696 41008384 40807456 40605784 
1325.377 40400676 40190104 39974552 39758740 39550548 39360596 39198972 
1328.752 39072612 38983908 38930124 38904176 38896676 38898524 38903016 
1332.128 38907292 38913816 38928964 38962416 39022912 39116844 39245392 
1335.503 39405544 39590000 39791276 40003612 40225396 40457044 40699656 
1338.878 40950524 41202012 41442488 41660084 41847912 42004500 42132884 
1342.253 42237972 42323872 42394408 42455200 42515784 42590336 42695092 
1345.629 42843980 43042452 43283952 43550016 43817008 44061324 44267728 
1349.004 44434404 44570192 44689020 44803028 44917912 45031800 45139796 
1352.379 45237228 45323576 45402436 45477448 45549644 45614964 45666456 
1355.754 45699140 45714676 45722956 45739268 45779692 45854328 45963524 
1359.130 46098500 46245684 46390888 46524004 46640968 46741840 46828376 
1362.505 46901716 46963624 47018300 47073876 47142268 47233172 47352172 
1365.880 47496492 47657092 47819488 47970212 48102632 48219244 48330332 
1369.255 48447820 48579572 48725856 48882276 49044424 49214392 49403620 
1372.630 49631596 49918380 50276472 50700696 51167340 51640344 52082148 
1376.006 52460352 52741640 52889592 52862388 52615988 52122868 51383936 
1379.381 50435944 49337616 48155936 46946272 45741144 44558588 43407916 
1382.756 42297100 41237716 40240084 39308356 38437196 37611492 36809644 
1386.131 36010928 35205812 34398276 33606376 32853090 32155904 31523288 
1389.507 30956202 30452296 30008086 29620374 29284968 28995368 28741858 
1392.882 28511954 28292852 28073930 27851974 27633628 27433286 27267644 
1396.257 27149292 27084714 27073430 27109050 27179308 27268702 27360160 
1399.632 27440484 27504374 27552526 27588504 27613854 27626954 27622788 
1403.008 27596130 27544724 27473734 27396190 27331154 27295904 27302220 
1406.383 27353738 27448498 27583560 27757974 27973840 28235070 28545250 
1409.758 28906576 29318960 29781166 30292926 30854662 31465572 32118656 
1413.133 32797198 33475086 34116180 34684824 35153604 35506092 35739044 
1416.509 35855876 35858428 35738328 35479268 35070332 34529200 33911572 
1419.884 33293456 32734882 32264706 31880538 31563404 31290554 31044382 
1423.259 30817596 30615282 30451336 30341956 30297650 30321278 30411818 
1426.634 30569278 30797498 31102540 31489156 31956424 32494928 33090524 
1430.010 33729008 34401216 35101120 35822880 36555028 37282352 37988760 
1433.385 38664772 39314380 39954316 40612840 41319628 42088708 42897888 
1436.760 43689044 44398216 44991188 45475280 45882536 46247008 46593788 
1440.135 46934864 47270556 47594196 47898580 48181592 48448084 48708248 
1443.511 48973948 49254288 49553116 49871248 50210000 50575560 50981848 
1446.886 51447864 51992952 52630948 53363920 54187752 55101356 56111096 
1450.261 57231628 58475896 59845380 61316984 62844256 64375028 65859624 
1453.636 67274520 68620736 69911536 71156200 72337096 73392160 74223824 
1457.012 74762344 75033328 75138768 75190496 75243568 75304768 75364984 
1460.387 75419848 75475984 75546792 75642936 75763520 75888592 75980584 
1463.762 75982352 75830424 75468768 74848272 73924312 72654048 70990024 
1467.137 68908416 66423192 63597672 60518492 57281828 53955648 50536660 
1470.513 46966320 43155076 39065436 34809880 30688992 27069444 24176020 
1473.888 22000284 20367262 19059480 17920608 16870304 15897181 15023910 
1477.263 14272457 13640382 13101760 12619334 12161227 11709355 11260912 
1480.638 10823257 10408035 10023860 9674582 9361064 9085361 8851222 8662364 
1484.496 8518022 8409806 8321474 8235019 8136562 8022972 7901584 7782860 
1488.353 7669397 7548882 7396753 7192863 6941998 6676070 6438954 6262371 
1492.211 6158075 6117076 6119160 6140869 6164091 6178038 6181970 6181534 
1496.068 6183147 6185096 6176963 6143860 6078568 5985973 5881240 5780830 
1499.925 5696255 5629755 5576321 5528497 5482223 5438771 5404751 5388212 
1503.783 5395458 5427229 5477458 5532424 5572461 5580147 5552795 5505242 
1507.640 5453198 5398008 5331117 5246932 5146803 5040026 4938503 4854394 
1511.498 4793450 4753752 4728126 4710038 4697880 4698215 4721628 4777738 
1515.355 4867059 4974565 5068989 5117365 5104458 5042171 4960522 4891185 
1519.213 4857845 4867964 4912129 4962801 4986094 4957405 4879960 4777403 
1523.070 4676075 4590677 4524581 4476069 4441589 4417689 4398911 4377858 
1526.927 4344022 4288001 4206694 4106135 4000717 3908464 3846282 3824086 
1530.785 3841970 3889976 3951094 4004095 4028508 4014763 3969786 3912744 
1534.642 3860891 3822381 3797212 3782906 3780065 3793635 3831942 3903149 
1538.500 4006403 4119983 4196189 4183911 4067571 3884360 3693607 3541686 
1542.357 3446558 3404378 3402842 3427889 3467365 3511355 3552309 3584213 
1546.214 3603423 3609604 3605662 3596942 3590995 3593968 3607967 3628448 
1550.072 3645155 3649699 3640677 3626109 3619527 3634930 3679137 3747044 
1553.929 3819540 3870218 3881184 3850829 3795975 3743969 3728228 3775921 
1557.787 3895091 4043490 4126673 4066601 3894490 3700023 3544225 3439478 
1561.644 3374825 3334455 3306409 3285042 3270786 3267548 3277530 3297328 
1565.502 3317694 3327310 3319564 3296727 3270286 3258835 3280668 3344338 
1569.359 3438509 3534437 3600951 3625308 3614716 3588088 3562932 3551039 
1573.216 3556351 3575594 3600183 3619861 3626043 3614616 3588289 3553344 
1577.074 3514962 3475648 3435904 3396931 3361869 3333921 3315257 3305307 
1580.931 3301334 3300099 3300366 3305708 3322068 3355558 3408686 3477252 
1584.789 3552008 3621766 3679338 3724151 3761382 3797212 3835050 3871254 
1588.646 3896495 3900006 3876002 3827496 3766128 3707375 3665136 3647527 
1592.504 3654811 3682813 3725855 3781335 3848656 3927355 4012322 4091686 
1596.361 4150223 4174577 4158720 4107941 4037169 3966877 3914884 3893085 
1600.218 3903349 3939124 3988111 4038407 4080715 4109648 4123261 4122760 
1604.076 4112993 4101620 4100516 4122024 4175279 4262403 4374712 4494884 
1607.933 4600020 4673396 4710842 4722599 4727724 4745512 4787721 4854193 
1611.791 4935722 5020685 5102748 5183619 5272655 5382777 5524974 5702231 
1615.648 5903642 6105114 6280120 6414305 6513684 6593742 6669878 6749797 
1619.505 6835957 6930619 7039209 7172146 7341180 7552861 7798749 8050514 
1623.363 8270477 8429535 8523327 8570096 8599093 8637048 8699582 8790627 
1627.220 8902930 9023719 9140582 9247492 9344373 9433928 9516457 9588670 
1631.078 9645852 9685017 9707888 9720527 9732589 9752751 9783216 9814497 
1634.935 9822733 9779793 9671398 9509481 9320946 9127521 8937867 8751542 
1638.793 8569082 8396225 8244913 8130789 8064219 8045113 8060775 8091933 
1642.650 8119513 8134603 8141288 8158000 8211618 8327892 8517549 8761888 
1646.507 9009950 9198518 9294711 9311467 9288347 9260117 9247594 9258560 
1650.365 9295794 9366617 9487941 9688541 9989683 10358726 10678976 10830765 
1654.222 10808922 10692424 10561189 10460472 10410445 10412243 10455041 
1657.598 10521232 10592423 10657752 10715959 10775668 10850026 10949237 
1660.973 11074403 11214702 11351441 11468660 11562567 11645501 11735158 
1664.348 11845263 11977534 12124598 12275632 12423036 12567284 12717278 
1667.723 12890088 13104321 13369365 13675737 13994167 14289680 14538488 
1671.099 14735231 14887895 15007754 15103356 15179867 15241325 15294520 
1674.474 15351155 15425375 15525430 15645636 15768934 15877180 15960185 
1677.849 16017251 16057201 16094334 16145434 16223056 16331794 16468398 
1681.224 16627835 16809580 17022172 17281930 17599942 17957832 18293448 
1684.599 18535846 18665780 18721680 18760564 18824434 18939432 19120000 
1687.975 19372180 19698386 20098574 20570452 21106734 21690876 22296904 
1691.350 22891066 23443968 23939834 24382996 24803278 25254416 25808402 
1694.725 26529168 27431308 28436032 29397166 30186036 30769330 31194524 
1698.100 31546410 31906892 32339126 32871672 33475264 34072600 34596332 
1701.476 35033088 35412040 35768512 36126428 36501508 36907788 37362544 
1704.851 37885128 38486612 39159628 39877748 40608076 41329940 42043920 
1708.226 42768616 43532284 44356856 45246972 46183840 47133256 48062956 
1711.601 48956112 49824832 50706392 51650232 52697608 53862916 55124904 
1714.977 56441736 57775132 59121944 60517920 62017684 63631164 65286504 
1718.352 66863760 68270688 69500728 70624464 71740168 72944496 74307872 
1721.727 75866960 77621240 79541856 81591328 83740560 85984888 88337336 
1725.102 90813144 93413944 96128792 98950304 101900528 105040792 108463088 
1728.478 112251400 116425848 120900992 125500696 130014288 134322656 
1731.371 138476512 142738320 147542976 153417504 160721680 169238560 
1734.264 178014480 185874464 192226096 197250448 201470016 205357264 
1737.157 209205952 213131952 217110784 221010752 224665152 227909840 
1740.050 230620256 232702384 234062192 234601920 234257088 233039936 
1742.943 231068160 228530816 225620432 222431328 218933952 215006848 
1745.836 210522768 205424160 199767968 193689632 187358064 180875568 
1748.729 174234688 167327792 160047264 152389952 144510720 136711184 
1751.622 129315184 122542304 116443952 110932696 105843920 100991536 
1754.515 96205416 91345336 86320848 81132016 75890360 70798568 66078120 
1757.891 61870828 58203108 54997696 52120404 49417132 46751360 44041892 
1761.266 41287308 38576444 36045600 33812488 31923116 30349490 29018004 
1764.641 27847522 26770746 25745396 24754308 23801212 22901892 22073174 
1768.016 21323704 20650606 20042776 19485034 18964006 18466764 17979796 
1771.391 17490924 16993330 16494520 16017698 15589684 15227290 14930486 
1774.767 14684264 14464625 14246126 14008709 13745362 13463102 13179592 
1778.142 12912310 12673438 12462929 12270655 12080920 11882311 11675045 
1781.517 11469510 11280192 11117402 10982403 10867862 10759873 10644407 
1784.892 10513153 10365751 10208289 10048172 9890454 9735537 9581421 9426140 
1788.750 9268308 9108098 8945309 8776731 8596119 8395617 8172045 7932189 
1792.607 7693139 7475356 7294240 7155573 7056888 6991089 6949742 6923885 
1796.465 6904393 6882175 6847233 6789408 6700834 6577460 6422376 6245463 
1800.322 6062742 5890006 5737349 5606864 5494303 5393579 5300829 5216381 
1804.180 5143048 5083940 5039221 5005836 4978486 4952847 4927612 4905092 
1808.037 4889376 4882540 4881535 4877346 4857208 4811106 4736869 4642651 
1811.894 4542962 4453071 4381138 4325883 4278264 4227304 4165344 4091585 
1815.752 4012589 3939224 3881852 3843909 3821446 3804632 3782572 3747679 
1819.609 3698385 3637637 3570816 3502203 3433165 3363238 3290884 3215772 
1823.467 3139939 3068023 3006361 2962089 2940839 2946843 2982807 3049203 
1827.324 3143209 3256865 3373890 3468100 3510186 3477552 3367579 3199950 
1831.182 3007128 2818261 2649411 2506053 2386397 2288090 2210987 2157805 
1835.039 2132299 2134962 2161401 2201429 2242626 2275799 2298117 2313972 
1838.896 2332360 2361343 2403555 2454901 2506619 2549245 2576309 2586209 
1842.754 2582176 2568343 2544846 2504653 2436208 2331528 2192937 2034150 
1846.611 1875221 1737275 1638583 1587766 1583376 1613772 1661566 1708267 
1850.469 1740967 1753709 1747055 1724733 1692466 1656078 1621322 1593752 
1854.326 1578920 1581215 1602764 1641876 1692533 1743396 1780124 1789440 
1858.183 1762458 1697822 1603496 1495824 1395359 1323034 1293888 1312199 
1862.041 1370596 1452570 1540246 1618063 1678064 1721440 1756769 1794996 
1865.898 1844108 1906137 1974898 2038144 2080957 2093009 2070969 2019902 
1869.756 1947372 1859181 1756171 1637419 1503505 1359494 1215166 1084571 
1873.613 979552 908125 872699 870607 896305 944285 1010503 1091148 1181276 
1877.953 1274214 1360425 1431992 1484686 1520695 1548925 1582046 1631798 
1881.810 1702778 1790172 1879980 1953363 1989810 1976363 1910463 1801817 
1885.668 1668684 1533796 1420058 1344039 1314492 1328418 1371128 1418462 
1889.525 1444725 1433654 1383493 1308809 1233076 1181475 1170943 1207524 
1893.382 1284948 1387282 1492732 1578521 1627441 1629171 1580716 1484487 
1897.240 1347894 1183369 1008743 848297 725711 659204 654227 701483 778452 
1901.579 857891 917887 946709 947075 932331 920875 928048 963313 1030796 
1905.919 1131608 1265773 1432158 1625579 1832195 2027791 2182747 2266573 
1909.776 2261477 2169593 2014509 1829833 1648993 1494062 1370596 1271821 
1913.634 1185794 1104535 1028438 967098 934091 941529 993998 1085733 1201377 
1917.974 1322037 1432757 1527278 1608584 1684051 1760129 1838817 1916720 
1921.831 1985549 2034982 2054323 2037345 1981688 1891760 1774801 1641211 
1925.688 1502408 1367671 1244274 1136791 1047801 983703 954978 976131 
1929.546 1060091 1207657 1402274 1604859 1767083 1842178 1802749 1653783 
1933.403 1435317 1211378 1045343 983171 1035778 1182206 1377410 1573433 
1937.261 1733283 1837752 1886336 1888698 1853724 1784815 1680957 1542042 
1941.118 1376911 1205065 1052451 940035 877181 856032 861045 876384 895575 
1945.458 921938 965803 1036143 1135429 1256336 1384988 1503970 1599671 
1949.315 1664460 1697755 1703743 1689872 1666788 1646000 1640678 1661034 
1953.172 1709365 1775666 1838251 1869397 1843742 1749184 1593652 1403204 
1957.030 1211777 1050691 937910 875288 852380 855036 873197 902447 942924 
1961.370 995060 1057832 1131110 1220283 1338322 1502474 1723003 1986814 
1965.227 2255116 2457367 2515118 2372803 2024662 1530637 998215 552795 
1969.084 280139 206871 296617 474473 651837 757972 764478 683927 553989 
1973.424 413344 286273 172629 56331 -82760 -254858 -453765 -653375 -818897 
1977.764 -911322 -896244 -756056 -494045 -138577 263793 656085 990477 
1981.621 1238758 1398850 1494361 1562891 1637885 1729923 1821049 1872625 
1985.478 1848833 1734081 1553647 1365045 1245470 1251783 1397021 1640013 
1989.336 1903707 2096306 2144452 2019702 1746190 1388711 1021895 710378 
1993.193 486083 351031 289356 281863 313163 374277 459314 563246 678916 
1997.533 800327 924561 1051455 1179914 1304888 1413044 1484886 1500246 
2001.390 1448049 1331841 1171043 993400 826453 692158 602496 567194 596855 
2005.730 703541 892453 1152239 1444492 1705972 1869397 1886036 1749783 
2009.587 1507894 1251617 1088955 1098588 1311800 1698288 2182014 2661112 
2013.445 3047735 3291085 3383874 3356259 3259269 3146246 3057245 3017071 
2017.302 3034088 3101693 3198949 3294390 3351417 3333320 3212167 2979404 
2021.160 2649377 2254283 1838584 1448149 1115796 866490 715190 668430 720732 
2025.499 850754 1019769 1173236 1257200 1235136 1103505 896172 679713 532259 
2029.839 507644 625789 862407 1165229 1468628 1717980 1880479 1944543 
2033.696 1913558 1800286 1618994 1390972 1148518 934988 792825 753193 818319 
2038.036 963811 1142405 1305785 1419692 1471221 1467065 1421288 1338621 
2041.893 1210149 1016182 742074 395402 12856 -348430 -632796 -801931 -852562 
2046.233 -809537 -710706 -585911 -445325 -278601 -72524 176540 447938 704736 
2050.572 902481 1012330 1031327 985164 916592 872300 889963 987721 1165096 
2054.912 1408789 1698321 2009316 2314405 2583609 2782945 2883131 2869456 
2058.769 2749099 2552911 2329695 2130167 1987913 1911395 1884938 1881510 
2062.627 1875720 1857884 1835190 1826605 1849066 1908599 1995169 2089347 
2066.484 2170259 2222976 2243458 2233467 2194369 2122975 2010981 1849631 
2070.342 1636787 1382130 1105199 830967 585707 388836 255936 199380 228983 
2074.681 351064 563113 848762 1175561 1499349 1776099 1969573 2064011 
2078.539 2065177 1995569 1881111 1742431 1590559 1428236 1258130 1090816 
2082.396 944252 842055 802053 828710 910848 1026545 1151176 1265208 1360358 
2086.736 1436148 1493929 1531302 1538351 1503704 1421986 1299172 1155827 
2090.593 1018773 912674 848164 818153 801356 773506 717546 630733 525492 
2094.933 424057 347947 311041 317938 365224 446611 553260 675564 799829 
2099.272 908092 981278 1004525 973308 896405 795182 694746 612649 556279 
2103.612 521146 497925 481903 478089 499948 562151 668197 804078 938707 
2107.951 1036475 1068162 1026711 928446 808925 705134 640953 619849 625225 
2112.291 630932 614109 566995 498456 429331 380678 367081 390627 443460 
2116.631 512654 587366 662423 737792 816228 899758 987920 1077562 1163069 
2120.970 1236565 1289800 1311701 1291927 1225101 1116626 986193 868681 
2124.828 808327 842022 988983 1238558 1552217 1867268 2117881 2253450 
2128.685 2249520 2114285 1881011 1597543 1308211 1047369 834586 676062 
2132.542 569317 509204 491191 511990 570578 664514 789141 935685 1088955 
2136.882 1227626 1325992 1357068 1297277 1135861 878310 550904 194275 
2140.740 -138875 -397029 -538557 -535447 -379748 -86703 301326 724051 
2144.597 1105099 1368435 1461181 1366773 1119350 798966 519985 390892 479614 
2148.937 793024 1271988 1810701 2285559 2601008 2709521 2623842 2398790 
2152.794 2108958 1813895 1539814 1279465 1001736 678452 301823 -102703 
2156.651 -477166 -744347 -835995 -718976 -412786 11530 449463 805472 1027010 
2160.991 1112308 1108189 1087261 1123270 1259194 1493530 1780391 2051261 
2164.848 2236298 2294586 2229104 2080658 1909931 1766018 1666655 1594084 
2168.706 1505167 1356636 1132937 857427 590584 402300 350467 453709 685255 
2173.045 981843 1267302 1480830 1593087 1614770 1584108 1550887 1553714 
2176.903 1611910 1723635 1872958 2036713 2190539 2311274 2373836 2352115 
2180.760 2223742 1977627 1624282 1199350 762221 377792 105511 -16036 20841 
2185.100 193247 456794 759864 1052551 1299205 1481262 1592156 1635623 
2188.957 1620124 1559799 1472983 1382761 1315456 1293888 1331143 1424546 
2192.815 1553614 1683652 1779426 1817255 1794065 1728758 1655845 1610380 
2196.672 1611411 1654315 1709564 1738805 1707735 1603629 1441633 1258263 
2200.530 1094602 979518 918319 892188 870009 824560 747915 656483 585044 
2204.869 568090 630401 772145 970984 1188917 1387382 1535491 1615668 1624215 
2209.209 1567414 1458654 1314758 1157222 1011002 896703 828843 805605 809190 
2213.548 810219 782734 715422 622471 537866 508607 571407 736265 979751 
2217.888 1250288 1489574 1647264 1702512 1667187 1579718 1484520 1417797 
2221.745 1394263 1407160 1434751 1453169 1448448 1420257 1380435 1347163 
2225.603 1336361 1354774 1397686 1448548 1484886 1481894 1419327 1287573 
2229.460 1091148 850587 596822 370629 209424 138886 167889 286869 469265 
2233.800 678186 876151 1029301 1113238 1117789 1046240 915463 750371 582422 
2238.139 440442 344432 302022 307990 347748 404158 465849 528975 595827 
2242.479 670056 750139 825888 883124 907096 892586 846736 787946 737228 
2246.819 710444 710046 727470 747650 759366 762586 768096 790269 837939 
2251.158 905701 975168 1022626 1031493 1003429 960822 939005 967995 1060622 
2255.498 1202440 1358630 1484985 1548194 1537753 1468495 1370164 1275111 
2259.355 1204500 1161541 1135329 1110514 1078260 1040394 1008810 997451 
2263.213 1015020 1059758 1121244 1185196 1242114 1290631 1337259 1391570 
2267.070 1460616 1544270 1635789 1723369 1795263 1844241 1866536 1863041 
2270.927 1836188 1789141 1725365 1649592 1567647 1485451 1407891 1337624 
2274.785 1274380 1218389 1171541 1139747 1131509 1154598 1210215 1289999 
2278.642 1376579 1447018 1479998 1464140 1400645 1302894 1190645 1084903 
2282.500 1000440 944020 915994 913139 931667 968759 1021795 1087261 1159016 
2286.839 1229985 1292558 1342045 1377975 1403902 1425111 1446553 1471022 
2290.697 1498717 1527578 1555509 1580649 1601767 1617198 1624980 1622519 
2294.554 1607553 1580749 1545800 1508858 1476075 1451041 1432690 1415637 
2298.412 1391803 1355871 1306649 1249823 1195064 1153767 1133668 1136591 
2302.269 1158252 1190645 1225965 1258928 1289335 1320641 1358132 1404900 
2306.126 1461081 1522790 1582711 1632863 1666921 1681623 1678829 1664027 
2309.984 1645368 1631931 1630268 1643306 1669183 1702678 1736909 1765885 
2313.841 1787544 1803081 1815825 1828435 1840514 1847834 1843209 1819951 
2317.699 1774768 1709897 1633661 1556075 1487113 1432757 1394961 1373488 
2321.556 1368867 1384556 1425942 1496988 1596379 1715020 1837752 1947472 
2325.414 2029656 2077661 2093442 2086184 2067174 2047699 2033750 2026726 
2329.271 2024762 2026227 2030721 2039043 2051627 2066575 2078760 2083155 
2333.128 2076895 2062813 2048930 2045934 2062114 2098370 2148082 2198065 
2336.986 2234999 2250952 2247289 2234766 2228471 2240494 2275233 2326597 
2340.843 2380366 2418648 2427511 2400023 2337790 2248821 2144252 2035182 
2344.701 1929466 1832195 1744627 1665225 1590859 1518101 1444060 1367438 
2348.558 1289534 1214169 1148119 1100615 1082179 1103040 1170545 1287042 
2352.416 1447517 1641443 1851428 2057020 2237397 2372637 2449336 2462965 
2356.273 2420614 2337324 2233234 2127071 2030521 1947505 1876519 1814793 
2360.130 1763290 1727328 1714654 1730621 1773171 1831197 1886668 1922178 
2363.988 1924774 1892126 1831097 1754141 1674405 1600370 1535591 1479533 
2367.845 1430031 1385587 1346997 1316653 1297643 1292658 1304190 1333736 
2371.703 1381332 1444093 1515707 1586037 1641809 1671145 1666222 1626909 
2375.560 1560863 1481428 1403902 1338954 1291794 1260157 1237761 1217492 
2379.417 1194832 1170113 1147222 1131608 1127456 1135528 1153036 1174133 
2383.275 1192207 1201942 1200613 1188718 1169581 1149182 1134665 1132771 
2387.132 1149913 1188552 1247264 1319378 1394495 1458854 1499182 1506264 
2390.990 1476341 1412379 1323333 1222376 1123337 1038103 975301 938375 
2394.847 925956 932232 949266 968061 981544 986359 983703 979020 979153 
2399.187 990345 1014555 1049562 1087793 1120945 1141741 1147056 1138286 
2403.044 1119882 1096994 1072679 1046805 1017279 982673 944352 907860 882360 
2407.384 878442 903444 959261 1040760 1136625 1232012 1311202 1361688 
2411.241 1374784 1347961 1283685 1189815 1076665 956572 842188 743567 668164 
2415.581 620015 600007 606544 636706 686018 748878 818253 886245 944783 
2419.920 987987 1013492 1022858 1020633 1013127 1005256 999112 994330 989282 
2424.260 983869 980349 984201 1001736 1037439 1091978 1160544 1234438 
2428.117 1304655 1363416 1406362 1432125 1441533 1434552 1410817 1369732 
2431.975 1311867 1241283 1165628 1093838 1034582 993566 971648 966800 975600 
2436.314 995957 1028305 1074705 1136724 1212740 1297178 1380401 1451274 
2440.172 1500712 1523122 1518301 1489740 1443328 1385587 1322037 1257565 
2444.029 1196127 1140844 1094270 1057765 1031460 1014588 1006485 1006618 
2447.887 1014754 1029866 1049030 1066667 1076499 1072347 1052617 1021065 
2451.744 987356 963114 958265 976297 1012828 1057002 1095532 1118686 1122871 
2456.084 1111510 1091247 1069125 1047868 1025515 998016 962848 921905 883489 
2460.423 858024 855169 878642 924130 980980 1036044 1078725 1103804 1112540 
2464.763 1109849 1101678 1091513 1079688 1065571 1049229 1033386 1023821 
2468.620 1026910 1046838 1083574 1131642 1182239 1226696 1259194 1278767 
2472.478 1289468 1297011 1306782 1319976 1333270 1339286 1329947 1299371 
2476.335 1245603 1173402 1091879 1012828 946510 899526 873263 863602 863801 
2480.675 867984 873595 882094 898563 928612 975135 1035944 1103937 1169282 
2485.014 1222509 1257466 1272719 1271522 1258496 1237827 1212375 1183635 
2488.872 1153335 1125629 1106926 1104236 1123104 1164498 1223606 1291495 
2492.729 1358597 1416833 1462677 1496090 1519232 1533397 1537985 1530836 
2496.587 1510720 1479533 1443561 1411614 1392168 1389709 1402307 1421787 
2500.444 1437444 1440868 1428103 1401642 1368768 1337923 1315390 1303359 
2504.302 1299936 1301398 1303558 1302827 1297377 1285314 1265042 1235269 
2508.159 1196493 1151209 1104800 1063445 1031958 1012264 1002699 999809 
2512.016 1001271 1008710 1027607 1066335 1131177 1222077 1330645 1441068 
2515.874 1535325 1597676 1620856 1607786 1570540 1523488 1480264 1448847 
2519.731 1429765 1418230 1407825 1393465 1373754 1352614 1336129 1332672 
2523.589 1348991 1388911 1452338 1534926 1628240 1721673 1805211 1870163 
2527.446 1912127 1930931 1929533 1912293 1882708 1842910 1793765 1736310 
2531.303 1673307 1610280 1554811 1513779 1491535 1488078 1498950 1518234 
2535.161 1540313 1562625 1585903 1612908 1645734 1684018 1723735 1758865 
2539.018 1782886 1791436 1783485 1761859 1731320 1696924 1664060 1636355 
2542.876 1616499 1606489 1606489 1614072 1624648 1631898 1629636 1614271 
2546.733 1586768 1552616 1519997 1496257 1485418 1486548 1494960 1505067 
2550.591 1513712 1522989 1538484 1567048 1612608 1673507 1741999 1805477 
2554.448 1852560 1875853 1874422 1853358 1821182 1786446 1754274 1725864 
2558.305 1699485 1673108 1645900 1619792 1598507 1586402 1585238 1594118 
2562.163 1608451 1622020 1628605 1624880 1612043 1596745 1589296 1600869 
2566.020 1641177 1713756 1814461 1931197 2047233 2144186 2206791 2227372 
2569.878 2206358 2151811 2075997 1992839 1914823 1850629 1806142 1784084 
2573.735 1784084 1803181 1835523 1872658 1905138 1925373 1929300 1918617 
2577.593 1899547 1880978 1870928 1872991 1885870 1904805 1923875 1939251 
2581.450 1951067 1963282 1981356 2009416 2048431 2095407 2145451 2192504 
2585.307 2232368 2262610 2282428 2291788 2290588 2279430 2259246 2233467 
2589.165 2206657 2183646 2168527 2163299 2166729 2176619 2190539 2207357 
2593.022 2227206 2250353 2275100 2297717 2312740 2314772 2301614 2276199 
2596.880 2246123 2222143 2212452 2221844 2248388 2285092 2321900 2350483 
2600.737 2366240 2369206 2362542 2351415 2340822 2334226 2334459 2343620 
2604.594 2363708 2395459 2437874 2487024 2535347 2574876 2597942 2599875 
2608.452 2580676 2545179 2501487 2458799 2426612 2412218 2419781 2450002 
2612.309 2499321 2559844 2620075 2667513 2691384 2685950 2652645 2600442 
2616.167 2543246 2494456 2464698 2457300 2468630 2490823 2515418 2537480 
2620.024 2557011 2577843 2605742 2644744 2694318 2749799 2802787 2844775 
2623.882 2868455 2870123 2849911 2811324 2760070 2703186 2648077 2601242 
2627.739 2567543 2550145 2549179 2562710 2586742 2617242 2650244 2682949 
2631.596 2714189 2743531 2771341 2798452 2825865 2854647 2885499 2917688 
2635.454 2949446 2976401 2993883 2997987 2987744 2966326 2940705 2920290 
2639.311 2913452 2924727 2953549 2994984 3040861 3083206 3117044 3139705 
2643.169 3151353 3152988 3145178 3127890 3101393 3067555 3030785 2997053 
2647.026 2973232 2963223 2967894 2984275 3007128 3030985 3052773 3071126 
2650.884 3087277 3102394 3116510 3128158 3135733 3138103 3137102 3136568 
2654.741 3141974 3158428 3188701 3232229 3286444 3347143 3409655 3470639 
2658.598 3526821 3575026 3612144 3635198 3643150 3637069 3621699 3603390 
2662.456 3588489 3581373 3582843 3590026 3598880 3605662 3609604 3612678 
2666.313 3618091 3628715 3644386 3661895 3675929 3681777 3677567 3665537 
2670.171 3650935 3640143 3637871 3645455 3660525 3678436 3695044 3707442 
2674.028 3716264 3723683 3732974 3746710 3765225 3786850 3808978 3828231 
2677.885 3842338 3850027 3851698 3849024 3844611 3841168 3841235 3845915 
2681.743 3855008 3866674 3878643 3888271 3894155 3896495 3896161 3894389 
2685.600 3891313 3885663 3875300 3858752 3836154 3810348 3786382 3769704 
2689.458 3763588 3768166 3779664 3792064 3798749 3795775 3782338 3760914 
2693.315 3735246 3709346 3685520 3664368 3645756 3629718 3616654 3607733 
2697.173 3602822 3600283 3596474 3587019 3568511 3540517 3506144 3472041 
2701.030 3445923 3434268 3440980 3465662 3504240 3550171 3596107 3634997 
2704.887 3661026 3670583 3662563 3639073 3604793 3566774 3532767 3508649 
2708.745 3497626 3499063 3509384 3523915 3538713 3552409 3565404 3579235 
2712.602 3594436 3609404 3620697 3624205 3617189 3600383 3577598 3554814 
2716.460 3538112 3531197 3534972 3547799 3567476 3592098 3621465 3656448 
2720.317 3697182 3741997 3787084 3827128 3856913 3873862 3878609 3875166 
2724.175 3869048 3866039 3870519 3884159 3907294 3938556 3976641 4019177 
2728.032 4063624 4106671 4144001 4172068 4187624 4189029 4176952 4153468 
2731.889 4121790 4085197 4047637 4013024 3985536 3969017 3966342 3977979 
2735.747 4000918 4029110 4054995 4070514 4071049 4055363 4026233 3989214 
2739.604 3950392 3914550 3884126 3860256 3842405 3830638 3825256 3826059 
2743.462 3832644 3842338 3851865 3857013 3854941 3845213 3829836 3812554 
2747.319 3797145 3786014 3779096 3774383 3769069 3761382 3751489 3743000 
2751.177 3740393 3749082 3772679 3811184 3860490 3913379 3960791 3993662 
2755.034 4006771 3998644 3973230 3938054 3902279 3874765 3860222 3859587 
2758.891 3870018 3887001 3906124 3925549 3946046 3970455 4001988 4042086 
2762.749 4089946 4142328 4195018 4244000 4286930 4323004 4352422 4375817 
2766.606 4393522 4405572 4412501 4416082 4418024 4421371 4427965 4437773 
2770.464 4449489 4460804 4469876 4476873 4483937 4494114 4510050 4532449 
2774.321 4559235 4586358 4610133 4628251 4642115 4656014 4676008 4707359 
2778.178 4752982 4812479 4882942 4959818 5038517 5115790 5189555 5258536 
2782.036 5322397 5380731 5433537 5481082 5523900 5562695 5597902 5629319 
2785.893 5656643 5679839 5700150 5719924 5742889 5772436 5810548 5856891 
2789.751 5909050 5963264 6016545 6067413 6116942 6167653 6222001 6280961 
2793.608 6343290 6406167 6466666 6523405 6577359 6632465 6693869 6766153 
2797.466 6851778 6950314 7058539 7171034 7282514 7388159 7485031 7572214 
2801.323 7650882 7723663 7793453 7863490 7935834 8011024 8088692 8168027 
2805.180 8248864 8332350 8421595 8520455 8632283 8758135 8895455 9038875 
2809.038 9181834 9318340 9445272 9563807 9678207 9794027 9915776 10046138 
2812.895 10184952 10330596 10481584 10637345 10799173 10968742 11147385 
2816.271 11335116 11529936 11729677 11932167 12137171 12346600 12563941 
2819.646 12793130 13037599 13299287 13578671 13874347 14183679 14503508 
2823.021 14830018 15159519 15489718 15820889 16156025 16501300 16865414 
2826.396 17256276 17679724 18138062 18629324 19149328 19693358 20258970 
2829.771 20846696 21459764 22102702 22779520 23491950 24240412 25024208 
2833.147 25844446 26704816 27612652 28577700 29611612 30725512 31929176 
2836.522 33231392 34640468 36165392 37817888 39612396 41566224 43698936 
2839.897 46029604 48575828 51350780 54362488 57613096 61098888 64812944 
2843.272 68744312 72880456 77206120 81699456 86333336 91070680 95862624 
2846.648 100656064 105389880 110001336 114432064 118623536 122520600 
2849.541 126071144 129221352 131919608 134117168 135770448 136848288 
2852.434 137332864 137224592 136539952 135313216 133590832 131425544 
2855.327 128877088 126005768 122869880 119529352 116039168 112451056 
2858.220 108813752 105167736 101548824 97987752 94509024 91135208 87886256 
2861.595 84778576 81827848 79046344 76443560 74027360 71802784 69772456 
2864.970 67937056 66294292 64839564 63566068 62464976 61524772 60730048 
2868.346 60061596 59492652 58991092 58520936 58043412 57525444 56942356 
2871.721 56281060 55542028 54737608 53887820 53014836 52140876 51284216 
2875.096 50458124 49673312 48937752 48258976 47645480 47105780 46648308 
2878.471 46281252 46010048 45837608 45763236 45782452 45888060 46070868 
2881.847 46322500 46635696 47006412 47433548 47918632 48464604 49073768 
2885.222 49747280 50484324 51281008 52131644 53029660 53967692 54939412 
2888.597 55940784 56969972 58028488 59119664 60247196 61413044 62615672 
2891.972 63848884 65103120 66366324 67627440 68879176 70119472 71351640 
2895.348 72583944 73827528 75092568 76388520 77721760 79095320 80510600 
2898.723 81966928 83463360 84998336 86570304 88176848 89814328 91478536 
2902.098 93165488 94872496 96599992 98353360 100142728 101980056 103878496 
2905.473 105847432 107890656 110005648 112186272 114426248 116722616 
2908.366 119079344 121506176 124017744 126627208 129343656 132168848 
2911.260 135098384 138123056 141231360 144413360 147657840 150953632 
2914.153 154286432 157636576 160980992 164293616 167545280 170707872 
2917.046 173749872 176636256 179329408 181786672 183965392 185828208 
2919.939 187344800 188495792 189272864 189675744 189709024 189380672 
2922.832 188701584 187684640 186347920 184714816 182812192 180670992 
2925.725 178322160 175793472 173110704 170294816 167364032 164335648 
2928.618 161225968 158051584 154829120 151573184 148296016 145007312 
2931.511 141713920 138421808 135137280 131867840 128623280 125414312 
2934.404 122250712 119141112 116091792 113106176 110186928 107335992 
2937.297 104556680 101853776 99233568 96703472 94270848 91941432 89719320 
2940.672 87605352 85597080 83689456 81876216 80151008 78509912 76952800 
2944.048 75483672 74109880 72840168 71683688 70647344 69734376 68944648 
2947.423 68273992 67714480 67254400 66879952 66574372 66319688 66098564 
2950.798 65894828 65693580 65482476 65249456 64982884 64671680 64305096 
2954.173 63874824 63376316 62809752 62179120 61491520 60754744 59974700 
2957.549 59155012 58296548 57397756 56456524 55470568 54438124 53359008 
2960.924 52234400 51068040 49866272 48638716 47397516 46155652 44924272 
2964.299 43711248 42519804 41348856 40194248 39051948 37920236 36800556 
2967.674 35697244 34616464 33564852 32547030 31566362 30624776 29722618 
2971.050 28859300 28033884 27244182 26487328 25760128 25060502 24387096 
2974.425 23740174 23120178 22527554 21960376 21415102 20887338 20372750 
2977.800 19869732 19378868 18903714 18448510 18016818 17610328 17228696 
2981.175 16870202 16533034 16216280 15919041 15640244 15377037 15125210 
2984.551 14879152 14634536 14389782 14147221 13912459 13692903 13495333 
2987.926 13323340 13177099 13052896 12945591 12848483 12755799 12662929 
2991.301 12566840 12466339 12363986 12265850 12180650 12119487 12091992 
2994.676 12103678 12154072 12235755 12337874 12447789 12555858 12657403 
2998.052 12751978 12841931 12928967 13012094 13086769 13146053 13183144 
3001.427 13194245 13179592 13143355 13091857 13031419 12966074 12896608 
3004.802 12820805 12734133 12631375 12507294 12358020 12181808 11979475 
3008.177 11754052 11511733 11260232 11006667 10758244 10518957 10290694 
3011.552 10072418 9861812 9655610 9450182 9242618 9029808 8809866 8582397 
3015.410 8349712 8116879 7890550 7678671 7486514 7316008 7163826 7023550 
3019.267 6887325 6748686 6605719 6460612 6318983 6186878 6068992 5966523 
3023.125 5877882 5799634 5728284 5662115 5600755 5544740 5494403 5449038 
3026.982 5406764 5365165 5322228 5277351 5231002 5184927 5140298 5097786 
3030.840 5056887 5015858 4972386 4924327 4870645 4811642 4749565 4688100 
3034.697 4632370 4586760 4554212 4534625 4524581 4517684 4507204 4487820 
3038.554 4457724 4419463 4378427 4340742 4310087 4286194 4265180 4240855 
3042.412 4207899 4164106 4111855 4056668 4005299 3962798 3931635 3911005 
3046.269 3898368 3890812 3886265 3883892 3882588 3881150 3876068 3863699 
3050.127 3840967 3806437 3761716 3711585 3661995 3619126 3587754 3570683 
3053.984 3568511 3579870 3601519 3629284 3657117 3678970 3689196 3684183 
3057.842 3663532 3630587 3591162 3552075 3519038 3495656 3482262 3477519 
3061.699 3479623 3487239 3499698 3516800 3536976 3557654 3574758 3584514 
3065.556 3584347 3574558 3557387 3535907 3511889 3484132 3449096 3402007 
3069.414 3339263 3260838 3171345 3079969 2996786 2931899 2891570 2877027 
3073.271 2884632 2907214 2936168 2963357 2982506 2990914 2988745 2979070 
3077.129 2966593 2956651 2953282 2958186 2970863 2988845 3008463 3026213 
3080.986 3040027 3048335 3050438 3045199 3031385 3008029 2975133 2934868 
3084.844 2890603 2847276 2808890 2777143 2751067 2727959 2704520 2679448 
3088.701 2654378 2633543 2622109 2624242 2640943 2670280 2708554 2751667 
3092.558 2796584 2842073 2886967 2929130 2964725 2987344 2991181 2972965 
3096.416 2933600 2878762 2817394 2758769 2709888 2674748 2654045 2646577 
3100.273 2650578 2664713 2687316 2715689 2745398 2770540 2785380 2787014 
3104.131 2776076 2758169 2740030 2728660 2727559 2735061 2745731 2752167 
3107.988 2748899 2733561 2708321 2678848 2651644 2631709 2621409 2620142 
3111.845 2624976 2631509 2635576 2633876 2624142 2605908 2580942 2553312 
3115.703 2528482 2512718 2510452 2523649 2550112 2584176 2618942 2647311 
3119.560 2665113 2670680 2665313 2651078 2630343 2604542 2574676 2542280 
3123.418 2509752 2480493 2458466 2446504 2445071 2451935 2463098 2474128 
3127.275 2481059 2482359 2478060 2469496 2458833 2447437 2436441 2426711 
3131.133 2419848 2417349 2420880 2431210 2447303 2466864 2485891 2501087 
3134.990 2509452 2510285 2504387 2494056 2481826 2470096 2460232 2452502 
3138.847 2446637 2441439 2436108 2430110 2423446 2416682 2411185 2408253 
3142.705 2408686 2411984 2416716 2420447 2420814 2416416 2407420 2395958 
3146.562 2385164 2378401 2377634 2382798 2392160 2402389 2410618 2414483 
3150.420 2412984 2407020 2398124 2388395 2380499 2377168 2380300 2391761 
3154.277 2411252 2436941 2465364 2491490 2511185 2522250 2525649 2524616 
3158.135 2524682 2530448 2544579 2565844 2590875 2614142 2630676 2637176 
3161.992 2632543 2618009 2595709 2568777 2540347 2513551 2492490 2480593 
3165.849 2481126 2495356 2521883 2556511 2593275 2625342 2647244 2655912 
3169.707 2650678 2633309 2606508 2573510 2537547 2502021 2470329 2446237 
3173.564 2432976 2432642 2444704 2466231 2491856 2514851 2529715 2532948 
3177.422 2524616 2508252 2489857 2476494 2474028 2486058 2512351 2549312 
3181.279 2590342 2628109 2656078 2669880 2669480 2657978 2640910 2624475 
3185.136 2613609 2610508 2614842 2624609 2637110 2650578 2664046 2677081 
3188.994 2689250 2699352 2705620 2706187 2700619 2689384 2674481 2658445 
3192.851 2642443 2626242 2608409 2586642 2559977 2529515 2498288 2470696 
3196.709 2450736 2440506 2439673 2446071 2456967 2470262 2485825 2504753 
3200.566 2528682 2558744 2594375 2634343 2676515 2718190 2757736 2793283 
3204.424 2823230 2845809 2859350 2862919 2856849 2842740 2823230 2800719 
3208.281 2777376 2753868 2730427 2707621 2687083 2671680 2664379 2666980 
3212.138 2678782 2696551 2715056 2729626 2737762 2740196 2739996 2740963 
3215.996 2745065 2750366 2751800 2742297 2716289 2671480 2610442 2540113 
3219.853 2470029 2409885 2366474 2344386 2344386 2365374 2403555 2454468 
3223.711 2512318 2570443 2622875 2664913 2693851 2710155 2716723 2717690 
3227.568 2716990 2717857 2721357 2727793 2736362 2745998 2755268 2762170 
3231.426 2764471 2759803 2746198 2723758 2694618 2663179 2634276 2612475 
3235.283 2601042 2600808 2611609 2632709 2663446 2702853 2749133 2798352 
3239.140 2844141 2879496 2897774 2895773 2875927 2844908 2812558 2787781 
3242.998 2776909 2781311 2797518 2820229 2844075 2865087 2881964 2894105 
3246.855 2900776 2900009 2889702 2867688 2834770 2794350 2752967 2717690 
3250.713 2694651 2686816 2694185 2713356 2740030 2769873 2799285 2825798 
3254.570 2847943 2864920 2876994 2885333 2892637 2902011 2916487 2937136 
3258.427 2962723 2989246 3011533 3025079 3027214 3018873 3003492 2986143 
3262.285 2971864 2963557 2962423 2967493 2976334 2986009 2993983 2998220 
3266.142 2997286 2990747 2979504 2965592 2951814 2941239 2936202 2936869 
3270.000 2942006 2949446 2956318 2961188 2963791 2965258 2967260 2970963 
3273.857 2976935 2985576 2997286 3013134 3035189 3064452 3100859 3141774 
3277.715 3181425 3213569 3232763 3236635 3226754 3207494 3185197 3165003 
3281.572 3149818 3139004 3130294 3120281 3106799 3089413 3069024 3047801 
3285.429 3027147 3008363 2992448 2980371 2974233 2976434 2989646 3015603 
3289.287 3054208 3103729 3160565 3220412 3278465 3329847 3371051 3398601 
3293.144 3410389 3405848 3385778 3352886 3310783 3263943 3216873 3173448 
3297.002 3137803 3113206 3103061 3110103 3135066 3175851 3227455 3281503 
3300.859 3328545 3360400 3372788 3366477 3346910 3323170 3304573 3298262 
3304.717 3307911 3333120 3370818 3416033 3464059 3510720 3553077 3589191 
3308.574 3617723 3638773 3652439 3659723 3661594 3658487 3650534 3637570 
3312.431 3619260 3596775 3571351 3545828 3522278 3501969 3484867 3469436 
3316.289 3454907 3440413 3427989 3420274 3420241 3429458 3447092 3469503 
3320.146 3492282 3511388 3524950 3534070 3541753 3551641 3565204 3581941 
3324.004 3599047 3613012 3620830 3622334 3618826 3613513 3609203 3607500 
3327.861 3608268 3610172 3611008 3609404 3604660 3597309 3588790 3580872 
3331.719 3576262 3577498 3586819 3605495 3632992 3666974 3702562 3734745 
3335.576 3759109 3774116 3780734 3783407 3787251 3796176 3811819 3832310 
3339.433 3853603 3870954 3880248 3880080 3871321 3857013 3841469 3828933 
3343.291 3822649 3824287 3833446 3847653 3862329 3872258 3871956 3858083 
3347.148 3830270 3791797 3748381 3707074 3673858 3652506 3643684 3645990 
3351.006 3656783 3673891 3695612 3720608 3747345 3773113 3795407 3812320 
3354.863 3823685 3831842 3841101 3855442 3876604 3902981 3929929 3951830 
3358.720 3964169 3966141 3960791 3953469 3949088 3949757 3953602 3955608 
3362.578 3949991 3933106 3905589 3872057 3839898 3816097 3805802 3810549 
3366.435 3828833 3857080 3891548 3928659 3964503 3995635 4018241 4029444 
3370.293 4028073 4015933 3997808 3980085 3969652 3970822 3984232 4006503 
3374.150 4031886 4053122 4064326 4062420 4047570 4022923 3994197 3969151 
3378.008 3955542 3960423 3988579 4041049 4114330 4200638 4290511 4373574 
3381.865 4441656 4491101 4521936 4537773 4543464 4544235 4543632 4543666 
3385.722 4545005 4547281 4549190 4548989 4544435 4533453 4515206 4491101 
3389.580 4465223 4443665 4432082 4434526 4450494 4475266 4501245 4521568 
3393.437 4532047 4534223 4533185 4535563 4546110 4565128 4587362 4604541 
3397.295 4608995 4596102 4566869 4527694 4487519 4454745 4435095 4430074 
3401.152 4438007 4455214 4478547 4506133 4537571 4573198 4612745 4654875 
3405.010 4696808 4734826 4764807 4783533 4788759 4779949 4757940 4725614 
3408.867 4686659 4645598 4607287 4575776 4554179 4543833 4544904 4555987 
3412.724 4575039 4600389 4629724 4661306 4693526 4724777 4753417 4778006 
3416.582 4797068 4809431 4814958 4814757 4811608 4809732 4815126 4832615 
3420.439 4865216 4912398 4968666 5024808 5070531 5097350 5099999 5079046 
3424.297 5039221 4988842 4935990 4888002 4849703 4823904 4811809 4814188 
3428.154 4830672 4859956 4898524 4941486 4982407 5016696 5041668 5058328 
3432.011 5070430 5081963 5095137 5108715 5118304 5118639 5106536 5082867 
3435.869 5052998 5024707 5006171 5001445 5010026 5026651 5045054 5059737 
3439.726 5068151 5071536 5073179 5076431 5083136 5093528 5107072 5124003 
3443.584 5146099 5176577 5218292 5271951 5334941 5400457 5459372 5502960 
3447.441 5524839 5523329 5500443 5461117 5410454 5352955 5292913 5233987 
3451.299 5180199 5136040 5105497 5091785 5097015 5121656 5164540 5223423 
3455.156 5294020 5370432 5444676 5508027 5551486 5569072 5559070 5524940 
3459.013 5474438 5418607 5367949 5330547 5310489 5307336 5317734 5336619 
3462.871 5359328 5382375 5404013 5423874 5442730 5461687 5481954 5503698 
3466.728 5526014 5545847 5558802 5561084 5549673 5526048 5495041 5464841 
3470.586 5444609 5440818 5455145 5483397 5517356 5546485 5562023 5559775 
3474.443 5540075 5507289 5467492 5426727 5388614 5355102 5326958 5304284 
3478.301 5287379 5275741 5268262 5262125 5253840 5239889 5218192 5188582 
3482.158 5152469 5111766 5067715 5020584 4969370 4914609 4858984 4808258 
3486.015 4770368 4753920 4764070 4800787 4857711 4923624 4985424 5030908 
3489.873 5052362 5046730 5015825 4964410 4899295 4827724 4756566 4692554 
3493.730 4641379 4608392 4597643 4610903 4646837 4700961 4765577 4830839 
3497.588 4886461 4924730 4940715 4934381 4910186 4875537 4838914 4807052 
3501.445 4783533 4768324 4757571 4746483 4731911 4713287 4693157 4674870 
3505.302 4661607 4654038 4651224 4650722 4651258 4652765 4657085 4666061 
3509.160 4680597 4698851 4717006 4729935 4734357 4729500 4717542 4701598 
3513.017 4684583 4667200 4647708 4623462 4592754 4556222 4517650 4482999 
3516.875 4457557 4444167 4442024 4447045 4453808 4458126 4457925 4454477 
3520.732 4449958 4447079 4447347 4451029 4458327 4470044 4488021 4514436 
3524.590 4549960 4592084 4634111 4667099 4681401 4669645 4630159 4566903 
3528.447 4488623 4405237 4325448 4254272 4192408 4138247 4089344 4044728 
3532.304 4004396 3970321 3945210 3931768 3931434 3943839 3966643 3995969 
3536.162 4026100 4052152 4070313 4079410 4080682 4076434 4069109 4060313 
3540.019 4049644 4036367 4019144 3998410 3976607 3957381 3945042 3941899 
3543.877 3947015 3955174 3957949 3947450 3917525 3867042 3799618 3722246 
3547.734 3641680 3564001 3492917 3430460 3378565 3339798 3317126 3313086 
3551.592 3328979 3362670 3409154 3461654 3512724 3555850 3586585 3601786 
3555.449 3599882 3581407 3549002 3507714 3463491 3422913 3390186 3366610 
3559.306 3349280 3334121 3316626 3295024 3271220 3249588 3235901 3233397 
3563.164 3243278 3262841 3288347 3315056 3339130 3357194 3365943 3360266 
3567.021 3334422 3284608 3211232 3120715 3022843 2927395 2843074 2774775 
3570.879 2724225 2690350 2670847 2661812 2659845 2661045 2661279 2654911 
3574.736 2637143 2604042 2555478 2495855 2433442 2377501 2334992 2307377 
3578.594 2290222 2274800 2250886 2212652 2159803 2098969 2040075 1994071 
3582.451 1969439 1970804 1999696 2055788 2137060 2239728 2356612 2473728 
3586.308 2569010 2618675 2604275 2524849 2399124 2257180 2125972 2021200 
3590.166 1947239 1899747 1871194 1854623 1846104 1844440 1849432 1860080 
3594.023 1872159 1879613 1876951 1862309 1838584 1812198 1789773 1774968 
3597.881 1766617 1759697 1748419 1728891 1702046 1673041 1649293 1636854 
3601.738 1637652 1649226 1667653 1689639 1714354 1743562 1779326 1821914 
3605.595 1868133 1909698 1935457 1935024 1902409 1839948 1758133 1672076 
3609.453 1596146 1539515 1506763 1497720 1509556 1535824 1567747 1593785 
3613.310 1603030 1590992 1560630 1522790 1491003 1478004 1490305 1526214 
3617.168 1575029 1619892 1642109 1628805 1580084 1508559 1432657 1367405 
3621.025 1320375 1291495 1277471 1274713 1281592 1297676 1322469 1353944 
3624.883 1388545 1421687 1450642 1474712 1495791 1516206 1534461 1542607 
3628.740 1528077 1482126 1410085 1327919 1253545 1198686 1168020 1159681 
3632.597 1166624 1178585 1186193 1184432 1174731 1163501 1157289 1160478 
3636.455 1172339 1188120 1202042 1210049 1212242 1211677 1213106 1219652 
3640.312 1231182 1244606 1255007 1259028 1255738 1247430 1237262 1228822 
3644.170 1224170 1224636 1232245 1250920 1287175 1348825 1440536 1559766 
3648.027 1692367 1815725 1906203 1948071 1939751 1892825 1824842 1750615 
3651.885 1679693 1617032 1564654 1525017 1500712 1493264 1501111 1517835 
3655.742 1530836 1526015 1495126 1439505 1368601 1294220 1225533 1167222 
3659.599 1118985 1077230 1038202 999743 963213 932265 912508 908358 921805 
3663.939 951823 994662 1045609 1099319 1150877 1196061 1231148 1253146 
3667.796 1260423 1253744 1235103 1208188 1175329 1136259 1089287 1033519 
3671.654 971880 911645 863768 841956 863004 941297 1078891 1252947 1417930 
3675.993 1531269 1581015 1584972 1570041 1556208 1551652 1555908 1562891 
3679.851 1565120 1557538 1539581 1513147 1481295 1445323 1404999 1358896 
3683.708 1306649 1249457 1190645 1134299 1084770 1045310 1018441 1006418 
3687.566 1011599 1035346 1075469 1124400 1169481 1195961 1194034 1161109 
3691.423 1103770 1034781 969390 919680 892653 889665 907328 940300 982408 
3695.763 1029135 1077197 1124566 1169083 1208188 1238326 1256236 1258961 
3699.620 1244606 1212973 1165328 1103870 1032623 956538 881796 815664 765341 
3703.960 736431 732581 753923 796974 854804 919813 984500 1044446 1099485 
3708.299 1153036 1210547 1275477 1346798 1415869 1468828 1489308 1468129 
3712.157 1406495 1317251 1218356 1126825 1055341 1009374 989481 991773 
3716.014 1009474 1033719 1055108 1066335 1063678 1048565 1026611 1006485 
3719.872 995924 1000308 1021330 1057367 1104368 1158219 1215897 1276042 
3723.729 1337525 1398318 1453402 1495625 1516339 1509323 1473947 1416800 
3727.586 1349822 1285679 1235900 1208055 1205796 1228856 1273217 1331210 
3731.444 1391869 1444791 1483489 1509323 1530570 1558968 1603562 1665358 
3735.301 1733283 1788276 1814128 1804013 1763589 1704807 1640645 1580217 
3739.159 1529074 1489008 1459220 1437444 1421587 1410451 1405332 1409487 
3743.016 1427504 1462777 1513247 1568644 1614670 1642042 1651122 1647131 
3746.874 1637785 1630235 1632497 1651222 1691069 1750781 1820849 1882908 
3750.731 1916720 1908866 1858349 1775999 1679261 1584208 1500213 1431228 
3754.588 1376280 1332872 1298507 1271589 1251684 1238126 1229520 1223772 
3758.446 1218655 1213172 1208421 1207291 1213372 1228723 1253511 1285912 
3762.303 1323632 1364580 1407160 1449811 1489308 1521327 1539482 1539349 
3766.161 1519132 1481661 1432325 1378872 1328518 1286410 1254675 1231481 
3770.018 1212441 1193469 1173435 1154332 1139880 1132638 1132705 1137289 
3773.875 1142305 1144199 1142305 1139814 1143734 1161375 1197855 1253246 
3777.733 1321139 1389243 1441899 1466999 1460549 1429100 1385221 1342477 
3781.590 1310571 1293256 1289933 1296812 1307812 1316453 1317517 1308278 
3785.448 1289933 1266438 1243742 1227526 1221579 1226696 1240452 1257433 
3789.305 1270957 1274679 1264511 1239489 1202008 1157023 1110879 1069623 
3793.163 1039033 1023755 1027309 1051920 1097193 1158584 1226131 1288105 
3797.020 1334301 1360192 1368169 1364613 1358431 1355738 1360691 1371527 
3800.877 1381598 1380767 1362419 1328119 1285779 1244805 1212209 1193104 
3804.735 1189549 1202573 1229653 1265109 1298241 1317317 1315855 1294054 
3808.592 1258330 1217425 1180113 1152505 1137754 1136724 1147123 1165960 
3812.450 1190712 1220848 1258363 1305852 1364413 1429532 1490604 1532865 
3816.307 1545899 1530836 1499349 1467930 1450775 1458954 1498285 1567281 
3820.165 1653384 1732085 1776598 1770177 1717049 1635091 1544469 1459984 
3824.022 1391537 1345701 1325626 1331210 1357666 1395260 1431460 1455662 
3827.879 1462544 1452504 1430097 1401509 1372756 1347994 1329781 1319577 
3831.737 1317949 1326524 1347030 1380634 1427105 1484121 1547662 1612475 
3835.594 1674538 1731386 1783052 1830099 1871793 1903508 1918384 1909132 
3839.452 1873191 1813828 1739404 1659770 1584374 1520096 1469991 1433920 
3843.309 1409188 1391836 1377210 1361754 1342776 1318680 1289102 1254675 
3847.167 1217193 1179382 1145030 1118320 1103106 1103770 1124964 1172106 
3851.024 1251850 1369798 1526214 1704874 1868699 1973467 1996601 1951766 
3854.881 1872492 1788076 1713423 1651987 1599937 1551286 1502042 1451739 
3858.739 1404401 1367538 1349058 1353811 1382529 1429765 1486748 1543040 
3862.596 1592289 1631931 1662730 1685814 1700184 1703144 1692832 1670979 
3866.454 1643572 1619459 1607819 1615435 1643805 1686612 1729889 1757002 
3870.311 1759265 1741034 1715352 1694928 1686080 1688275 1694861 1696292 
3874.168 1684250 1656710 1618129 1577191 1541643 1517636 1508525 1516073 
3878.026 1541610 1585338 1644137 1709065 1765719 1797625 1793366 1752777 
3881.883 1686812 1612043 1543306 1492865 1466733 1464339 1477405 1493730 
3885.741 1501078 1493963 1475444 1453435 1436148 1428934 1435051 1455430 
3889.598 1489707 1535591 1588198 1640146 1682055 1707502 1713988 1704508 
3893.456 1686146 1666056 1650590 1641976 1639614 1638916 1635058 1623550 
3897.313 1603296 1577257 1553348 1540313 1545567 1572568 1619559 1681090 
3901.170 1750748 1822845 1891361 1948970 1986981 1996700 1973966 1922211 
3905.028 1853125 1780989 1718413 1671810 1640645 1619027 1599073 1574431 
3908.885 1542375 1505167 1468695 1440503 1426341 1428269 1443195 1465702 
3912.743 1488443 1505201 1512449 1508725 1494827 1472884 1447318 1423848 
3916.600 1408955 1408656 1425377 1457856 1499714 1542341 1576625 1596213 
3920.458 1598574 1586070 1563956 1537553 1511850 1489274 1470955 1457325 
3924.315 1449013 1447883 1455297 1471687 1495691 1524186 1553082 1579219 
3928.172 1600736 1618096 1633428 1650124 1670646 1695593 1722770 1747621 
3932.030 1764588 1769212 1759497 1736343 1703044 1663628 1622419 1582478 
3935.887 1545866 1513446 1485119 1460051 1437876 1418496 1403071 1393265 
3939.745 1390772 1396490 1409952 1428269 1447185 1462045 1469625 1468961 
3943.602 1462411 1453867 1446886 1444060 1446254 1452338 1460782 1469559 
3947.459 1477472 1483755 1488975 1493929 1500213 1508858 1520362 1533862 
3951.317 1547263 1557072 1559134 1550588 1529972 1499515 1463974 1430762 
3955.174 1407326 1398850 1407127 1430064 1462710 1498750 1532399 1559865 
3959.032 1578687 1587600 1585438 1571371 1545201 1508492 1465004 1420357 
3962.889 1381432 1354043 1341446 1344471 1361389 1389044 1423715 1462278 
3966.747 1501144 1537121 1567148 1588364 1599405 1601002 1595614 1587001 
3970.604 1578787 1572269 1566782 1559333 1546864 1528475 1506697 1487080 
3974.461 1476341 1480464 1501377 1536157 1577490 1616566 1645701 1660036 
3978.319 1658872 1645102 1624082 1600869 1580084 1564488 1554944 1551386 
3982.176 1552583 1557072 1563357 1570473 1578222 1586535 1596013 1606389 
3986.034 1616732 1625479 1630435 1630401 1625113 1616632 1608019 1602565 
3989.891 1602299 1607088 1614537 1621056 1624548 1624382 1622952 1623982 
3993.749 1631100 1645900 1667187 1690637 1711360 1725332 1730854 1729424 
3997.606 1724866 1721706 1723902 1733582 1750448 1772206 1794431 
##END=
