##TITLE=cetvrtomas_3 Sep 25 13:33:56 2026 (GMT+02:00)
##JCAMP-DX=5.01  $$ Nicolet v. 1
##DATATYPE=INFRARED SPECTRUM
##ORIGIN=Vojna akademija
##OWNER=Nicolet
##LONGDATE=2026/09/25
##TIME=13:34:27
##SPECTROMETER/DATA SYSTEM=Nicolet iS20
##DATA PROCESSING=
Ratio against background
%Transmittance->Absorbance
Truncated
ElementMultiply or ElementDivide
##COMMENTS=
Number of sample scans: 8
Collection length: 11,90 sec
Sample gain: 8,0
Background collected on: Fri Sep 25 13:32:51 2026 (GMT+02:00);
Number of background scans: 8
Background gain: 8,0
Sample spacing:  1,000
Number of scan points: 12415
Resolution points: 8286
Number of FFT points: 65536
Apodization: N-B strong;
Phase correction: Mertz;
Laser frequency: 15798,00 cm-1
Number of rejected sample scans: 0
Number of rejected background scans: 0
Bench serial number: BER2010005;
##RESOLUTION= 4,000
##XUNITS=1/CM
##YUNITS=ABSORBANCE
##FIRSTX=400.156891
##LASTX=4000.123047
##FIRSTY=0.028132
##MAXX=4000.123047
##MINX=400.156891
##MAXY=0.245456
##MINY=-0.000107
##XFACTOR=1.000000
##YFACTOR=1.000000E-009
##NPOINTS=7468
##DELTAX=0.482117
##ZPD=6100
##XYDATA=(X++(Y..Y))
400.157 28131548 27310230 24624926 20684626 16426174 12830430 10581932 
403.532 9999515 10932655 12884184 15131214 17005046 18099612 18376986 
406.907 18121514 17763456 17686834 18077434 18927906 20076816 21323738 
410.281 22504346 23554142 24481490 25319388 26072836 26703548 27149786 
413.656 27380558 27420402 27353244 27280626 27283662 27386416 27541970 
417.031 27617102 27417650 26756546 25585386 24124632 22807840 22034026 
420.406 21959608 22554880 23700562 25264320 27096248 29012478 30797000 
423.781 32200542 33030740 33220268 32846336 32084476 31139986 30185254 
427.155 29314636 28556822 27879144 27217758 26493632 25639338 24618122 
430.530 23436064 22151306 20868078 19718322 18812600 18206954 17881556 
433.905 17744024 17644766 17414522 16921152 16100317 14996710 13737428 
437.280 12496075 11425728 10634866 10194348 10144725 10514137 11319811 
440.655 12556847 14170396 16036296 17968780 19724252 21075464 21876808 
444.030 22093044 21797994 21130772 20248138 19280310 18334610 17494544 
447.404 16820224 16359249 16136320 16151417 16385226 16804552 17371722 
450.779 18045554 18784576 19537400 20234356 20796084 21140580 21208700 
454.154 20987686 20521886 19914338 19306844 18878002 18784402 19114840 
457.529 19837268 20806860 21832556 22786226 23650454 24489624 25374570 
460.904 26312506 27204672 27853352 28024306 27520930 26293286 24459792 
464.278 22287522 20090802 18178414 16790156 16036779 15890514 16186152 
467.653 16692322 17160338 17416866 17397552 17133658 16722554 16287966 
471.028 15945988 15767595 15773263 15928974 16172601 16435085 16663434 
474.403 16824768 16888908 16818192 16567247 16090347 15372266 14450683 
477.778 13429131 12446733 11650913 11148440 10975368 11099183 11432123 
481.152 11866238 12294140 12645225 12893911 13052554 13152338 13224132 
484.527 13287672 13346950 13401417 13454900 13516969 13603901 13731443 
487.902 13905548 14119769 14352657 14568263 14718915 14758094 14643377 
491.277 14353170 13899253 13334786 12750613 12248161 11914526 11787687 
494.652 11847578 12021985 12217863 12352464 12379225 12308047 12199358 
498.027 12137443 12191793 12399135 12748326 13192879 13658230 14067230 
501.401 14360739 14505872 14505324 14388412 14205315 14007991 13847357 
504.776 13761607 13765027 13839558 13930934 13961762 13848246 13538846 
508.151 13037565 12405716 11738222 11134128 10671981 10388080 10284316 
511.526 10338434 10522488 10811436 11187061 11626476 12086133 12499280 
514.901 12781630 12846743 12646351 12187908 11547731 10839156 10184511 
518.276 9674786 9351991 9218452 9256665 9447981 9774710 10214700 10726555 
522.132 11239115 11665991 11920486 11946675 11746085 11387869 10994025 
525.507 10693409 10588282 10707197 11006089 11394978 11786495 12124666 
528.882 12391703 12595082 12745188 12838313 12856231 12775283 12586555 
532.257 12307229 11982779 11667557 11404264 11207154 11053840 10896639 
535.632 10684817 10391643 10029353 9650019 9323994 9123189 9096052 9253991 
539.489 9574917 10015960 10528768 11070121 11611605 12136455 12637276 
542.863 13111253 13555186 13961249 14314712 14588377 14747057 14757066 
546.238 14594613 14262493 13793278 13247429 12693089 12192475 11785338 
549.613 11476520 11238538 11021382 10775872 10468007 10094733 9684001 
552.988 9290108 8975108 8793738 8781836 8945512 9263739 9693725 10185868 
556.845 10689028 11161086 11577744 11933734 12243526 12532974 12831488 
560.220 13156675 13506339 13856114 14167418 14399749 14526839 14548013 
563.594 14488263 14389748 14291426 14219523 14174709 14136062 14072467 
566.969 13963884 13815203 13664795 13571253 13597577 13783941 14128668 
570.344 14585498 15078656 15533088 15891716 16138934 16302379 16440075 
573.719 16614238 16872062 17225662 17650770 18094776 18497016 18814746 
577.094 19032648 19165326 19242972 19299810 19360990 19441130 19551404 
580.469 19702304 19906464 20172638 20496078 20848436 21175926 21412942 
583.843 21492000 21372672 21057344 20598628 20083134 19609048 19264412 
587.218 19098290 19119828 19297352 19572962 19871744 20120682 20263380 
590.593 20266572 20130954 19891792 19617228 19385900 19265450 19291118 
593.968 19452114 19694364 19934354 20090698 20098472 19934668 19621802 
597.343 19219906 18801562 18430808 18148564 17962184 17851794 17779782 
600.717 17711130 17623234 17513864 17398828 17305548 17259966 17275654 
604.092 17347168 17448150 17539322 17577516 17533182 17397966 17187950 
607.467 16934174 16671387 16421391 16184123 15940661 15665043 15344530 
610.842 14991394 14645468 14361561 14190628 14153998 14235889 14385740 
614.217 14542737 14651978 14689644 14667846 14628675 14622198 14683201 
617.592 14818979 15007823 15208141 15372643 15467056 15470043 15376385 
620.966 15193284 14938167 14639402 14334746 14071235 13892445 13827380 
624.341 13878692 14019934 14202165 14369267 14483364 14535131 14546677 
627.716 14555380 14597697 14687965 14813939 14941802 15034748 15070218 
631.091 15049258 14994207 14935526 14896742 14880900 14870477 14837184 
634.466 14758781 14631039 14474046 14326082 14234656 14239963 14366424 
637.840 14620245 14987724 15439279 15928768 16403669 16804758 17080790 
641.215 17202084 17170370 17023308 16823944 16649319 16562806 16596921 
644.590 16747693 16980170 17242246 17484782 17681036 17824660 17926582 
647.965 18001242 18054294 18076848 18048388 17945298 17753168 17476228 
651.340 17142036 16796012 16498821 16312664 16283011 16431162 16742459 
654.715 17169714 17637002 18064898 18391368 18586578 18663254 18668166 
658.089 18662632 18693624 18780250 18908800 19046462 19161552 19243698 
661.464 19308818 19392516 19527974 19726678 19972376 20230400 20465616 
664.839 20663290 20838528 21038528 21334736 21800468 22475420 23307738 
668.214 24141482 24806436 25250132 25542968 25793916 26073294 26402496 
671.589 26763240 27122416 27447402 27729578 27989178 28265056 28591748 
674.963 28979678 29407448 29835676 30228094 30572726 30888956 31216598 
678.338 31590130 32015666 32463614 32878072 33205748 33419080 33532958 
681.713 33597536 33682496 33845660 34121304 34515572 35012760 35586964 
685.088 36211704 36862664 37512288 38128336 38679948 39146212 39532620 
688.463 39875276 40235284 40669636 41210428 41847000 42530984 43192404 
691.838 43769404 44232580 44589908 44876836 45131008 45377208 45617396 
695.212 45838420 46028352 46192020 46352580 46542480 46784680 47079228 
698.587 47401656 47717216 47995560 48231316 48447008 48684788 48986376 
701.962 49379152 49867608 50438064 51068864 51742420 52450444 53188424 
705.337 53945932 54701376 55421548 56075692 56650068 57158376 57638144 
708.712 58138104 58702012 59351544 60085872 60889136 61745448 62648200 
712.086 63601776 64614080 65683708 66791840 67906208 68991992 70031400 
715.461 71034784 72040568 73098320 74254528 75535248 76937808 78432424 
718.836 79970088 81490952 82920488 84177144 85174480 85828040 86083120 
722.211 85928144 85406864 84602328 83618432 82546352 81436112 80294776 
725.586 79093176 77790280 76353360 74775808 73077464 71296808 69475568 
728.961 67654232 65868220 64145864 62513492 60991272 59588000 58298100 
732.335 57097832 55951828 54819212 53669672 52491160 51293388 50101404 
735.710 48945060 47846008 46807340 45810324 44819044 43794140 42702552 
739.085 41533372 40303740 39059708 37863512 36779496 35856956 35111144 
742.460 34520344 34031352 33580996 33109546 32583244 32000686 31389236 
745.835 30789708 30237044 29749158 29320024 28926938 28541110 28144098 
749.209 27731168 27312842 26903942 26516594 26152324 25803656 25460326 
752.584 25117724 24783108 24473252 24205796 23990990 23822668 23679496 
755.959 23530636 23348226 23119584 22851772 22569294 22303636 22085584 
759.334 21933332 21850326 21826912 21846946 21891512 21942984 21986480 
762.709 22006766 21988712 21919426 21789702 21597886 21349700 21057100 
766.083 20732132 20385078 20023692 19654252 19285784 18933512 18615352 
769.458 18351374 18155716 18031772 17970196 17952892 17957764 17965982 
772.833 17967086 17957660 17938114 17908280 17862152 17790310 17684314 
776.208 17542082 17371998 17191534 17021828 16877504 16760606 16656481 
779.583 16538953 16378619 16152931 15856352 15503006 15124558 14759705 
782.958 14448662 14221270 14090675 14053130 14089545 14169883 14256432 
786.332 14313822 14311390 14230034 14066580 13834324 13560382 13276022 
789.707 13013426 12794290 12627282 12507703 12422490 12357679 12303616 
793.082 12259714 12231870 12229008 12255761 12309411 12378680 12447415 
796.457 12496450 12510465 12478888 12397704 12270962 12110083 11935947 
799.832 11775431 11659796 11618514 11670382 11817240 12040447 12307195 
803.206 12574992 12810227 12996048 13136012 13248625 13357610 13479644 
806.581 13615662 13751962 13867232 13945167 13981882 13989444 13988896 
809.956 14001558 14036121 14084549 14125074 14133974 14097794 14023664 
813.331 13939488 13887416 13908627 14026231 14238182 14514917 14810991 
816.706 15073099 15259239 15347654 15339793 15257523 15136806 15019587 
820.081 14941048 14928702 14995818 15138728 15338695 15565197 15783640 
823.455 15959909 16071675 16111115 16087905 16024744 15951764 15898798 
826.830 15886595 15925538 16014809 16145950 16304890 16475935 16644672 
830.205 16796768 16921220 17010974 17064214 17086062 17088544 17089990 
833.580 17109190 17165578 17273826 17442184 17672408 17958558 18286122 
836.955 18630638 18961272 19241136 19433784 19513488 19469786 19314638 
840.329 19081152 18820350 18588480 18432088 18384176 18454352 18632126 
843.704 18890354 19194900 19510264 19805674 20061376 20268204 20429564 
847.079 20557042 20668468 20781488 20905276 21038180 21165942 21265450 
850.454 21312950 21295272 21215518 21096682 20972872 20881984 20851218 
853.829 20889424 20984902 21111988 21240640 21343540 21404936 21421960 
857.204 21399820 21347892 21276270 21192660 21103430 21014220 20930416 
860.578 20855876 20793062 20743220 20706764 20686920 20689560 20722784 
863.953 20793062 20900584 21035050 21175786 21297080 21373090 21388264 
867.328 21342914 21254384 21151818 21068334 21034148 21065450 21163542 
870.703 21312426 21482950 21636542 21733860 21745180 21655454 21472852 
874.078 21227176 20967898 20749650 20616624 20592722 20672984 20826848 
877.452 21008900 21178084 21305084 21381720 21418094 21432750 21442498 
880.827 21455586 21470764 21483298 21491304 21499626 21517800 21554430 
884.202 21609344 21670152 21713656 21714700 21657716 21544888 21397350 
887.577 21248190 21133660 21077100 21083432 21136894 21209326 21268058 
890.952 21287720 21258560 21187408 21095570 21009872 20958962 20962058 
894.327 21025662 21140826 21286258 21431948 21545934 21603632 21592036 
897.701 21514004 21385306 21231662 21080718 20953364 20863176 20814056 
901.076 20802794 20821494 20861506 20913136 20966090 21011298 21038250 
904.451 21039956 21015020 20970160 20920714 20887510 20892586 20950304 
907.826 21063326 21216770 21382278 21521422 21595066 21576818 21457884 
911.201 21252018 20990294 20715764 20467978 20272230 20133696 20037986 
914.575 19959750 19874656 19772138 19659554 19560520 19502502 19507180 
917.950 19579202 19705356 19858320 20008008 20131440 20215922 20259004 
921.325 20262408 20226408 20147268 20021506 19852460 19654598 19455926 
924.700 19290148 19183022 19144514 19163282 19211974 19257588 19278474 
928.075 19270508 19250174 19243178 19273554 19350908 19467430 19600380 
931.450 19724112 19822354 19892140 19945560 20002978 20086082 20209640 
934.824 20381638 20603422 20872770 21184590 21528872 21889770 22242494 
938.199 22558370 22811648 22986706 23085444 23126434 23140098 23155440 
941.574 23192628 23257886 23345778 23445610 23549526 23656612 23771986 
944.949 23900974 24044184 24194656 24340416 24470974 24583830 24686754 
948.324 24797420 24936224 25116914 25343344 25607844 25894912 26185476 
951.698 26463274 26716092 26935352 27116242 27257024 27362842 27446768 
955.073 27531696 27646480 27816400 28055832 28360720 28709114 29064446 
958.448 29388692 29653792 29845436 29965768 30027402 30045050 30029034 
961.823 29984902 29914152 29819316 29706404 29585542 29467974 29365436 
965.198 29287058 29240556 29234070 29275078 29368202 29510566 29688098 
968.573 29872374 30025092 30109534 30098242 29985116 29787944 29544860 
971.947 29300210 29093286 28949748 28874596 28856574 28873642 28903600 
975.322 28928074 28936750 28926302 28898324 28856114 28803072 28742496 
978.697 28677540 28612168 28551654 28502400 28471550 28466066 28490442 
982.072 28545390 28626324 28724336 28826652 28920990 28999514 29060302 
985.447 29108308 29152280 29201216 29258312 29321476 29383446 29437302 
988.821 29480846 29519572 29565076 29631548 29727798 29852462 29992146 
992.196 30125906 30229548 30284328 30282692 30230508 30145084 30050198 
995.571 29972512 29934456 29949792 30021722 30140326 30286246 30433318 
998.946 30558114 30645220 30692974 30713528 30729318 30762962 30828126 
1002.321 30925034 31040824 31156966 31256832 31334818 31396896 31457060 
1005.695 31528630 31617106 31717826 31820674 31915806 32002792 32092006 
1009.070 32201934 32349228 32541924 32773364 33027164 33283622 33528376 
1012.445 33757444 33976492 34193032 34409288 34617896 34804964 34957488 
1015.820 35070804 35152708 35220080 35291196 35375120 35470028 35565028 
1019.195 35650588 35727928 35812656 35928788 36098704 36328480 36603364 
1022.570 36888416 37145104 37346476 37487688 37587792 37679712 37795080 
1025.945 37948008 38131808 38323616 38497980 38638008 38743668 38827936 
1029.320 38907764 38992028 39073664 39131128 39138524 39074788 38935016 
1032.695 38733704 38501380 38276568 38092668 37972740 37921900 37927688 
1036.070 37961532 37989012 37975888 37896376 37740644 37517564 37251448 
1039.446 36973048 36713144 36491884 36314972 36177024 36066512 35973424 
1042.821 35892440 35825036 35775492 35749080 35749620 35782108 35855048 
1046.196 35980224 36171908 36438768 36777472 37167988 37577280 37970352 
1049.571 38319740 38619360 38885656 39151616 39448864 39796940 40193488 
1052.947 40617680 41039668 41436912 41803328 42149532 42495100 42853964 
1056.322 43227032 43599796 43948608 44253528 44509100 44725744 44925592 
1059.697 45131048 45356164 45602084 45860516 46117216 46358920 46575420 
1063.072 46756080 46890492 46968496 46986660 46955724 46905960 46884072 
1066.448 46937412 47102640 47388608 47775468 48220316 48678116 49115468 
1069.823 49522624 49910496 50300952 50711644 51147504 51602988 52071276 
1073.198 52556340 53079308 53671924 54364100 55171064 56083496 57072892 
1076.573 58102988 59149048 60205900 61287452 62412752 63590424 64807332 
1079.949 66029624 67211968 68319280 69337056 70276264 71162440 72024096 
1083.324 72880728 73741528 74609896 75492856 76403496 77356392 78357736 
1086.699 79397384 80447032 81473480 82453768 83388960 84304296 85238256 
1090.074 86218512 87243888 88277888 89260040 90133688 90863336 91449616 
1093.450 91920312 92311704 92645048 92918696 93112112 93203392 93184872 
1096.825 93068144 92874704 92620896 92303056 91899792 91384504 90747272 
1100.200 90009424 89223416 88449680 87735296 87095496 86510208 85941840 
1103.575 85361168 84767624 84195640 83699904 83327584 83101160 83007448 
1106.951 83006760 83053904 83124224 83223504 83385712 83653536 84060880 
1110.326 84618104 85310640 86106872 86972624 87881880 88815152 89757120 
1113.701 90689664 91587840 92427576 93190824 93870392 94469024 94988104 
1117.076 95418064 95734272 95900512 95883696 95668808 95264096 94695640 
1120.452 93992816 93175752 92249168 91211072 90068368 88849824 87612040 
1123.827 86426640 85356368 84443288 83695608 83096944 82623376 82263912 
1127.202 82032920 81969328 82119176 82523872 83203880 84156632 85365768 
1130.577 86814976 88497608 90418408 92584400 94991736 97614808 100409488 
1133.953 103319600 106291504 109291376 112301736 115315560 118323080 
1136.846 121299344 124206072 127002936 129655240 132144984 134465616 
1139.739 136609888 138561056 140292224 141778304 143016512 144039296 
1142.632 144911728 145705024 146475376 147237904 147968080 148620048 
1145.525 149162384 149601888 149992608 150410704 150928528 151580464 
1148.418 152351136 153185360 154018320 154808336 155550208 156272272 
1151.311 157012704 157796320 158618656 159449616 160250224 160994640 
1154.204 161678144 162314224 162917376 163490464 164018720 164480784 
1157.097 164861456 165165424 165412960 165627792 165814480 165949008 
1159.990 165981104 165860448 165556528 165079360 164472800 163798112 
1162.883 163101744 162395856 161656864 160842256 159915040 158861488 
1165.776 157696176 156451232 155158448 153834464 152482400 151100096 
1168.669 149692368 148277040 146876816 145504192 144147664 142769584 
1171.562 141317504 139744304 138032352 136201168 134302400 132395256 
1174.455 130530896 128735792 127012256 125350144 123739568 122179192 
1177.349 120673712 119224208 117821688 116443784 115065616 113670368 
1180.242 112261448 110860320 109498448 108199456 106964560 105771848 
1183.135 104585640 103373240 102119576 100834448 99546896 98293736 97102976 
1186.510 95989200 94952032 93984008 93075080 92216680 91399272 90605776 
1189.885 89811432 88988368 88113488 87181752 86210112 85233536 84288200 
1193.260 83400120 82571592 81783448 81003272 80204056 79376744 78533016 
1196.636 77698656 76899480 76149624 75445080 74768520 74098720 73423672 
1200.011 72745312 72078544 71442168 70852392 70315616 69829352 69386576 
1203.386 68980840 68609520 68272056 67966808 67687728 67423800 67164360 
1206.761 66902368 66640308 66388748 66162960 65976008 65832092 65724956 
1210.137 65640232 65559960 65466644 65349004 65200940 65023408 64823560 
1213.512 64616732 64426600 64281812 64212352 64238740 64364696 64572400 
1216.887 64827448 65087268 65314308 65490260 65618964 65723836 65834016 
1220.262 65975668 66160648 66386668 66641428 66912420 67192208 67480376 
1223.638 67779464 68090976 68410112 68728552 69036264 69328000 69605808 
1227.013 69877568 70152648 70436984 70730824 71029904 71328832 71624256 
1230.388 71914640 72198568 72469800 72716248 72921376 73070992 73160072 
1233.763 73196856 73200704 73194232 73196032 73212464 73238432 73260664 
1237.139 73267024 73249016 73203720 73128744 73016536 72852392 72619696 
1240.514 72304576 71906816 71440680 70932600 70407560 69880560 69349456 
1243.889 68798464 68207808 67565920 66877440 66163844 65453544 64768940 
1247.264 64119676 63498252 62886528 62264160 61620148 60956312 60287168 
1250.640 59631520 59008592 58432152 57909100 57442116 57031480 56676040 
1254.015 56372084 56113168 55888700 55685928 55493232 55303100 55112640 
1257.390 54921740 54729456 54531356 54319304 54085028 53825820 53547388 
1260.765 53264456 52993348 52744520 52517448 52301184 52079568 51840036 
1264.141 51581832 51316848 51064316 50841512 50656380 50502640 50363492 
1267.516 50216252 50042952 49834976 49595008 49333824 49067684 48813384 
1270.891 48585020 48393852 48246904 48144756 48081500 48044784 48017988 
1274.266 47984684 47934244 47864988 47783828 47701724 47626808 47557708 
1277.641 47482632 47381180 47233208 47027348 46764752 46457588 46122264 
1281.017 45771556 45407440 45021804 44601512 44136988 43627380 43083976 
1284.392 42524624 41970996 41441832 40950344 40506980 40121052 39800608 
1287.767 39552544 39378264 39269404 39207132 39167388 39124240 39058404 
1291.142 38962816 38841376 38706608 38572388 38450772 38347212 38263108 
1294.518 38196532 38145664 38109020 38085180 38071072 38061816 38051432 
1297.893 38035088 38009992 37975816 37932640 37878660 37809212 37717732 
1301.268 37599640 37456840 37299140 37142904 37004476 36894548 36812028 
1304.643 36744984 36673920 36580872 36456820 36305824 36142884 35988720 
1308.019 35862568 35774772 35725912 35708392 35711344 35724044 35738976 
1311.394 35752068 35761352 35766424 35767504 35765564 35762252 35758620 
1314.769 35753112 35741708 35717284 35672816 35604444 35513968 35408912 
1318.144 35299176 35191832 35087036 34976628 34847576 34689312 34498424 
1321.520 34280548 34047120 33810736 33579240 33352238 33123780 32886110 
1324.895 32635536 32374930 32112732 31858500 31618674 31393118 31177044 
1328.270 30964066 30752650 30548338 30362566 30208874 30098242 30035284 
1331.645 30018242 30042314 30103532 30200990 30336484 30510374 30718080 
1335.021 30948016 31184270 31411212 31621848 31821244 32027900 32265812 
1338.396 32553282 32893118 33267162 33641392 33979284 34258676 34475108 
1341.771 34640576 34773912 34893820 35015056 35147464 35297844 35470784 
1345.146 35667856 35886896 36120452 36357048 36583072 36788908 36970524 
1348.522 37131356 37278236 37415484 37540608 37642928 37707580 37723624 
1351.897 37690444 37619732 37531900 37449800 37390568 37360308 37356732 
1355.272 37373704 37408916 37466124 37552856 37674368 37826312 37993316 
1358.647 38151164 38274504 38347280 38367660 38348768 38312140 38279900 
1362.023 38265640 38268392 38279752 38291768 38305012 38329152 38375916 
1365.398 38452180 38556816 38680384 38807828 38923820 39020048 39095236 
1368.773 39154696 39204700 39249420 39289752 39329072 39379096 39463308 
1372.148 39618964 39892528 40322172 40924420 41674384 42509096 43343660 
1375.524 44100272 44724092 45174208 45417264 45418368 45143620 44578528 
1378.899 43739684 42680360 41473072 40194720 38907112 37648096 36442228 
1382.274 35303592 34241284 33258614 32347978 31488940 30650944 29802246 
1385.649 28920742 28008472 27095330 26232884 25469390 24826820 24293108 
1389.025 23836704 23425746 23039986 22675616 22340504 22047480 21805520 
1392.400 21617596 21479294 21382834 21318970 21281838 21270008 21284344 
1395.775 21326940 21399438 21503978 21642602 21816634 22021860 22245738 
1399.150 22465754 22656312 22798482 22884254 22915584 22898644 22838258 
1402.526 22734618 22584894 22385926 22140462 21861754 21574138 21304632 
1405.901 21075152 20895646 20765602 20680490 20639002 20648626 20728032 
1409.276 20900550 21188174 21601752 22133244 22757350 23436938 24137978 
1412.651 24834010 25511378 26165310 26794008 27393792 27957196 28471586 
1416.026 28922760 29293650 29562204 29700798 29678660 29477512 29113056 
1419.402 28642570 28142190 27669610 27251096 26885082 26559000 26263120 
1422.777 25998710 25783086 25645806 25614102 25699658 25892062 26167456 
1426.152 26501380 26880746 27307724 27795204 28360012 29013328 29751714 
1429.527 30556338 31398070 32248184 33086554 33902292 34690280 35448708 
1432.903 36175836 36872040 37544436 38206188 38878916 39587276 40346024 
1436.278 41140556 41923076 42634304 43236256 43728508 44136584 44493576 
1439.653 44831792 45175272 45538492 45924888 46329172 46739736 47144448 
1443.028 47536192 47913824 48282600 48650728 49027772 49424484 49852628 
1446.404 50327552 50865272 51478600 52172260 52939560 53769568 54657524 
1449.779 55610340 56647840 57793680 59064048 60453900 61933952 63461096 
1453.154 64987428 66483312 67943872 69377560 70795832 72183032 73466792 
1456.529 74509624 75177464 75452728 75452648 75343192 75231120 75154408 
1459.905 75119232 75122976 75166112 75252752 75383704 75552672 75738664 
1463.280 75906424 76001144 75953624 75692472 75145352 74248160 72948408 
1466.655 71200304 68990016 66343276 63335680 60061900 56624436 53097988 
1470.030 49483892 45733084 41768304 37567524 33264984 29182366 25688550 
1473.406 22970112 20963450 19451456 18202738 17070452 15993530 14979699 
1476.781 14063020 13271205 12603541 12035815 11536673 11081949 10661284 
1480.156 10276818 9934794 9637790 9379583 9148805 8935060 8735280 8553098 
1484.014 8395313 8264567 8156008 8056388 7949400 7822802 7674320 7512607 
1487.871 7351964 7203812 7067935 6933783 6789981 6635897 6484356 6352200 
1491.728 6249127 6172829 6113145 6056526 5992322 5916742 5835163 5761255 
1495.586 5711061 5692562 5697766 5704380 5687191 5634455 5553164 5461990 
1499.443 5380563 5320552 5282784 5260112 5243813 5228252 5213497 5204845 
1503.301 5209674 5233518 5278860 5342422 5414111 5473566 5493967 5454306 
1507.158 5359530 5237140 5110760 4987569 4866691 4747186 4631298 4523242 
1511.016 4428066 4348841 4286997 4242695 4216966 4212917 4235167 4288202 
1514.873 4372536 4479652 4591816 4682171 4728863 4727423 4691918 4643723 
1518.730 4597743 4559001 4521065 4472220 4403095 4317617 4236003 4182004 
1522.588 4163236 4167652 4172570 4156747 4103627 4008074 3878509 3737485 
1526.445 3613179 3530462 3500900 3521242 3579502 3661026 3753360 3846617 
1530.303 3933641 4009512 4068540 4104563 4109881 4077571 4006469 3906091 
1534.160 3793568 3684785 3588990 3508783 3445356 3401306 3381169 3390219 
1538.017 3430894 3496491 3563300 3590260 3541252 3416000 3253694 3096387 
1541.875 2965292 2859450 2769773 2691250 2629309 2596142 2605809 2662579 
1545.732 2758236 2875226 2995852 3104296 3189769 3245949 3269217 3261172 
1549.590 3228991 3186098 3146380 3120882 3114074 3124954 3149183 3178922 
1553.447 3206292 3224384 3231027 3229658 3227222 3228790 3232997 3226854 
1557.305 3183494 3062150 2836304 2556111 2359511 2334792 2442872 2604275 
1561.162 2763037 2893271 2983841 3033187 3046133 3032319 3005260 2980505 
1565.019 2970863 2981606 3011166 3052974 3100191 3145345 3181558 3201686 
1568.877 3199883 3176686 3141474 3110604 3097522 3108067 3139939 3185664 
1572.734 3234666 3275026 3295124 3283706 3233764 3146180 3035322 2927562 
1576.592 2849277 2812892 2812592 2835303 2868489 2904012 2936102 2960121 
1580.449 2971764 2967394 2946043 2910383 2867588 2827099 2798218 2788781 
1584.307 2801553 2834369 2879829 2928563 2970329 2997553 3007028 3000222 
1588.164 2982640 2962790 2949979 2950813 2967627 2998254 3037458 3078767 
1592.021 3118246 3155291 3192840 3235533 3285209 3338963 3387815 3418504 
1595.879 3417636 3377396 3298630 3190370 3066154 2941005 2828033 2735662 
1599.736 2668146 2626042 2607242 2606809 2619509 2639477 2659979 2675148 
1603.594 2681182 2676648 2663746 2646577 2630276 2617942 2610575 2606209 
1607.451 2601075 2591842 2578243 2563644 2555678 2563011 2592942 2648411 
1611.308 2726192 2817261 2909115 2989946 3049270 3080469 3080369 3050738 
1615.166 2998454 2937002 2886033 2862085 2870657 2904245 2950513 3000989 
1619.023 3054175 3112739 3180123 3257199 3339196 3413228 3460552 3462689 
1622.881 3412159 3322235 3223249 3147615 3114608 3127657 3178554 3254027 
1626.738 3338829 3420809 3492750 3553344 3605896 3654978 3703933 3753193 
1630.596 3801992 3849425 3894657 3937619 3977243 4012155 4039109 4054694 
1634.453 4057570 4053189 4054493 4077103 4126974 4195353 4267690 4332576 
1638.310 4386594 4432082 4476003 4526590 4591883 4675606 4777436 4892191 
1642.168 5013579 5135269 5254042 5369493 5484370 5603541 5732984 5877915 
1646.025 6039525 6208455 6366591 6495556 6587115 6645519 6681621 6706723 
1649.883 6731793 6766893 6823604 6915267 7055306 7244239 7448356 7600267 
1653.740 7658740 7648758 7616925 7588972 7567527 7544567 7508561 7450480 
1657.598 7364905 7252629 7119599 6975196 6828182 6683606 6542880 6403410 
1661.455 6261632 6116303 5972502 5840771 5734193 5661343 5625291 5622337 
1665.312 5646438 5688870 5739296 5785128 5811219 5803395 5754338 5672219 
1669.170 5582228 5520578 5513900 5564272 5653017 5754842 5850309 5930312 
1673.027 5996354 6057164 6124066 6204826 6296828 6386395 6456576 6496901 
1676.885 6508673 6500500 6483179 6465791 6455231 6455937 6468650 6492226 
1680.742 6522968 6557244 6592565 6628932 6670787 6729269 6820643 6954186 
1684.599 7119161 7290399 7447817 7585465 7705854 7814908 7920716 8031984 
1688.457 8157933 8304790 8472037 8652529 8834144 9005958 9162104 9304596 
1692.314 9441717 9585451 9748752 9943507 10178167 10453582 10757496 11064478 
1696.172 11347700 11596903 11821666 12039732 12269326 12524891 12815277 
1699.547 13138164 13471887 13780350 14036497 14236985 14395639 14529203 
1702.922 14652835 14781474 14931754 15119000 15349713 15613280 15881440 
1706.297 16119987 16308708 16448438 16557094 16657857 16772592 16913468 
1709.673 17081720 17270828 17472262 17682692 17907554 18160518 18458604 
1713.048 18814816 19233100 19703066 20204572 20719690 21246520 21809944 
1716.423 22456402 23238170 24169820 25205358 26261218 27266690 28202894 
1719.798 29097254 29994950 30942644 31979002 33133042 34421264 35850800 
1723.174 37420976 39127032 40962760 42922576 45000488 47193940 49508104 
1726.549 51967744 54627800 57573108 60903472 64699292 68969696 73618992 
1729.924 78464616 83290936 87980256 92597720 97453464 103086968 110214384 
1733.299 119426656 130583968 142465760 153389616 162411776 169690560 
1736.193 175911200 181739744 187646208 193897584 200588752 207636288 
1739.086 214818976 221798944 228221216 233803424 238357264 241778256 
1741.979 244041360 245212720 245456000 244985264 243987664 242517120 
1744.872 240478368 237677920 233943904 229217856 223609008 217337920 
1747.765 210668448 203760000 196598592 189012128 180822544 172009040 
1750.658 162792128 153608640 144923344 137042048 130025056 123740584 
1753.551 117960520 112441000 106969264 101377888 95562800 89529688 83416064 
1756.926 77467784 71949208 67025960 62724376 58949912 55541576 52314976 
1760.301 49103596 45806900 42427688 39092804 35997248 33311524 31102966 
1763.677 29331474 27889954 26659294 25537558 24457198 23388260 22333284 
1767.052 21315352 20361116 19485658 18684492 17939082 17225698 16527181 
1770.427 15834462 15146379 14467572 13809046 13188029 12626702 12142180 
1773.802 11744111 11432022 11196002 11018392 10875609 10743503 10606141 
1777.178 10459589 10311866 10175963 10060041 9960051 9859066 9732149 9561335 
1781.035 9347623 9110433 8876110 8664799 8482240 8319414 8158405 7982809 
1784.892 7788055 7584993 7394293 7234200 7114514 7031901 6974287 6927050 
1788.750 6878371 6822494 6757268 6681857 6591926 6478941 6335120 6160730 
1792.607 5968841 5780864 5616564 5485813 5389218 5322899 5282449 5266686 
1796.465 5277451 5316459 5381871 5464909 5550042 5616631 5646472 5630359 
1800.322 5571991 5485712 5387675 5287949 5186637 5076263 4950334 4808693 
1804.180 4660301 4519659 4400752 4312028 4252934 4215527 4188527 4163069 
1808.037 4137009 4113628 4098777 4095800 4101988 4109614 4108778 4092388 
1811.894 4060012 4015967 3965573 3911774 3854540 3792298 3725020 3656582 
1815.752 3593968 3544659 3512123 3492549 3476617 3452603 3413829 3360900 
1819.609 3302269 3247952 3205858 3177219 3156893 3137669 3114541 3087510 
1823.467 3060415 3036056 3011065 2973665 2908915 2808056 2676614 2534881 
1827.324 2413717 2344819 2351549 2439040 2587242 2750600 2878295 2942607 
1831.182 2946643 2917154 2883665 2867655 2875527 2901810 2932466 2952581 
1835.039 2949712 2916187 2848510 2745965 2610209 2447637 2273301 2109024 
1838.896 1978493 1901544 1886036 1927103 2008451 2109291 2209788 2295785 
1842.754 2364008 2419581 2470829 2521516 2567277 2598808 2610242 2603908 
1846.611 2589209 2578942 2583476 2606342 2643077 2683149 2715256 2729827 
1850.469 2722691 2691651 2634009 2545446 2420414 2256648 2060649 1847568 
1854.326 1640811 1463375 1333270 1258297 1235767 1253611 1295915 1349689 
1858.183 1406296 1462910 1520994 1580217 1638151 1690105 1731120 1759564 
1862.041 1778028 1792501 1808804 1830498 1856453 1882475 1901710 1908267 
1865.898 1898216 1869830 1822446 1754973 1666189 1555410 1424679 1280561 
1869.756 1133303 995559 880999 802418 772411 799132 883489 1015485 1174299 
1874.095 1329914 1450077 1510820 1502208 1434053 1329747 1222310 1140644 
1877.953 1100615 1104036 1141010 1195729 1254209 1308278 1356104 1396689 
1881.810 1428003 1441999 1429167 1382296 1302993 1204401 1107690 1036608 
1885.668 1008079 1027508 1089254 1181077 1288304 1398318 1503970 1601634 
1889.525 1689672 1765619 1826605 1870462 1897650 1911129 1914324 1908832 
1893.382 1892326 1859181 1803447 1724201 1628938 1533563 1456227 1409387 
1897.240 1395592 1404368 1416833 1411249 1371128 1291462 1180578 1055673 
1901.097 938939 850953 804045 801555 837341 897201 961353 1010570 1028504 
1905.437 1006618 948170 869146 797672 765606 801456 920311 1117855 1366906 
1909.776 1624648 1844906 1985649 2023331 1952797 1785647 1545500 1267103 
1913.634 993964 770353 640920 638597 779050 1056570 1440569 1878915 2298383 
1917.974 2630376 2828333 2882064 2811058 2650444 2434142 2187309 1933227 
1921.831 1695194 1496755 1359960 1293854 1291827 1333104 1392700 1449878 
1925.688 1494461 1526314 1550688 1570141 1579618 1564920 1509689 1405531 
1929.546 1259127 1094835 945481 841458 796045 801589 833889 867553 886975 
1933.885 898463 925292 998348 1136758 1338056 1572036 1793100 1955061 
1937.743 2026826 2004723 1910030 1775899 1632397 1499581 1383260 1280428 
1941.600 1186691 1101113 1027143 967929 920344 873263 812278 727470 621741 
1945.940 512753 428634 401571 455533 596822 813340 1078260 1361721 1638583 
1950.279 1898150 2142720 2383531 2630909 2886000 3136735 3356994 3509685 
1954.137 3556852 3468134 3227021 2840673 2338623 1774136 1209285 705399 
1957.994 313063 63953 -31310 16269 178562 405750 639195 824262 914832 890627 
1962.816 760063 561321 349240 185756 115421 153570 280537 448734 604453 
1967.156 704868 737394 723022 704968 723786 804410 949366 1138684 1342610 
1971.495 1527378 1665391 1738339 1736942 1661932 1528808 1369034 1232544 
1975.353 1183535 1277969 1544735 1971536 2505586 3067722 3579168 3985602 
1979.210 4261801 4411764 4444836 4360588 4143031 3771308 3241242 2588675 
1983.068 1895720 1277770 838304 639725 678053 890793 1171375 1409753 1530005 
1987.407 1501510 1346897 1120845 886510 693419 578176 564141 668197 899957 
1991.747 1252913 1698653 2181548 2629509 2976067 3170811 3197680 3070525 
1995.604 2823397 2489823 2096372 1659470 1194134 729992 318103 19118 -106910 
1999.944 -32735 223745 596026 988418 1304190 1473947 1479400 1352248 1155661 
2004.283 950395 779348 656649 569251 492883 409464 312665 211744 126524 
2008.623 82412 112007 252753 539027 995559 1619060 2359444 3121583 3781970 
2012.963 4201007 4280071 3989314 3383540 2582476 1745225 1027475 539293 
2016.820 335843 405517 689038 1096130 1531900 1916853 2184445 2293953 
2020.677 2234366 2035814 1764721 1520495 1405797 1492333 1802482 2293753 
2024.535 2874592 3420742 3820109 4006938 3970923 3752792 3421777 3057245 
2028.392 2718690 2440639 2227739 2058086 1894688 1702080 1460317 1176193 
2032.250 889067 660133 563611 656317 959992 1449379 2061981 2702953 3272289 
2036.589 3694576 3923844 3953134 3805267 3517134 3131528 2693084 2251185 
2040.447 1852293 1539415 1336926 1244506 1236830 1270592 1304256 1310737 
2044.304 1286477 1251185 1233940 1254841 1316221 1400412 1481860 1543538 
2048.161 1589129 1642774 1738572 1898615 2117248 2358245 2566177 2687050 
2052.019 2685449 2558911 2337457 2074931 1828169 1645900 1560098 1580350 
2055.876 1701082 1907168 2176886 2482059 2790015 3065086 3272022 3388783 
2059.734 3410489 3351751 3236635 3087277 2912451 2704353 2445138 2121843 
2063.591 1743995 1349523 1001736 769058 708121 837706 1135495 1539548 
2067.448 1974166 2364675 2656645 2827566 2881597 2843608 2747032 2629676 
2071.306 2521683 2443538 2404654 2401756 2421447 2442638 2444805 2413084 
2075.163 2345319 2251352 2152477 2070537 2019602 2000229 1998498 1990010 
2079.021 1949635 1861544 1724866 1555542 1378540 1222609 1110281 1047834 
2082.878 1026412 1023755 1012131 965272 870939 731951 568488 410161 287698 
2087.218 223049 220695 267805 338032 405318 449397 468370 478022 506483 
2091.557 581361 719704 919116 1159116 1405565 1621621 1781588 1876286 
2095.415 1914390 1916553 1909398 1914789 1945708 2003990 2081224 2160535 
2099.272 2218247 2230736 2176752 2046467 1845206 1599705 1351916 1147853 
2103.130 1029401 1016681 1101977 1250554 1411714 1533197 1577024 1532333 
2106.987 1414872 1261919 1115729 1014588 980282 1014323 1100382 1211212 
2110.844 1316354 1387747 1407559 1367937 1273749 1139681 987754 842686 
2114.702 724582 646827 612417 615834 644703 686383 732747 780842 833291 
2119.042 894047 963479 1036044 1099950 1139814 1144166 1108620 1039265 
2122.899 951491 868316 809921 792128 820012 887407 979552 1076665 1160245 
2127.239 1215598 1234970 1218256 1172471 1108753 1040096 981378 944684 
2131.096 939902 973308 1044712 1147422 1266637 1384889 1480996 1540679 
2134.953 1557072 1536323 1495259 1455762 1438209 1455330 1507561 1586336 
2138.811 1680226 1777296 1871228 1962716 2051760 2135662 2204692 2241194 
2142.668 2226373 2148215 2004756 1807773 1577789 1337857 1104568 891192 
2146.526 706461 564042 484391 493082 612151 850222 1191443 1596778 2006820 
2150.865 2364741 2630376 2796251 2883698 2938971 3007729 3116944 3269885 
2154.723 3442216 3599180 3708444 3753962 3740761 3689229 3622434 3558522 
2158.580 3505777 3459683 3410890 3349180 3263208 3138403 2960087 2711822 
2162.438 2385697 1989710 1551885 1119516 745791 480775 355872 374874 509668 
2166.777 711241 924561 1097725 1200978 1229055 1198918 1143502 1100183 
2170.635 1098887 1149548 1239057 1330877 1381099 1346199 1202640 958099 
2174.492 653165 346521 100606 -40289 -64904 3412 115951 219866 275994 273839 
2179.314 234155 204319 237337 376167 643210 1028704 1497088 1994570 2465897 
2183.653 2859583 3137803 3281569 3290083 3183828 2995384 2766472 2536680 
2187.511 2332760 2166729 2036014 1924541 1813429 1686080 1532931 1350620 
2191.368 1144232 919315 686914 461868 264457 118470 48444 70713 188275 
2195.708 385055 626453 870939 1078924 1224204 1302728 1327388 1319677 
2199.565 1298773 1274746 1244373 1198420 1127788 1032257 921174 810684 
2203.423 713597 636606 575455 520914 467441 421138 402466 444090 574095 
2207.762 806136 1127124 1498883 1865005 2169227 2374803 2471229 2479793 
2211.620 2438473 2392760 2375536 2396358 2440739 2478927 2474961 2400990 
2215.477 2248721 2027625 1763456 1488876 1235003 1025515 873595 783995 
2219.334 754454 779780 849459 950827 1067564 1180046 1271190 1329216 1353013 
2223.674 1354376 1357001 1389642 1475344 1625280 1831097 2067108 2292820 
2227.531 2467597 2558711 2549945 2444138 2261644 2033683 1793333 1575328 
2231.389 1408058 1312797 1304688 1388878 1560464 1802216 2086018 2374070 
2235.246 2625709 2808223 2900709 2900910 2821696 2688383 2529981 2369572 
2239.104 2222277 2092344 1975198 1862975 1749816 1634692 1521726 1418928 
2242.961 1333204 1269396 1227227 1201576 1185961 1175096 1166458 1162604 
2246.819 1169880 1196194 1247696 1325958 1425044 1533596 1634259 1707768 
2250.676 1738572 1717282 1643239 1525849 1382462 1234272 1103040 1008378 
2254.533 961785 967563 1021928 1115065 1233641 1364613 1496922 1624215 
2258.391 1743762 1855787 1960519 2055156 2131932 2178850 2182547 2132532 
2262.248 2026893 1873956 1693863 1513446 1358497 1249258 1193835 1185794 
2266.106 1207922 1239755 1262650 1266804 1253246 1232245 1217758 1221845 
2269.963 1250155 1299670 1361821 1423615 1474779 1510055 1529872 1540014 
2273.821 1548692 1563124 1586003 1615934 1647197 1673540 1689439 1694030 
2277.678 1689074 1680093 1671278 1664426 1656211 1640113 1608518 1556507 
2281.535 1486315 1407858 1336793 1289501 1278900 1307314 1366541 1438342 
2285.393 1501610 1538451 1540878 1512582 1468894 1430396 1414806 1432192 
2289.250 1480530 1546564 1609416 1648627 1649193 1606123 1525516 1422884 
2293.108 1319145 1233906 1182339 1171143 1197490 1249823 1311834 1367073 
2296.965 1401841 1410185 1395459 1368269 1342244 1331808 1345568 1384623 
2300.823 1442464 1507794 1568777 1617198 1650157 1671112 1687111 1704841 
2304.680 1728525 1757268 1786313 1808305 1816557 1807407 1782054 1746090 
2308.537 1707801 1677432 1662530 1667752 1692433 1730821 1772872 1806508 
2312.395 1821315 1811233 1777263 1726563 1671411 1624282 1594118 1582378 
2316.252 1584474 1589695 1587433 1572070 1545600 1518600 1506863 1526447 
2320.110 1587566 1690903 1826505 1977028 2123075 2246423 2334692 2382765 
2323.967 2390494 2360977 2298916 2209555 2097970 1971536 1839582 1712691 
2327.824 1603995 1525549 1486648 1492101 1539415 1618495 1711494 1796793 
2331.682 1852926 1863374 1822679 1736676 1622120 1500446 1394661 1320940 
2335.539 1285679 1285912 1312665 1355439 1407426 1466866 1535990 1616732 
2339.397 1707069 1799455 1883141 1949036 1993305 2020102 2038344 2057120 
2343.254 2078893 2096239 2093176 2054756 1973334 1855821 1721806 1596279 
2347.112 1498883 1438009 1410218 1403371 1400844 1386218 1348592 1284848 
2350.969 1201377 1112607 1037472 992503 985596 1014489 1067830 1132007 
2354.826 1194865 1252049 1307181 1371859 1459120 1581913 1746223 1948670 
2358.684 2174588 2399657 2596208 2736762 2803721 2792382 2712955 2585976 
2362.541 2436941 2292654 2170425 2079925 2021566 1988978 1971636 1958023 
2366.399 1936922 1897251 1831729 1736842 1616799 1482891 1352780 1246500 
2370.256 1179847 1159847 1182040 1231647 1287906 1331309 1350121 1341280 
2374.114 1311634 1272652 1235734 1207424 1188187 1172804 1154863 1129682 
2377.971 1098223 1066202 1044413 1043849 1071683 1129449 1210847 1303359 
2381.828 1390174 1455862 1488709 1484587 1447351 1388811 1324829 1270060 
2385.686 1235933 1225732 1234604 1250654 1260290 1251717 1219552 1166890 
2389.543 1105132 1050525 1018507 1020002 1057566 1124532 1206195 1285081 
2393.401 1344837 1374452 1371460 1341945 1299138 1257964 1232677 1231813 
2397.258 1256668 1300468 1351517 1396789 1424712 1429765 1412778 1380501 
2401.115 1342743 1309773 1288670 1282289 1289368 1305386 1324729 1342743 
2404.973 1356170 1363649 1365311 1361887 1354575 1344903 1334168 1324164 
2408.830 1315755 1309042 1303126 1296014 1285712 1271190 1253113 1233873 
2412.688 1217425 1206893 1203935 1207358 1213538 1217425 1214967 1204201 
2416.545 1186392 1165926 1147920 1136990 1135429 1141774 1151508 1158916 
2420.403 1158617 1147189 1125463 1097160 1069125 1048133 1039398 1044579 
2424.260 1060489 1080186 1094636 1096795 1083375 1057134 1027109 1005787 
2428.117 1005023 1032390 1088391 1166059 1252780 1334134 1398684 1439539 
2431.975 1455529 1450243 1429167 1396955 1357134 1311900 1263414 1215598 
2435.832 1174365 1146226 1137322 1150976 1186559 1239921 1305087 1374917 
2439.690 1444027 1507860 1563490 1607753 1637984 1650989 1644902 1619792 
2443.547 1578122 1524951 1466168 1407925 1355240 1311269 1277870 1256236 
2447.405 1246932 1249424 1262151 1280927 1299438 1311302 1310105 1293522 
2451.262 1263015 1224902 1187389 1159182 1146591 1151408 1171475 1201111 
2455.119 1233940 1264145 1288072 1304722 1315589 1323266 1331044 1341746 
2458.977 1356636 1375416 1395825 1414540 1428302 1434984 1434386 1429333 
2462.834 1423981 1422651 1427837 1439007 1452072 1461281 1461048 1448049 
2466.692 1421953 1385653 1343042 1297876 1251916 1205563 1158916 1113138 
2470.549 1071052 1036342 1011466 995459 983802 967696 938607 891623 828079 
2474.889 756279 688474 636938 609099 604918 616631 633321 645367 648287 
2479.228 644537 642480 652236 680841 730623 797937 876251 957900 1038169 
2483.568 1115131 1189316 1260889 1328285 1386484 1429632 1451673 1449977 
2487.425 1425177 1382761 1330811 1277537 1231481 1198154 1181575 1183402 
2491.283 1202507 1235235 1275078 1313927 1343208 1356403 1351750 1332473 
2495.140 1307081 1286011 1279498 1293755 1330046 1383892 1447883 1511717 
2498.998 1565386 1600071 1608218 1584972 1529041 1443993 1339153 1229254 
2502.855 1132173 1063811 1033619 1041291 1076300 1120812 1154531 1163833 
2506.712 1144199 1102242 1052484 1012994 997352 1010935 1050159 1104568 
2510.570 1161840 1211644 1249856 1278468 1304190 1334766 1376479 1431527 
2514.427 1497487 1567846 1633062 1683219 1709398 1706371 1673740 1617032 
2518.285 1546165 1474413 1414108 1372657 1351351 1344604 1342510 1335298 
2522.142 1317151 1289002 1258263 1235402 1230351 1247896 1286842 1340383 
2526.000 1399049 1456128 1507761 1554977 1600669 1647031 1692433 1731586 
2529.857 1756736 1761128 1742364 1703776 1654082 1605425 1568944 1552184 
2533.714 1556839 1579120 1611378 1643938 1668717 1680791 1678762 1665258 
2537.572 1646200 1628905 1619759 1623218 1639880 1666455 1696125 1721473 
2541.429 1737042 1739903 1731786 1717248 1701747 1688475 1677531 1665657 
2545.287 1647563 1618395 1576260 1522557 1461979 1400080 1341181 1287308 
2549.144 1238625 1193901 1153136 1118586 1094503 1086464 1099386 1134831 
2553.001 1190778 1261453 1337990 1410650 1470590 1510288 1526015 1517636 
2556.859 1490039 1451374 1414141 1391337 1393830 1427637 1491003 1574397 
2560.716 1661699 1734547 1777064 1778627 1737408 1659903 1559799 1453136 
2564.574 1357699 1288869 1257233 1269097 1324696 1418828 1539847 1672775 
2568.431 1800020 1904439 1973434 2000595 1987314 1941215 1875021 1802549 
2572.289 1734813 1679427 1638483 1610347 1590559 1574863 1559932 1545500 
2576.146 1533895 1529839 1538517 1564055 1607553 1666289 1734613 1804113 
2580.003 1866868 1918350 1957690 1988545 2017039 2049130 2087683 2131366 
2583.861 2175187 2212852 2239761 2254783 2260478 2261844 2262243 2261910 
2587.718 2255982 2237197 2198631 2137793 2058651 1972102 1892159 1831363 
2591.576 1798057 1793100 1811832 1846104 1888033 1932861 1978759 2024895 
2595.433 2070304 2111522 2143387 2159803 2158304 2139857 2110123 2077162 
2599.291 2047599 2024995 2009250 1996800 1984218 1971037 1960619 1959387 
2603.148 1973467 2005688 2052892 2107093 2155973 2187975 2196367 2179283 
2607.005 2141722 2092577 2042173 1998864 1969140 1955893 1959754 1979957 
2610.863 2014309 2059650 2111954 2166096 2217181 2260112 2291421 2309209 
2614.720 2313573 2305212 2287091 2262610 2235931 2211853 2194369 2185877 
2618.578 2186210 2192337 2199431 2202694 2199730 2191904 2184545 2184944 
2622.435 2199764 2231835 2278231 2330895 2379067 2412884 2426078 2418815 
2626.292 2396058 2366707 2339822 2323333 2321734 2337124 2368606 2414117 
2630.150 2471062 2535447 2603042 2669113 2729193 2780277 2821096 2852513 
2634.007 2876127 2894339 2908181 2917521 2921925 2921191 2915687 2907514 
2637.865 2898942 2891937 2887434 2885132 2883765 2882664 2881931 2882798 
2641.722 2886500 2893638 2903178 2912684 2919122 2920590 2916754 2909115 
2645.580 2900309 2891803 2883198 2872358 2855881 2831468 2799786 2764271 
2649.437 2731027 2706654 2696085 2701219 2720857 2751833 2790182 2833369 
2653.294 2880029 2929363 2981339 3034788 3088445 3140439 3189936 3236368 
2657.152 3279500 3318529 3351451 3375059 3386746 3385310 3372921 3355257 
2661.009 3339664 3333554 3341333 3362670 3392991 3424716 3450265 3463992 
2664.867 3464059 3452336 3433132 3411257 3391354 3376962 3370317 3372888 
2668.724 3384976 3405714 3432497 3461253 3487606 3507814 3520641 3527923 
2672.582 3534504 3545427 3565204 3595238 3632959 3673156 3709446 3736349 
2676.439 3750753 3752558 3744337 3729999 3713791 3699588 3690298 3687826 
2680.296 3692237 3702429 3715896 3728529 3736115 3735480 3724919 3704434 
2684.154 3676097 3642582 3606497 3570014 3534738 3502269 3474780 3454139 
2688.011 3442016 3438208 3439778 3442116 3439043 3425751 3399870 3362770 
2691.869 3318696 3273591 3232796 3199650 3174883 3157627 3146213 3139204 
2695.726 3135500 3134565 3135333 3136534 3136434 3134465 3131094 3128057 
2699.583 3128024 3132529 3141507 3152921 3163435 3170110 3171946 3170110 
2703.441 3167440 3166773 3169309 3174049 3178855 3181425 3181625 3181892 
2707.298 3186331 3198581 3219744 3247418 3276695 3302135 3320231 3331584 
2711.156 3339764 3349815 3365141 3385076 3405080 3418638 3419874 3406616 
2715.013 3381804 3352219 3325807 3308880 3304473 3311684 3327710 3349314 
2718.871 3374791 3403577 3435670 3469770 3502737 3529293 3544158 3543423 
2722.728 3526587 3496791 3460518 3424917 3396965 3382038 3382405 3398300 
2726.585 3428056 3468334 3514762 3562865 3607934 3646124 3675328 3694910 
2730.443 3705704 3709213 3707040 3700491 3690666 3678569 3665604 3653542 
2734.300 3643718 3636434 3630252 3622568 3610640 3592899 3569948 3544759 
2738.158 3520808 3501000 3485702 3472609 3458414 3440947 3420875 3402274 
2742.015 3391588 3394527 3412727 3442951 3477452 3507514 3526654 3533702 
2745.873 3533001 3532867 3541085 3561462 3592031 3626277 3655179 3671752 
2749.730 3673524 3663131 3646692 3630587 3619026 3612945 3609537 3604793 
2753.587 3595806 3581674 3563901 3546129 3531965 3524382 3524883 3533635 
2757.445 3549703 3571485 3596641 3622601 3646458 3665537 3677867 3683214 
2761.302 3682813 3679104 3675127 3673423 3675629 3682245 3693272 3707943 
2765.160 3725788 3745941 3767531 3789624 3811652 3833413 3856445 3882922 
2769.017 3915653 3956210 4003828 4055229 4104062 4144302 4170696 4181636 
2772.875 4179294 4169392 4159322 4155609 4162902 4182372 4212382 4249688 
2776.732 4290210 4329932 4366144 4396870 4421404 4440484 4456050 4471483 
2780.589 4490867 4518085 4555987 4605545 4665961 4734960 4810268 4890046 
2784.447 4973526 5060575 5150659 5242438 5332627 5416795 5490075 5548734 
2788.304 5590786 5617000 5630796 5636972 5640933 5648049 5662517 5687225 
2792.162 5723885 5773074 5834693 5907337 5989433 6078971 6173199 6269699 
2796.019 6365448 6457888 6544192 6622473 6691884 6753129 6808222 6860530 
2799.876 6913887 6971997 7037323 7111145 7193638 7283896 7381216 7485098 
2803.734 7595243 7711419 7833024 7958612 8085957 8212800 8337113 8458116 
2807.591 8576450 8693971 8812875 8935500 9062794 9194254 9328225 9462373 
2811.449 9594327 9723576 9850796 9979105 10112606 10256156 10413940 10588757 
2815.306 10782087 10993686 11222896 11468116 11728145 12000764 12283096 
2818.681 12570729 12858347 13140589 13413070 13674643 13928231 14180563 
2822.057 14442052 14723337 15034989 15384625 15775805 16208852 16681133 
2825.432 17187604 17721726 18276860 18846268 19424256 20007558 20595884 
2828.807 21192938 21805240 22441574 23111234 23820952 24574854 25373834 
2832.182 26216164 27098856 28019852 28978544 29976880 31019436 32114088 
2835.558 33271528 34505492 35833208 37273472 38845288 40567584 42455640 
2838.933 44522320 46778076 49232800 51898136 54788800 57921972 61316264 
2842.308 64987964 68947368 73195128 77720696 82501600 87501776 92678480 
2845.683 97979824 103347048 108722072 114040904 119237464 124246208 
2848.576 128995616 133412568 137425072 140957808 143941536 146313392 
2851.469 148019008 149020576 149297440 148851104 147704672 145904592 
2854.363 143516112 140613008 137279136 133596776 129642336 125491368 
2857.256 121210680 116861832 112502864 108181600 103939448 99810000 95816400 
2860.631 91977960 88309608 84824816 81538480 78465376 75618840 73010184 
2864.006 70645008 68522688 66637024 64977348 63530272 62281828 61218092 
2867.381 60324132 59582260 58971620 58464068 58027280 57626528 57225732 
2870.757 56794336 56308408 55751360 55117004 54406164 53627384 52794132 
2874.132 51925620 51044116 50173140 49337728 48559636 47856480 47241596 
2877.507 46722136 46301192 45978808 45753480 45622584 45582836 45630828 
2880.882 45762460 45974608 46265108 46633740 47081520 47609060 48215172 
2884.258 48895252 49640696 50439628 51281120 52156192 53060812 53996092 
2887.633 54966560 55977344 57032044 58130260 59267872 60438436 61634276 
2891.008 62849960 64081692 65328360 66591256 67873552 69178920 70511536 
2894.383 71875032 73271024 74697880 76150088 77619016 79094568 80567952 
2897.759 82035680 83501072 84974848 86471360 88007040 89594104 91238416 
2901.134 92939376 94691936 96490320 98331800 100219216 102160984 104169256 
2904.509 106255024 108426000 110684400 113027288 115448192 117941392 
2907.402 120504696 123140904 125858976 128671032 131591184 134631376 
2910.295 137799696 141097776 144522080 148062336 151702656 155425264 
2913.188 159207984 163028576 166864768 170691904 174484832 178214960 
2916.081 181847104 185342256 188654464 191734032 194534352 197011584 
2918.974 199129696 200862272 202189008 203095600 203572240 203613088 
2921.867 203218272 202395968 201163584 199545312 197571424 195274992 
2924.760 192687952 189844240 186778352 183525200 180122896 176606832 
2927.654 173006672 169346560 165640496 161896480 158120048 154317104 
2930.547 150497280 146674160 142862480 139077392 135331856 131635112 
2933.440 127995240 124419328 120914864 117490344 114154408 110914384 
2936.333 107776400 104743248 101815728 98993128 96273560 93655136 91136512 
2939.708 88717272 86397776 84179680 82065016 80056096 78155104 76364424 
2943.083 74686936 73125728 71685096 70369656 69182928 68126672 67199632 
2946.458 66396476 65708572 65126216 64639688 64239704 63919240 63671404 
2949.834 63488892 63362248 63279368 63225284 63184240 63139020 63073188 
2953.209 62971944 62821508 62609924 62327072 61965248 61519620 60989024 
2956.584 60375076 59681584 58913252 58074848 57169712 56200428 55169936 
2959.959 54081348 52940384 51754140 50531672 49283236 48018616 46747188 
2963.335 45476528 44211488 42954140 41702980 40454608 39204740 37951080 
2966.710 36696128 35447632 34218628 33024340 31879004 30791276 29763070 
2970.085 28789370 27862042 26971454 26111576 25280614 24480614 23715400 
2973.460 22988174 22300042 21649742 21034252 20450472 19896300 19370206 
2976.836 18871322 18397658 17946574 17514380 17097746 16694663 16305028 
2980.211 15930658 15574505 15239231 14926782 14637894 14372007 14128052 
2983.586 13904590 13699435 13509586 13331437 13161183 12995707 12834286 
2986.961 12678725 12533519 12404591 12297616 12216806 12163374 12136115 
2990.337 12132945 12152299 12194213 12260566 12354918 12480116 12637856 
2993.712 12827563 13045793 13287672 13547905 13821942 14106967 14401975 
2997.087 14707707 15025830 15358226 15705615 16067034 16439352 16817228 
3000.462 17193498 17559818 17908488 18232904 18528136 18791668 19022194 
3003.838 19218866 19380218 19504060 19587278 19626242 19618198 19561524 
3007.213 19455684 19301406 19099432 18849866 18552756 18207818 17816616 
3010.588 17383516 16915778 16424246 15920622 15415899 14918929 14433797 
3013.963 13960941 13497794 13041047 12587646 12135944 11686141 11238742 
3017.339 10794112 10352245 9912894 9477172 9048685 8635121 8246231 7892507 
3021.196 7582734 7319580 7099593 6912607 6745119 6582338 6413027 6231278 
3025.053 6036938 5834659 5631937 5436959 5256021 5093897 4952713 4832883 
3028.911 4732447 4647541 4572729 4501011 4425689 4341779 4247681 4145607 
3032.768 4041383 3942635 3855877 3785146 3730534 3688360 3652038 3615284 
3036.626 3573589 3525685 3473444 3421710 3376194 3340999 3317794 3304873 
3040.483 3298262 3292019 3281469 3264644 3242711 3219711 3200951 3190170 
3044.341 3187633 3189603 3188668 3176051 3145078 3093217 3023044 2942807 
3048.198 2863019 2793783 2742964 2713956 2706254 2716356 2739529 2770974 
3052.055 2805755 2839839 2869089 2889669 2898641 2894172 2875827 2844808 
3055.913 2803387 2753834 2698185 2638677 2577343 2517151 2462265 2416549 
3059.770 2383498 2364975 2360044 2365607 2377268 2390927 2403388 2413850 
3063.628 2422746 2431543 2441572 2453501 2466664 2479460 2489091 2492223 
3067.485 2485758 2467064 2435475 2393060 2344919 2298516 2261744 2240728 
3071.343 2236897 2246756 2261844 2272668 2271136 2254150 2223842 2187409 
3075.200 2153176 2127437 2112620 2106927 2105861 2104663 2100800 2094375 
3079.057 2086983 2080025 2072834 2062480 2044969 2016806 1977162 1928601 
3082.915 1876452 1826772 1784449 1752644 1731819 1722138 1723835 1737507 
3086.772 1764288 1803680 1852926 1905904 1954794 1991108 2008584 2005255 
3090.630 1982787 1947306 1906469 1868166 1838650 1821115 1815392 1818387 
3094.487 1824476 1826738 1819485 1799089 1765652 1723403 1679926 1643539 
3098.344 1620989 1615435 1625047 1644237 1664659 1678330 1679827 1667420 
3102.202 1642275 1608451 1570374 1532133 1497287 1468595 1448348 1437943 
3106.059 1438275 1448315 1466534 1490239 1517470 1547429 1579984 1615834 
3109.917 1654714 1694196 1730089 1756869 1769977 1767515 1751413 1726629 
3113.774 1699951 1677232 1661167 1650656 1641576 1628506 1607187 1576559 
3117.632 1538783 1498817 1462178 1434253 1417631 1412811 1417797 1428867 
3121.489 1442364 1454565 1462876 1466101 1464007 1456726 1444924 1428668 
3125.346 1407725 1382163 1353246 1323200 1295881 1275444 1264976 1265740 
3129.204 1275876 1291428 1307679 1320574 1328152 1331210 1331974 1333071 
3133.061 1335198 1338123 1340150 1340383 1339386 1340183 1345800 1357998 
3136.919 1375781 1394495 1407227 1408324 1395891 1372790 1346831 1326690 
3140.776 1320043 1329714 1353079 1383925 1415371 1442132 1461912 1474779 
3144.634 1481162 1480796 1471421 1450144 1415637 1370430 1320807 1275111 
3148.491 1241781 1225865 1227626 1242745 1265076 1289468 1313130 1336029 
3152.348 1359527 1383825 1406661 1422651 1425044 1408689 1372391 1319876 
3156.206 1259094 1200546 1153933 1126160 1119815 1133103 1160710 1194765 
3160.063 1226928 1249059 1255771 1244207 1216362 1177721 1135196 1096861 
3163.921 1068394 1051787 1045875 1047236 1052484 1059792 1069823 1084737 
3167.778 1106461 1134598 1165461 1193137 1210747 1213405 1200314 1174465 
3171.635 1142571 1111942 1088955 1077263 1077429 1088922 1109883 1139648 
3175.493 1178585 1227294 1286045 1352980 1423183 1489806 1543505 1575728 
3179.350 1580084 1553913 1500047 1425942 1343507 1264677 1200945 1159946 
3183.208 1143302 1148186 1168053 1195463 1224237 1251019 1274447 1294785 
3187.065 1311169 1321871 1323798 1314625 1294153 1265906 1235966 1212807 
3190.923 1203537 1210847 1233508 1265940 1300069 1327986 1344837 1349357 
3194.780 1344105 1334234 1325892 1324363 1333603 1354642 1385853 1424180 
3198.637 1464107 1500413 1528243 1544735 1548726 1541310 1524552 1500413 
3202.495 1470157 1434220 1392401 1345501 1295150 1245071 1200114 1164664 
3206.352 1141043 1128884 1124964 1124167 1120347 1109982 1090816 1063711 
3210.210 1031659 998946 969855 947971 935917 934290 941828 955642 971582 
3214.549 985164 993832 997053 997352 999477 1008544 1028571 1061153 1103903 
3218.889 1152006 1199749 1241549 1273815 1295283 1305852 1306416 1297776 
3222.746 1280927 1256834 1227859 1197955 1171442 1152870 1144731 1147189 
3226.604 1157588 1171275 1183236 1189183 1186824 1175561 1157056 1133136 
3230.461 1106694 1079788 1054610 1033254 1017046 1006751 1002666 1003928 
3234.319 1009042 1016016 1022393 1026146 1025017 1017777 1003629 983836 
3238.176 960955 939769 926587 926487 943322 977028 1023124 1072580 1115198 
3242.516 1141143 1143269 1120147 1075038 1016581 955111 900987 862108 842022 
3246.855 839765 850886 868980 886477 897367 898563 889565 873595 855700 
3251.195 842288 838437 847799 870972 906498 951126 1000806 1052285 1102176 
3255.534 1147953 1187422 1218622 1239422 1249225 1248095 1237462 1220183 
3259.392 1199018 1176525 1154033 1131542 1108255 1082910 1054511 1023024 
3263.249 989780 957136 928479 907793 898895 904506 926852 964541 1014422 
3267.589 1071052 1127954 1177688 1214767 1235834 1239854 1229155 1208255 
3271.446 1183037 1160112 1145395 1143136 1155063 1178983 1209650 1239921 
3275.304 1262052 1270359 1262916 1242213 1213405 1183635 1158319 1139083 
3279.161 1124665 1111477 1095499 1075569 1053481 1033885 1022393 1023390 
3283.019 1037538 1062216 1092377 1122174 1146691 1163202 1170677 1168883 
3286.876 1158019 1137920 1108886 1072546 1032457 993134 959826 936814 925923 
3291.216 926155 934622 947672 961918 974936 985297 992337 996256 997717 
3295.555 998547 1002068 1012695 1034482 1069623 1116327 1168551 1218422 
3299.413 1256702 1277637 1279897 1267036 1245968 1223772 1205630 1192007 
3303.270 1180046 1165262 1143933 1115165 1081581 1047602 1018341 997086 
3307.127 984467 979020 978256 980149 983935 990577 1002035 1019437 1043052 
3311.467 1071351 1101379 1129748 1153103 1169614 1178252 1179914 1176026 
3315.324 1168717 1160478 1153235 1148618 1148418 1153933 1165926 1185097 
3319.182 1210714 1240253 1269362 1292193 1302395 1296380 1273682 1239289 
3323.039 1202042 1173236 1162239 1173933 1205995 1250454 1295948 1330977 
3326.897 1348426 1346931 1330512 1305287 1277870 1252216 1228822 1206394 
3330.754 1183004 1158717 1135429 1116294 1104136 1100017 1102674 1109185 
3334.612 1115763 1120081 1121476 1121211 1121742 1125562 1134299 1149249 
3338.469 1170013 1195563 1223539 1250122 1269994 1277936 1269894 1245104 
3342.326 1207125 1164299 1126193 1102043 1097027 1110414 1135761 1164099 
3346.184 1186359 1196393 1193536 1180512 1162405 1143701 1126924 1112175 
3350.041 1098157 1083574 1068727 1054876 1044712 1039996 1041956 1049628 
3353.899 1061585 1076001 1090882 1104701 1115829 1122141 1122041 1114699 
3357.756 1101445 1085966 1074606 1073742 1088324 1119948 1165528 1218322 
3361.614 1269296 1310737 1337757 1348725 1346100 1334035 1317085 1298839 
3365.471 1281924 1266870 1253744 1241848 1230484 1218721 1205597 1190778 
3369.328 1174465 1158219 1143568 1133369 1129383 1132505 1141807 1155960 
3373.186 1172173 1188286 1202939 1215133 1224868 1232212 1236697 1237993 
3377.043 1235767 1229454 1218688 1203636 1183469 1157920 1126492 1089586 
3380.901 1048632 1007282 969689 940699 923963 920975 931468 952753 981810 
3385.240 1015983 1054178 1096296 1143036 1193934 1247231 1299271 1345468 
3389.098 1381565 1405199 1416102 1416767 1411049 1402373 1392966 1383094 
3392.955 1370430 1352647 1327886 1296513 1261852 1229520 1205763 1196127 
3396.813 1203603 1226164 1257898 1290365 1314060 1321272 1308211 1275477 
3400.670 1228025 1174000 1123436 1085733 1068494 1076167 1109119 1163800 
3404.527 1232112 1304256 1369266 1417432 1442630 1443694 1424147 1391204 
3408.385 1354376 1322170 1299870 1289700 1290066 1297709 1308610 1319910 
3412.242 1329814 1337525 1342543 1344504 1342676 1337757 1331044 1325393 
3416.100 1324629 1332572 1350786 1379271 1415404 1454997 1493298 1525882 
3419.957 1549956 1563789 1566649 1558801 1540912 1515009 1483323 1449878 
3423.814 1418097 1390373 1366640 1345402 1322103 1292857 1255372 1211046 
3427.672 1164764 1123935 1097326 1091148 1108421 1147555 1203138 1267734 
3431.529 1332506 1390407 1435948 1465636 1478336 1474745 1456460 1426707 
3435.387 1389443 1349024 1309840 1276075 1251019 1236897 1234803 1244373 
3439.244 1263580 1289601 1318148 1345136 1366873 1381465 1389642 1394263 
3443.102 1399614 1410717 1431327 1462677 1504004 1551885 1600636 1644038 
3446.959 1676035 1692134 1690803 1672941 1642242 1603895 1563956 1528675 
3450.816 1503239 1492101 1497520 1520795 1561063 1615901 1682487 1755572 
3454.674 1828602 1894090 1943944 1972069 1975897 1957457 1922378 1879547 
3458.531 1837685 1802250 1776165 1757934 1744826 1734547 1726629 1723702 
3462.389 1728891 1744660 1769644 1799721 1828535 1850696 1863175 1867733 
3466.246 1869364 1874622 1888166 1911228 1940749 1971337 1996700 2012512 
3470.104 2016973 2011214 1996900 1976562 1951533 1923210 1892991 1864239 
3473.961 1841113 1828369 1829134 1843808 1869431 1900546 1930698 1954262 
3477.818 1967942 1970338 1961584 1942879 1914623 1877351 1832362 1781788 
3481.676 1729091 1678563 1634226 1599239 1574730 1560431 1555542 1558735 
3485.533 1569043 1585238 1605425 1626477 1645168 1657907 1662797 1660668 
3489.391 1654149 1647197 1643505 1644736 1650290 1657009 1660335 1656577 
3493.248 1643040 1619892 1589362 1556008 1523953 1497919 1481062 1474479 
3497.105 1477206 1486881 1499216 1510088 1516106 1514743 1505732 1491003 
3500.963 1473349 1456626 1443594 1435117 1430031 1425842 1419360 1408257 
3504.820 1392202 1371726 1348858 1325792 1304788 1287607 1276640 1272885 
3508.678 1276740 1287008 1300534 1313761 1323067 1326091 1322834 1315257 
3512.535 1306084 1297876 1292292 1288770 1286144 1282987 1279066 1276308 
3516.393 1278102 1288205 1308676 1338821 1375183 1411182 1440370 1457424 
3520.250 1459951 1448847 1427405 1401442 1376612 1357832 1349058 1351318 
3524.107 1363583 1383725 1408091 1432890 1454665 1470490 1478236 1477106 
3527.965 1466766 1448082 1422485 1391437 1357001 1321804 1288670 1260157 
3531.822 1238326 1223340 1213870 1207690 1202473 1197224 1193370 1194533 
3535.680 1205098 1228623 1265208 1310704 1357301 1396191 1420357 1425975 
3539.537 1414074 1390041 1362153 1339020 1327388 1331077 1349490 1378407 
3543.395 1411282 1440104 1457989 1460383 1446487 1419692 1385487 1350454 
3547.252 1320475 1298374 1284715 1278833 1278900 1283519 1291727 1302694 
3551.109 1314360 1324230 1328086 1322402 1305320 1278501 1245968 1214202 
3554.967 1188851 1173834 1170545 1176724 1188486 1202174 1214734 1226330 
3558.824 1238060 1251185 1265873 1279863 1288770 1289036 1279598 1263414 
3562.682 1247331 1240718 1251950 1285181 1337990 1399747 1451540 1469925 
3566.539 1436680 1348027 1219087 1076831 948967 852779 793522 768627 770585 
3570.879 790667 820046 851517 879737 901750 917057 927218 935685 946344 
3575.218 962416 986293 1018208 1056072 1096064 1133203 1161541 1176791 
3579.076 1176226 1161375 1136924 1110580 1090716 1084172 1093905 1118354 
3582.933 1152272 1187057 1214834 1229288 1227294 1209252 1179349 1144266 
3586.791 1111710 1088191 1077396 1078891 1090550 1109085 1132173 1157189 
3590.648 1181342 1201377 1213970 1216495 1208122 1190612 1167953 1145860 
3594.505 1128917 1119417 1116925 1118819 1122240 1124931 1125928 1124566 
3598.363 1120247 1111710 1097193 1075868 1048632 1019039 992835 975301 
3602.220 970419 978854 998182 1024120 1052152 1078857 1102840 1125230 
3606.078 1148020 1173402 1202075 1231580 1257366 1274978 1282256 1281791 
3609.935 1279963 1285081 1304290 1342842 1400379 1471188 1543638 1603064 
3613.792 1637818 1643472 1622785 1583808 1535724 1485385 1436680 1389975 
3617.650 1343042 1292492 1236066 1175661 1115995 1063312 1021762 992370 
3621.507 973176 961055 953782 950628 952554 962483 982640 1014655 1058164 
3625.847 1111079 1169880 1230583 1288504 1336627 1367438 1372490 1349157 
3629.704 1302030 1239156 1167721 1093041 1018906 950229 891823 849160 825955 
3634.044 822934 836611 862207 895209 932398 973176 1017644 1065239 1113736 
3638.384 1159382 1196892 1221911 1231315 1224204 1202374 1169880 1132671 
3642.241 1097060 1068826 1051853 1047403 1054178 1069092 1087228 1102409 
3646.098 1108421 1100515 1076831 1041291 1004824 979452 974404 991474 
3649.956 1022626 1055640 1080551 1093539 1095134 1089055 1078127 1064309 
3653.813 1047934 1027574 1001470 968659 929874 889100 852613 825755 812477 
3658.153 814103 829839 857427 893881 934091 972711 1004824 1026080 1034482 
3662.492 1031493 1020002 1004990 991607 984633 987323 1002267 1029932 
3666.350 1070653 1122938 1184332 1249790 1309973 1352448 1363483 1336228 
3670.207 1276873 1204600 1140445 1098157 1083574 1095997 1131974 1184565 
3674.065 1242745 1288670 1300734 1267036 1195662 1109285 1026777 957900 
3677.922 905170 867519 844745 836810 842919 861145 888237 918750 947440 
3682.262 970087 983371 986260 980282 968460 954546 942260 933925 931003 
3686.601 934489 944817 962483 986492 1012596 1033951 1040760 1024652 982109 
3690.941 916924 838536 759731 694248 651871 637635 651240 687478 737361 
3695.281 788643 830104 852048 849758 824660 783730 737029 695111 669492 
3699.620 668861 699326 761590 849260 948569 1041690 1114567 1160644 1181974 
3703.960 1186226 1183502 1183070 1190712 1208587 1235235 1265408 1292425 
3707.817 1309640 1312133 1298075 1268864 1230052 1189515 1155295 1132838 
3711.675 1123569 1124898 1131509 1139116 1145063 1148020 1147853 1144332 
3715.532 1136392 1122838 1101943 1072879 1036309 995824 957535 928845 918020 
3719.872 930040 966467 1023057 1090483 1154897 1201643 1220881 1209019 
3723.729 1170179 1113404 1051089 994330 951425 926620 918950 923233 932630 
3728.069 941629 946012 944617 937445 926221 914700 907328 910184 928679 
3732.408 965272 1018175 1082877 1151109 1214468 1266139 1302728 1324862 
3736.266 1337657 1345036 1348160 1344537 1329847 1300268 1255439 1199151 
3740.123 1139415 1087593 1055341 1051521 1082246 1147853 1241715 1344637 
3743.980 1426341 1459086 1435682 1374152 1300700 1234903 1184997 1153335 
3747.838 1139116 1139714 1151309 1167123 1178385 1176026 1155262 1118852 
3751.695 1078060 1045576 1033420 1046340 1082644 1135528 1196061 1254940 
3755.553 1302528 1331376 1337126 1319478 1282987 1234803 1182871 1133170 
3759.410 1088225 1048333 1013326 982872 957966 939836 929509 927483 933427 
3763.750 946809 966268 991075 1019869 1051920 1086398 1121808 1155528 
3767.607 1183369 1199583 1198553 1176392 1134964 1082179 1030862 992470 
3771.465 974139 976364 994961 1022858 1051920 1075270 1088922 1092078 
3775.322 1087959 1082511 1082677 1092975 1114999 1144996 1174697 1192904 
3779.179 1190678 1165129 1122141 1072447 1026943 993931 975699 971150 977227 
3783.519 989282 1003164 1016448 1027807 1036940 1043018 1044413 1038535 
3787.376 1024386 1002068 974936 948702 930372 925723 937578 964608 1002234 
3791.716 1043649 1082212 1112906 1133369 1142438 1139914 1125463 1099353 
3795.573 1063180 1023057 988684 971382 980648 1020965 1092011 1189183 
3799.431 1304522 1424213 1528376 1594616 1606822 1567347 1495525 1415703 
3803.288 1342743 1281558 1231248 1188652 1151574 1120513 1097559 1086065 
3807.146 1087261 1098721 1115530 1133070 1148119 1159182 1166325 1169714 
3811.003 1170578 1170312 1171143 1175794 1187157 1208155 1241050 1285314 
3814.861 1337292 1389044 1431494 1458854 1472717 1480530 1490904 1509589 
3818.718 1539249 1577357 1616799 1644304 1644869 1609715 1543871 1462577 
3822.575 1381332 1309840 1250953 1205198 1171608 1148850 1135329 1128220 
3826.433 1124366 1120280 1115098 1109551 1107092 1110913 1123104 1143202 
3830.290 1167222 1189316 1203603 1207922 1205995 1206826 1220150 1253279 
3834.148 1306682 1373255 1437976 1482592 1489142 1446453 1355273 1230484 
3838.005 1098290 986227 915828 895409 920610 979684 1058928 1145960 1229288 
3842.345 1299836 1350188 1375482 1375881 1356303 1324696 1289169 1256170 
3846.202 1228091 1204467 1182970 1160677 1136226 1110248 1084969 1064242 
3850.060 1051255 1047303 1051853 1061286 1069723 1071517 1064707 1054544 
3853.917 1051554 1060622 1079954 1103239 1122606 1131675 1125795 1104202 
3857.774 1069092 1027010 986658 957634 949001 966169 1008677 1070122 1136857 
3862.114 1191808 1220283 1213505 1173767 1113205 1051687 1007913 992071 
3865.971 1003994 1035911 1078592 1123104 1163468 1196028 1217791 1227859 
3869.829 1227826 1221645 1214236 1209351 1209218 1214468 1225101 1239024 
3873.686 1253910 1265541 1271157 1269595 1262716 1253279 1245271 1242114 
3877.544 1246500 1259593 1280927 1306915 1331276 1346897 1348792 1338156 
3881.401 1321505 1308045 1306350 1320840 1351650 1394063 1438142 1469260 
3885.259 1473715 1445423 1390706 1323466 1258164 1204035 1164498 1139249 
3889.116 1126193 1123370 1128187 1137688 1148020 1154232 1151774 1138319 
3892.973 1115264 1086896 1060489 1043450 1041690 1059260 1096263 1150312 
3896.831 1215797 1285712 1353345 1412678 1459618 1492234 1509955 1513147 
3900.688 1503272 1483323 1457025 1429964 1407193 1391869 1384124 1380468 
3904.546 1375814 1366275 1350720 1330744 1309441 1288304 1267136 1244141 
3908.403 1216661 1183635 1146591 1110414 1082943 1072214 1083574 1117988 
3912.260 1171043 1234803 1299737 1358796 1406728 1440469 1458422 1458289 
3916.118 1437511 1394528 1330778 1252149 1169116 1094370 1040029 1014622 
3919.975 1020733 1054079 1105299 1162006 1213638 1251617 1272253 1276009 
3923.833 1267501 1253744 1242213 1237827 1241582 1250886 1261154 1267668 
3927.690 1266804 1257466 1240818 1220648 1202008 1188917 1184266 1187755 
3931.548 1196526 1206427 1213837 1216894 1216163 1213638 1211843 1213139 
3935.405 1218322 1227792 1241283 1258263 1278003 1299903 1322701 1344770 
3939.262 1364114 1378407 1385022 1382063 1367970 1342776 1308244 1267668 
3943.120 1226563 1190213 1163833 1150976 1154465 1175196 1212441 1262982 
3946.977 1320541 1376645 1420989 1444259 1441433 1412811 1364613 1307480 
3950.835 1253611 1213139 1192572 1192971 1210847 1239887 1273084 1305885 
3954.692 1336660 1366940 1399382 1435317 1472651 1505766 1526248 1526846 
3958.550 1503771 1459452 1401875 1342709 1294452 1265474 1258463 1270293 
3962.407 1293156 1317351 1335630 1344139 1342510 1333569 1321306 1310006 
3966.264 1303193 1302993 1310205 1323599 1339785 1353711 1360558 1356303 
3970.122 1340017 1315024 1288537 1269063 1264278 1278235 1309707 1352082 
3973.979 1395692 1431427 1452404 1456826 1447451 1430530 1412745 1398850 
3977.837 1391005 1388346 1387282 1383360 1373155 1353910 1326025 1292292 
3981.694 1257632 1227626 1207125 1199051 1202806 1214900 1229919 1242479 
3985.552 1248959 1248461 1243011 1236664 1232976 1234205 1240519 1250222 
3989.409 1260889 1271024 1280362 1290165 1301897 1316054 1331908 1347795 
3993.266 1361688 1372989 1382163 1390938 1400844 1412445 1424446 1434718 
3997.124 1440436 1440902 1436480 1429798 1423316 1418861 1416069 1413509 
##END=
