##TITLE=cetvrtomas_2 Sep 25 11:48:53 2026 (GMT+02:00)
##JCAMP-DX=5.01  $$ Nicolet v. 1
##DATATYPE=INFRARED SPECTRUM
##ORIGIN=Vojna akademija
##OWNER=Nicolet
##LONGDATE=2026/09/25
##TIME=11:49:28
##SPECTROMETER/DATA SYSTEM=Nicolet iS20
##DATA PROCESSING=
Ratio against background
%Transmittance->Absorbance
Truncated
ElementMultiply or ElementDivide
##COMMENTS=
Number of sample scans: 8
Collection length: 11,90 sec
Sample gain: 8,0
Background collected on: Fri Sep 25 11:48:03 2026 (GMT+02:00);
Number of background scans: 8
Background gain: 8,0
Sample spacing:  1,000
Number of scan points: 12415
Resolution points: 8286
Number of FFT points: 65536
Apodization: N-B strong;
Phase correction: Mertz;
Laser frequency: 15798,00 cm-1
Number of rejected sample scans: 0
Number of rejected background scans: 0
Bench serial number: BER2010005;
##RESOLUTION= 4,000
##XUNITS=1/CM
##YUNITS=ABSORBANCE
##FIRSTX=400.156891
##LASTX=4000.123047
##FIRSTY=0.023698
##MAXX=4000.123047
##MINX=400.156891
##MAXY=0.261137
##MINY=0.000367
##XFACTOR=1.000000
##YFACTOR=1.000000E-009
##NPOINTS=7468
##DELTAX=0.482117
##ZPD=6100
##XYDATA=(X++(Y..Y))
400.157 23698288 21423664 19354892 17343616 15385861 13582159 12037007 
403.532 10811673 9887742 9190023 8642321 8217595 7956216 7941098 8238632 
407.389 8859033 9744415 10804031 11951649 13156504 14454965 15922306 
410.763 17606498 19474952 21379668 23096730 24394388 25127166 25326272 
414.138 25201846 25073596 25237558 25930856 27287684 29354942 32061648 
417.513 35168084 38180644 40322716 40882552 39651888 37057660 33793580 
420.888 30471418 27495374 25075210 23345078 22355504 22067246 22337540 
424.263 22928648 23569674 24017674 24137138 23896982 23350534 22600428 
427.638 21786184 21070352 20606794 20536232 20941576 21825274 23103544 
431.012 24627240 26225212 27745542 29107670 30296016 31326342 32195688 
434.387 32835934 33108544 32859198 31981890 30511406 28634854 26652882 
437.762 24856956 23459460 22562976 22162848 22184432 22517956 23054312 
441.137 23682226 24296262 24795666 25081564 25084828 24790124 24249730 
444.512 23568310 22873568 22285776 21879318 21672382 21623692 21652250 
447.886 21656950 21549728 21278742 20823302 20195720 19437318 18626038 
451.261 17867228 17288100 17004666 17069382 17444702 18001380 18569700 
454.636 18974736 19096974 18906344 18480524 17997650 17691250 17773536 
458.011 18309484 19172182 20090282 20790072 21063502 20821250 20087922 
461.386 18979132 17677722 16390732 15321326 14604551 14297795 14395365 
464.761 14862317 15661713 16756440 18094880 19571610 21011612 22200122 
468.135 22908530 22976016 22352958 21114630 19435690 17551880 15719151 
471.510 14139108 12941836 12172813 11817580 11843390 12230610 12971912 
474.885 14045498 15382770 16855252 18270052 19429314 20179304 20465650 
478.260 20349796 19972898 19485104 18973490 18451966 17878138 17207634 
481.635 16445650 15670128 15010189 14603933 14528004 14768139 15220357 
485.009 15746085 16220650 16582945 16840064 17031854 17185536 17287170 
488.384 17278274 17088474 16676415 16060226 15317928 14565624 13914785 
491.759 13425646 13098482 12877016 12685617 12456075 12154889 11781593 
495.134 11356236 10903910 10449780 10024437 9667704 9432303 9375622 9538912 
498.991 9933540 10526561 11241836 11959107 12542966 12877869 12896710 
502.366 12611284 12106438 11517857 10981893 10616327 10498759 10652795 
505.740 11049354 11604526 12198098 12686094 12949722 12925895 12623223 
509.115 12116387 11521974 10975776 10593340 10459623 10606344 11002997 
512.490 11555490 12124598 12560667 12720416 12514933 11933462 11066654 
515.865 10092224 9247052 8761719 8769901 9277515 10155374 11203822 12206038 
519.722 13006905 13543016 13826594 13913827 13866547 13734248 13551187 
523.097 13355355 13203193 13162242 13296725 13624997 14092626 14562267 
526.471 14860842 14850658 14479664 13807199 12972525 12148994 11474376 
529.846 11030491 10826723 10816362 10923889 11078075 11233062 11362324 
533.221 11450051 11480091 11436205 11319131 11161358 11034671 11026820 
536.596 11215280 11627362 12223588 12900363 13527805 14001216 14268348 
539.971 14347383 14302658 14211580 14122198 14039611 13933568 13768481 
543.346 13531053 13249445 12983143 12804766 12764909 12869951 13079495 
546.720 13325766 13543016 13688082 13752373 13750731 13705658 13630433 
550.095 13524182 13374387 13169107 12905209 12594025 12259885 11938400 
553.470 11667625 11481758 11406407 11447874 11590097 11794394 12012209 
556.845 12196871 12325636 12412909 12510431 12686402 12993112 13437642 
560.220 13966518 14473430 14830156 14944477 14790662 14429412 13978323 
563.594 13578329 13335948 13290029 13411635 13628005 13863229 14068360 
566.969 14241401 14414957 14633439 14922255 15275919 15659411 16029146 
570.344 16346416 16591242 16759401 16855046 16884222 16855046 16788536 
573.719 16721349 16707335 16805310 17051428 17441770 17921712 18409930 
577.094 18825160 19129972 19345990 19545928 19817152 20223110 20773004 
580.469 21412108 22036710 22532194 22821180 22877200 22726832 22425698 
583.843 22040232 21625642 21217154 20837554 20498126 20204712 19958430 
587.218 19753690 19578092 19416598 19260358 19114390 18998690 18940780 
590.593 18964526 19072878 19243146 19428032 19576880 19650786 19632828 
593.968 19525582 19337916 19072704 18725658 18294208 17796422 17282998 
597.343 16845434 16591860 16616130 16966664 17615608 18456496 19323992 
600.717 20057906 20537622 20720802 20640704 20384174 20053116 19727962 
604.092 19457174 19248202 19082086 18931020 18774194 18605322 18431778 
607.467 18268046 18130428 18032292 17981108 17979312 18023070 18100856 
610.842 18191128 18265352 18292204 18243374 18104656 17879658 17592420 
614.217 17280274 16990886 16770285 16650695 16646186 16746212 16918774 
617.592 17113532 17276448 17360100 17331962 17183710 16929350 16600261 
620.966 16234372 15869446 15535113 15248566 15017290 14841470 14718059 
624.341 14644370 14618703 14639162 14702395 14801528 14926439 15062327 
627.716 15192871 15297644 15354657 15345286 15256425 15090423 14867425 
631.091 14629978 14429823 14319746 14338787 14496930 14771944 15110801 
634.466 15447622 15715199 15867693 15891545 15806422 15657144 15501117 
637.840 15396605 15384212 15481992 15680468 15947947 16236849 16497960 
641.215 16697487 16823392 16891698 16937688 17004874 17123940 17301030 
644.590 17512208 17714444 17859184 17912252 17868402 17751926 17608052 
647.965 17482988 17412728 17408142 17456946 17531078 17601944 17649012 
651.340 17665160 17654946 17631516 17610570 17608328 17640936 17723210 
654.715 17864984 18069042 18325866 18615558 18909770 19183888 19423874 
658.089 19631370 19821418 20016926 20238210 20496112 20792052 21119570 
661.464 21470276 21833984 22197996 22542456 22839374 23058224 23173020 
664.839 23170364 23054450 22853030 22624162 22456226 22473116 22780394 
668.214 23379098 24128204 24844186 25422522 25858160 26197970 26497154 
671.589 26799328 27131586 27507198 27929564 28395880 28899032 29427444 
674.963 29964240 30484462 30961896 31376772 31724208 32017556 32284942 
678.338 32557674 32857340 33193838 33565244 33968464 34407456 34895904 
681.713 35450576 36078576 36764852 37467676 38124392 38676364 39086716 
685.088 39357584 39527284 39658536 39814664 40038568 40348680 40736848 
688.463 41181028 41655676 42143800 42636532 43128876 43616536 44092388 
691.838 44550148 44988248 45411928 45831828 46256816 46687784 47114128 
695.212 47516080 47871016 48164896 48396888 48581312 48740348 48898368 
698.587 49074028 49277000 49509664 49770616 50060392 50384480 50753836 
701.962 51181392 51678556 52247704 52877540 53541768 54205096 54827708 
705.337 55378112 55845516 56244516 56615152 57009832 57481000 58058824 
708.712 58744872 59512712 60326608 61156408 61996092 62865356 63801372 
712.086 64835868 65974356 67188216 68422712 69621984 70752944 71827184 
715.461 72898992 74047360 75337392 76798472 78407064 80098928 81783728 
718.836 83375480 84814304 86062680 87098496 87897816 88423472 88633880 
722.211 88494280 87993888 87152920 86018328 84652248 83113480 81457736 
725.586 79730600 77969504 76209720 74480232 72802360 71188280 69640696 
728.961 68156480 66732220 65367148 64064332 62826984 61654172 60538488 
732.335 59465520 58419228 57383160 56344772 55293732 54218984 53108136 
735.710 51947876 50730560 49459608 48155012 46850672 45583316 44385848 
739.085 43274944 42249916 41295176 40390640 39516976 38661476 37818248 
742.460 36985892 36166292 35364120 34591056 33866364 33214048 32655894 
745.835 32200362 31834826 31522148 31212254 30853452 30407696 29864884 
749.209 29243638 28584280 27932566 27329920 26802360 26359682 26000048 
752.584 25715196 25494442 25324270 25188924 25069314 24945242 24801876 
755.959 24633448 24446682 24257824 24088556 23956152 23869188 23826378 
759.334 23819202 23836912 23868838 23904896 23932344 23932484 23884240 
762.709 23765442 23564742 23287496 22960994 22626396 22326342 22093672 
766.083 21938874 21849316 21794580 21740966 21658588 21529742 21349840 
769.458 21121936 20852330 20547870 20216722 19870738 19526274 19202728 
772.833 18915862 18671660 18462926 18271816 18073912 17847030 17578828 
776.208 17269208 16929246 16576748 16233547 15920484 15655564 15452944 
779.583 15317688 15242629 15205739 15173725 15106993 14970610 14747331 
782.958 14441743 14080510 13701623 13344182 13035209 12785998 12597128 
786.332 12465828 12394260 12391942 12469851 12631341 12863296 13134818 
789.707 13399947 13612449 13740779 13774638 13726792 13624826 13499947 
793.082 13374695 13261127 13163744 13084345 13027390 12999667 13004139 
796.457 13035243 13077071 13107326 13105994 13066281 12998097 12926236 
799.832 12876539 12866231 12895447 12948664 13002842 13040672 13059076 
803.206 13068569 13086496 13124470 13181027 13241076 13284461 13297989 
806.581 13285656 13270488 13287399 13365538 13520661 13744507 14011824 
809.956 14286872 14539619 14752370 14920266 15045211 15129876 15171906 
813.331 15166450 15112653 15021199 14916357 14835607 14818602 14895439 
816.706 15079239 15361179 15711626 16085120 16433777 16711019 16878574 
820.081 16913194 16807136 16573858 16245311 15871817 15511042 15214765 
823.455 15023190 14953531 15001547 15144320 15351533 15591402 15837932 
826.830 16075321 16294571 16491456 16664296 16812782 16937620 17039608 
830.205 17119322 17174264 17200082 17191190 17147170 17077586 17006252 
833.580 16966146 16995986 17125938 17367342 17707542 18111322 18531802 
836.955 18919774 19241828 19484514 19655984 19777860 19878646 19984486 
840.329 20112838 20272024 20461030 20670832 20884938 21082458 21240674 
843.704 21338146 21362788 21314306 21206160 21059952 20902288 20755730 
847.079 20634972 20546968 20493436 20474124 20490276 20544640 20638168 
850.454 20767340 20921862 21085518 21239770 21371036 21474038 21552862 
853.829 21617492 21678440 21740650 21799944 21843462 21854402 21818584 
857.204 21729608 21592316 21423700 21249270 21095326 20985424 20931424 
860.578 20932224 20972002 21027262 21072370 21087290 21065030 21014532 
863.953 20959900 20931112 20959242 21065622 21256262 21520028 21832242 
867.328 22160788 22470918 22735980 22939966 23079224 23162046 23204440 
870.703 23226846 23246176 23272990 23306970 23339064 23353154 23333504 
874.078 23270646 23163548 23020002 22851704 22669646 22478350 22277092 
877.452 22063342 21838444 21612688 21405738 21240954 21139712 21113066 
880.827 21158358 21261240 21400448 21554706 21707178 21847816 21971042 
884.202 22073138 22149596 22195206 22206610 22184292 22134536 22064876 
887.577 21981776 21886774 21775906 21642672 21484482 21307348 21128128 
890.952 20971236 20860150 20811346 20827474 20897246 20998048 21103500 
894.327 21190260 21240606 21245198 21200732 21109136 20975724 20810198 
897.701 20626770 20442934 20278516 20151398 20074630 20056100 20096840 
901.076 20193222 20336394 20514590 20711976 20910424 21092058 21241440 
904.451 21349318 21414858 21444794 21449808 21438458 21414404 21375562 
907.826 21318378 21244468 21165490 21104474 21090562 21145764 21277384 
911.201 21470208 21690526 21892488 22035280 22096184 22075194 21993452 
914.575 21883672 21778518 21696204 21638528 21589808 21525530 21418478 
917.950 21249720 21013732 20722366 20402650 20092848 19836540 19669090 
921.325 19609498 19653488 19775294 19932238 20078900 20182774 20231440 
924.700 20237028 20227378 20236092 20286014 20381152 20505734 20632644 
928.075 20732654 20785276 20784928 20740542 20669996 20593764 20532064 
931.450 20501530 20514522 20579032 20695296 20853962 21033868 21207690 
934.824 21347194 21433828 21467736 21469824 21476578 21525182 21644414 
938.199 21841300 22101482 22394264 22686858 22955998 23193990 23409626 
941.574 23621590 23848954 24103196 24386956 24694504 25016802 25343940 
944.949 25666754 25975562 26256748 26494160 26670498 26771276 26791610 
948.324 26738292 26630582 26495674 26366618 26275686 26247068 26295750 
951.698 26421300 26608000 26825162 27036544 27207494 27316088 27362560 
955.073 27370782 27384122 27448286 27601250 27857768 28205156 28606576 
958.448 29015348 29388196 29694730 29925440 30087730 30200102 30282054 
961.823 30350982 30418604 30490682 30568566 30648420 30722740 30778790 
965.198 30803618 30786686 30725016 30625664 30504546 30382998 30279248 
968.573 30206246 30168632 30163908 30186002 30226990 30278502 30328348 
971.947 30361536 30359972 30306924 30194846 30030632 29837876 29648860 
975.322 29498470 29410958 29392628 29432232 29507584 29596216 29682704 
978.697 29764346 29847742 29941910 30050552 30168632 30283440 30382040 
982.072 30456420 30508916 30550684 30598216 30665452 30759514 30877822 
985.447 31010362 31141908 31255726 31338732 31381972 31384252 31352554 
988.821 31303622 31259998 31243408 31268620 31335350 31426888 31513632 
992.196 31566504 31567148 31518262 31442952 31378374 31359748 31405016 
995.571 31509784 31648680 31788088 31898652 31968194 32003074 32021944 
998.946 32042562 32073204 32108664 32135814 32142952 32129646 32109950 
1002.321 32109700 32155440 32264422 32439298 32668504 32932184 33209756 
1005.695 33487182 33755688 34007484 34231964 34411476 34525076 34557296 
1009.070 34504700 34382352 34221248 34065108 33955424 33924972 33990788 
1012.445 34150984 34388736 34677072 34988260 35296260 35582504 35838100 
1015.820 36062120 36260184 36439848 36606032 36757532 36887480 36987156 
1019.195 37052864 37092376 37127420 37187120 37302496 37492780 37757776 
1022.570 38076464 38413920 38732908 39003192 39212352 39364224 39473252 
1025.945 39555412 39622268 39678680 39724720 39760916 39790184 39818548 
1029.320 39851556 39890348 39929140 39955732 39956456 39919192 39838120 
1032.695 39713828 39552436 39363716 39159084 38952992 38761052 38598824 
1036.070 38479084 38407220 38378412 38377216 38382716 38372984 38332952 
1039.446 38258220 38154128 38030712 37897100 37757560 37611384 37457132 
1042.821 37297984 37144348 37014324 36928348 36900896 36936720 37027424 
1046.196 37156472 37303544 37454024 37604304 37762332 37943848 38166356 
1049.571 38443784 38781380 39174712 39611236 40074868 40548812 41019856 
1052.947 41481528 41934024 42383960 42841384 43315836 43811328 44323536 
1056.322 44838956 45339172 45804616 46220288 46579772 46883996 47139352 
1059.697 47352952 47532608 47686008 47823148 47958444 48106592 48276972 
1063.072 48467788 48662696 48832848 48946876 48985336 48949064 48862880 
1066.448 48766112 48702688 48702760 48776456 48916836 49108864 49342624 
1069.823 49622084 49963356 50389316 50915268 51540604 52245796 52999076 
1073.198 53770764 54540820 55308220 56086552 56897368 57759008 58681300 
1076.573 59665200 60706116 61796940 62930308 64096280 65279068 66456208 
1079.949 67604520 68705224 69754792 70766584 71767528 72783712 73830744 
1083.324 74905512 75989064 77054512 78080816 79061448 80004152 80924304 
1086.699 81834888 82742056 83646704 84550952 85467496 86417504 87425632 
1090.074 88504840 89645224 90807552 91932344 92959240 93838728 94549840 
1093.450 95096728 95500752 95784624 95966104 96057152 96066872 96006848 
1096.825 95890680 95726552 95512472 95234056 94872088 94414784 93869448 
1100.200 93263808 92638120 92023824 91429744 90836184 90208072 89513352 
1103.575 88746376 87935872 87140968 86428456 85847424 85420456 85142024 
1106.951 84994392 84965256 85060040 85299704 85707264 86288552 87021888 
1110.326 87858712 88742512 89622784 90474960 91301584 92121344 92951072 
1113.701 93792752 94630664 95440976 96203048 96907864 97555488 98141816 
1117.076 98644480 99020224 99208168 99155504 98838336 98272632 97507256 
1120.452 96605744 95623872 94591856 93518728 92405400 91261112 90115384 
1123.827 89013544 88000344 87108776 86347768 85708952 85181536 84769232 
1127.202 84501320 84430888 84614280 85097888 85899872 87008568 88391312 
1130.577 90011864 91847016 93888912 96141112 98605016 101266336 104094760 
1133.953 107047648 110083040 113173680 116305648 119470448 122651584 
1136.846 125811128 128891992 131832648 134579152 137104048 139406320 
1139.739 141501920 143408352 145137344 146694880 148089584 149343888 
1142.632 150493200 151572816 152605280 153586112 154486992 155270096 
1145.525 155913488 156427472 156856960 157259632 157684976 158152096 
1148.418 158647104 159137184 159599648 160042864 160511936 161071056 
1151.311 161773376 162637760 163636816 164707024 165771232 166772384 
1154.204 167682080 168500560 169239440 169906096 170494912 170994736 
1157.097 171401840 171731184 172012928 172278592 172538848 172771344 
1159.990 172922496 172933104 172759120 172394288 171869136 171235488 
1162.883 170537264 169790672 168981216 168076784 167050176 165895440 
1165.776 164632320 163295056 161915776 160508864 159071952 157593712 
1168.669 156068608 154503968 152917568 151327200 149739152 148144400 
1171.562 146525104 144868432 143178480 141479296 139805392 138182448 
1174.455 136614464 135078272 133535176 131945952 130292312 128583000 
1177.349 126851248 125135776 123467472 121859120 120305944 118794856 
1180.242 117314448 115861872 114439832 113050368 111689608 110346536 
1183.135 109009440 107674752 106352496 105063872 103833464 102678608 
1186.028 101599520 100579744 99592984 98615744 97633552 96644936 95655592 
1189.403 94671168 93690248 92706040 91709904 90699872 89682936 88674232 
1192.778 87688224 86731864 85801152 84885288 83974192 83067784 82178184 
1196.153 81326648 80531416 79799160 79119968 78473080 77835504 77194640 
1199.529 76554048 75930776 75345592 74810480 74323288 73868024 73425000 
1202.904 72980120 72533656 72099816 71699752 71349880 71055384 70807888 
1206.279 70591952 70391704 70197864 70009560 69829544 69658048 69489256 
1209.654 69311872 69115360 68897000 68665904 68439904 68239640 68079656 
1213.030 67961536 67875296 67805104 67738304 67671112 67610832 67571888 
1216.405 67570336 67616632 67714560 67861464 68052328 68281168 68542160 
1219.780 68828704 69131296 69438600 69741104 70034392 70322240 70614368 
1223.155 70923072 71254600 71605856 71963760 72311816 72636304 72933288 
1226.531 73209096 73475464 73742232 74011528 74276344 74526456 74754632 
1229.906 74962456 75159848 75359664 75569744 75786712 75997432 76184448 
1233.281 76337320 76457544 76558592 76659264 76772728 76897656 77017720 
1236.656 77105912 77138128 77099104 76987608 76812040 76582184 76302208 
1240.032 75968976 75575856 75120144 74608760 74058912 73490296 72918152 
1243.407 72345160 71762016 71150536 70494464 69787248 69034792 68253480 
1246.782 67462424 66679792 65916964 65180496 64474456 63803056 63171668 
1250.157 62586316 62050288 61563140 61121276 60719188 60350516 60009204 
1253.533 59689188 59382696 59080560 58775224 58463460 58150300 57849400 
1256.908 57579424 57354160 57177160 57036276 56907452 56760652 56573516 
1260.283 56338852 56066344 55775548 55485888 55207672 54939336 54672104 
1263.658 54398128 54117112 53838348 53575128 53337392 53126372 52933680 
1267.034 52745608 52551252 52347864 52142520 51947204 51771724 51618476 
1270.409 51480840 51347608 51209764 51066516 50926260 50803480 50709928 
1273.784 50648896 50613196 50588512 50558472 50511124 50441748 50349580 
1277.159 50233620 50087832 49900500 49658412 49354132 48991532 48587392 
1280.535 48166156 47753204 47363408 46997812 46643664 46281104 45890156 
1283.910 45458064 44983068 44473828 43946080 43418388 42911016 42440912 
1287.285 42021836 41661836 41362556 41119280 40922452 40761448 40628048 
1290.660 40517892 40431844 40372784 40341624 40334860 40342240 40349444 
1294.036 40342280 40309960 40249684 40166044 40069708 39972152 39883992 
1297.411 39812264 39759756 39725408 39705404 39692660 39676792 39646120 
1300.786 39588332 39494224 39360448 39190560 38994348 38784132 38572316 
1304.161 38368056 38176776 38002248 37847604 37715852 37609144 37526340 
1307.536 37460708 37400716 37333984 37250940 37150916 37042760 36943288 
1310.912 36871428 36841204 36857864 36914820 36997544 37086856 37166148 
1314.287 37224804 37257332 37263504 37244404 37202352 37140484 37064696 
1317.662 36981816 36898376 36816788 36733736 36639524 36522016 36372040 
1321.037 36186780 35971008 35733724 35484480 35229276 34968224 34698104 
1324.413 34414808 34117688 33810236 33499028 33190370 32888826 32595746 
1327.788 32312676 32044988 31803240 31603492 31462152 31389378 31384606 
1331.163 31435184 31519938 31615074 31704138 31782098 31856328 31941622 
1334.538 32055046 32208216 32405558 32642856 32911486 33202496 33508118 
1337.914 33823452 34144676 34466280 34781160 35082440 35365812 35631096 
1341.289 35881104 36119084 36345880 36560508 36761684 36950572 37132904 
1344.664 37318132 37515972 37731612 37962216 38196208 38417212 38610920 
1348.039 38769240 38893452 38990504 39069384 39134068 39181784 39205428 
1351.415 39199116 39162964 39106220 39042956 38989164 38955672 38944948 
1354.790 38952668 38971984 38998588 39033132 39080768 39146540 39231612 
1358.165 39331756 39438636 39542636 39638316 39724284 39803476 39879268 
1361.540 39952388 40019528 40076356 40122108 40162956 40209076 40269968 
1364.916 40347768 40437224 40526840 40605164 40665160 40708976 40747368 
1368.291 40795624 40864460 40954968 41058092 41162704 41264568 41374696 
1371.666 41520356 41742808 42087652 42586536 43243280 44020876 44850824 
1375.041 45653132 46362092 46935416 47341976 47552640 47534084 47253416 
1378.417 46697380 45884488 44868052 43715788 42493856 41247152 39995948 
1381.792 38750040 37519364 36322144 35183824 34124600 33150028 32247934 
1385.167 31391658 30550258 29702182 28848746 28014020 27234692 26541566 
1388.542 25946578 25444094 25019504 24658486 24349702 24084844 23855570 
1391.918 23651994 23463342 23281590 23105642 22945906 22821950 22753542 
1395.293 22750332 22806164 22903952 23024018 23152436 23282112 23410256 
1398.668 23535394 23654444 23763098 23857706 23936474 23999710 24045828 
1402.043 24068138 24053920 23984548 23840694 23612390 23308648 22960156 
1405.419 22609678 22298648 22052884 21879806 21775036 21733128 21755108 
1408.794 21853286 22047516 22358366 22797470 23360462 24025904 24760480 
1412.169 25531866 26311134 27077026 27814492 28507920 29142038 29703494 
1415.544 30182590 30575926 30884474 31107736 31235112 31242482 31102290 
1418.920 30807422 30393658 29930836 29487406 29107846 28803638 28563580 
1422.295 28367194 28194194 28033142 27887976 27776272 27721420 27740456 
1425.670 27838162 28011796 28258408 28582192 28995864 29517054 30159220 
1429.045 30920762 31780172 32698766 33632296 34545492 35415992 36236592 
1432.421 37009888 37743212 38445628 39128700 39804928 40490580 41202700 
1435.796 41952016 42728436 43499576 44223152 44869632 45435512 45936304 
1439.171 46394868 46834616 47273920 47723728 48185260 48651096 49108272 
1442.546 49542416 49945660 50318216 50668820 51011548 51363608 51742160 
1445.922 52163552 52644380 53198572 53835312 54556488 55355980 56228712 
1449.297 57178900 58222732 59387636 60699488 62169676 63779996 65481244 
1452.672 67210000 68898984 70508144 72028008 73468248 74842680 76142552 
1456.047 77312128 78246552 78855072 79149304 79239088 79258848 79283152 
1459.422 79329968 79393648 79467960 79553160 79654760 79777856 79920704 
1462.798 80067936 80191856 80244744 80163760 79879872 79315208 78394408 
1466.173 77054112 75240144 72935752 70169744 67024648 63603268 60015976 
1469.548 56341000 52576908 48663548 44505836 40063816 35465032 31049150 
1472.923 27225378 24225030 22009938 20365110 19045630 17886252 16808238 
1476.299 15805494 14903943 14127196 13473800 12920160 12434662 11991226 
1479.674 11575805 11185292 10821084 10482874 10165414 9861337 9566043 
1483.049 9282593 9018881 8785285 8587873 8425244 8287667 8161309 8033638 
1486.907 7898581 7757966 7617363 7479536 7341248 7194615 7036919 6878774 
1490.764 6740576 6641078 6587182 6571977 6580051 6593238 6594449 6572213 
1494.621 6521286 6444402 6349275 6246673 6144061 6042616 5939179 5831267 
1498.479 5720528 5612503 5511819 5421425 5340543 5267390 5201089 5143919 
1502.336 5099831 5074922 5074152 5100434 5153106 5227884 5314849 5394687 
1506.194 5437798 5415386 5324443 5194148 5061078 4947183 4859789 4802093 
1510.051 4774924 4775996 4798542 4830772 4858984 4871147 4862502 4834659 
1513.909 4794656 4749699 4704411 4659229 4610636 4555552 4495085 4437773 
1517.766 4394962 4375315 4381774 4411162 4455716 4501412 4529335 4520864 
1521.623 4468704 4381808 4278832 4176016 4082354 4001387 3935680 3887235 
1525.481 3856178 3840199 3833613 3830538 3828365 3829869 3841135 3868513 
1529.338 3915118 3979249 4055597 4137511 4218170 4291782 4352422 4391079 
1533.196 4396401 4359818 4282145 4175380 4056366 3941197 3841736 3768968 
1537.053 3730968 3732138 3769737 3830170 3886232 3905489 3875634 3818404 
1540.911 3772177 3755800 3761515 3768400 3759911 3730334 3686021 3641579 
1544.768 3611375 3601452 3608034 3621031 3631255 3632625 3624372 3608268 
1548.625 3588022 3566641 3546129 3527021 3510687 3499464 3497560 3508349 
1552.483 3532433 3566173 3601118 3626711 3635565 3628214 3614282 3607867 
1556.340 3622601 3669179 3751790 3860022 3954705 3974802 3891548 3748615 
1560.198 3605161 3488040 3398634 3333019 3290984 3276094 3293588 3346208 
1564.055 3429024 3527021 3617456 3680942 3707776 3700724 3669581 3625876 
1567.912 3576529 3522144 3457112 3376461 3283272 3190370 3113841 3064385 
1571.770 3045532 3054175 3085108 3132796 3193975 3266814 3349781 3436873 
1575.627 3513860 3560093 3560126 3515096 3441949 3361134 3288347 3230059 
1579.485 3186331 3152354 3121550 3088945 3054008 3021375 2999722 2997119 
1583.342 3017772 3059981 3116911 3178788 3235834 3281536 3312285 3327043 
1587.200 3325741 3308779 3278999 3241342 3204757 3178822 3170477 3181258 
1591.057 3205391 3232763 3251357 3254294 3241275 3218643 3195678 3179489 
1594.914 3171145 3165738 3155658 3136234 3109335 3083639 3069524 3075430 
1598.772 3102094 3143476 3187700 3223416 3245248 3256331 3266647 3287545 
1602.629 3326642 3382338 3444487 3497894 3529126 3530195 3500332 3445556 
1606.487 3376060 3304473 3242844 3201819 3187767 3201719 3238505 3288480 
1610.344 3339397 3380468 3405781 3416267 3419573 3426085 3445322 3483030 
1614.202 3538011 3601853 3660191 3695912 3697115 3666373 3620797 3581908 
1618.059 3561863 3561963 3578133 3606263 3644553 3694442 3757304 3831374 
1621.916 3908631 3974066 4009279 4004095 3963600 3905623 3849157 3808911 
1625.774 3789825 3790159 3803396 3822549 3842104 3860490 3879345 3900875 
1629.631 3926185 3954104 3982660 4010014 4036032 4061584 4088508 4118244 
1633.489 4150290 4182506 4211512 4235635 4257685 4286328 4330769 4393522 
1637.346 4471617 4560474 4657186 4760184 4868768 4981972 5095640 5204343 
1641.203 5301902 5383784 5450213 5506081 5560413 5623881 5707233 5819447 
1645.061 5966489 6147859 6354789 6568714 6765749 6927488 7049480 7137215 
1648.918 7199365 7243802 7278202 7311897 7359378 7443637 7595513 7841155 
1652.776 8156920 8437778 8570299 8546204 8429095 8277333 8119378 7964956 
1656.633 7816358 7673478 7538499 7415560 7308595 7221094 7152171 7096595 
1660.491 7044024 6981122 6894664 6775542 6625164 6456946 6291348 6146716 
1664.348 6033881 5956076 5911502 5898033 5913786 5956714 6022054 6100913 
1668.205 6177669 6232152 6248219 6222505 6168426 6107600 6060592 6038081 
1672.063 6041676 6068320 6112405 6168863 6232824 6299652 6366322 6432330 
1675.920 6499894 6573525 6656756 6749898 6849556 6948462 7037020 7104780 
1679.778 7146276 7164601 7173123 7190640 7238849 7337743 7502898 7735400 
1683.635 8004611 8246601 8402002 8465447 8473489 8464468 8458150 8461495 
1687.493 8476327 8504168 8549348 8618324 8716146 8844424 8998787 9171275 
1691.350 9353244 9539082 9728455 9925369 10138416 10378747 10657650 10981180 
1695.207 11340795 11707824 12044536 12325329 12548867 12728128 12880805 
1698.583 13023532 13177885 13373363 13634535 13961830 14322896 14677065 
1701.958 15001168 15290985 15552903 15796216 16030004 16259689 16482439 
1705.333 16686434 16856044 16981788 17067660 17130834 17194602 17279928 
1708.708 17400658 17561024 17756242 17977206 18217630 18479106 18772950 
1712.084 19115776 19521978 19994476 20519802 21064648 21585072 22046716 
1715.459 22443212 22811682 23224852 23777062 24528888 25466088 26507930 
1718.834 27559304 28568464 29537518 30501026 31504866 32594066 33807008 
1722.209 35171032 36700524 38395964 40244992 42227160 44321300 46508480 
1725.585 48779456 51140612 53623932 56294756 59251084 62603764 66440336 
1728.960 70773960 75507760 80456208 85401464 90228832 95016352 100102960 
1732.335 106076088 113716600 123671464 135790096 148729600 160625888 
1735.228 170415792 178249888 184876464 191039264 197279312 203921680 
1738.121 211105872 218772928 226691680 234470480 241672752 247942000 
1741.014 253043920 256865584 259401344 260755536 261136976 260800816 
1743.907 259964176 258691792 256879920 254313232 250793664 246234144 
1746.800 240718928 234448144 227670656 220536048 213030176 204989632 
1749.693 196253984 186827472 176958336 167108656 157761744 149232880 
1752.587 141584912 134685776 128307536 122206368 116173320 110043592 
1755.480 103713040 97184984 90591848 84174488 78196720 72829864 68109496 
1758.855 63950032 60195392 56661504 53177828 49637020 46034432 42493052 
1762.230 39208836 36354348 33996236 32088078 30509876 29127618 27825514 
1765.605 26529308 25211080 23889456 22616134 21448414 20427688 19558682 
1768.981 18815472 18157200 17550570 16975588 16423490 15891442 15374772 
1772.356 14868283 14374712 13903290 13467341 13075398 12725330 12404011 
1775.731 12091652 11770052 11431376 11083649 10748427 10449916 10206729 
1779.106 10021453 9879234 9750888 9608791 9441649 9257545 9076665 8917101 
1782.964 8786028 8675547 8567899 8444095 8295806 8127649 7954428 7789236 
1786.821 7637225 7493088 7346471 7189562 7022573 6855851 6705882 6587721 
1790.679 6506520 6450893 6397424 6321067 6213732 6089153 5972469 5883826 
1794.536 5829790 5804470 5795202 5789594 5781569 5773544 5772839 5787143 
1798.393 5817969 5858805 5896589 5917682 5912644 5879326 5821394 5742586 
1802.251 5643786 5523933 5384220 5231640 5080085 4946144 4840791 4765510 
1806.108 4707861 4647675 4563019 4442761 4292820 4137411 4009111 3938622 
1809.966 3943137 4018876 4142429 4279836 4401890 4489494 4536969 4546578 
1813.823 4522773 4468236 4384820 4277595 4156211 4036467 3936784 3870486 
1817.681 3842438 3846483 3869048 3893319 3905656 3897966 3867009 3813189 
1821.538 3739056 3649665 3553144 3462489 3395562 3369348 3394327 3466297 
1825.395 3567108 3669581 3751790 3804030 3827830 3831507 3823451 3806036 
1829.253 3774182 3718904 3635398 3529894 3418705 3318629 3240007 3184429 
1833.110 3145178 3110804 3069991 3017271 2954283 2889936 2834303 2794417 
1836.968 2770373 2756869 2745198 2730093 2711022 2692584 2680982 2679915 
1840.825 2689584 2706354 2724425 2738163 2743997 2740496 2727859 2706620 
1844.682 2677348 2641777 2604708 2572810 2553545 2550978 2564244 2586109 
1848.540 2604342 2606508 2586709 2548279 2504453 2472862 2471496 2511685 
1852.397 2594975 2712522 2848043 2981072 3091915 3164970 3187967 3152988 
1856.255 3058212 2909749 2723458 2522250 2333526 2180882 2078660 2031653 
1860.112 2034316 2074831 2138092 2212052 2286991 2356479 2415816 2459999 
1863.970 2484525 2487024 2469596 2439173 2405987 2382132 2377035 2395425 
1867.827 2435375 2489624 2547779 2599975 2639477 2661612 2662912 2640077 
1871.684 2591042 2518150 2428277 2333393 2247255 2180615 2137726 2115484 
1875.542 2103697 2089447 2063279 2020501 1962816 1896386 1829034 1766850 
1879.399 1713889 1670779 1635590 1604726 1572635 1534228 1484786 1422651 
1883.257 1351019 1278069 1216960 1180877 1181209 1223938 1310105 1436513 
1887.114 1598075 1786180 1987480 2182547 2344020 2442139 2455467 2376568 
1890.972 2217747 2005521 1773969 1551818 1359295 1205563 1089520 1005621 
1894.829 949797 923399 933792 988817 1090550 1230284 1390473 1549191 1687810 
1899.169 1800220 1895088 1993039 2115484 2275599 2468996 2675448 2861952 
1903.026 2996786 3060615 3049937 2976334 2859317 2719591 2571410 2423513 
1906.883 2280729 2146117 2024529 1921978 1843442 1790605 1759963 1743529 
1910.741 1731287 1715519 1693730 1669282 1649359 1643639 1660269 1703510 
1914.598 1771607 1857018 1948437 2031487 2092910 2122909 2117881 2080458 
1918.456 2018104 1937254 1838983 1720375 1579053 1420224 1262251 1138585 
1922.313 1086431 1136093 1291960 1528642 1798457 2051627 2249420 2371304 
1926.171 2417615 2400523 2336758 2237597 2108825 1955061 1786612 1627342 
1930.028 1509423 1464738 1510587 1639148 1817721 1996900 2133497 2202994 
1933.885 2212885 2194702 2193136 2242726 2354114 2513518 2691117 2856715 
1937.743 2992082 3097388 3185130 3267615 3345440 3401907 3410055 3347544 
1941.600 3209897 3022977 2835537 2703953 2665446 2728793 2874326 3067422 
1945.458 3270920 3454974 3602655 3705470 3758207 3755934 3692404 3564569 
1949.315 3375059 3135433 2863953 2581642 2310774 2069937 1876186 1742863 
1953.172 1680592 1694329 1780890 1928501 2114918 2310974 2488091 2618242 
1957.030 2683216 2672947 2585475 2426078 2211420 1972568 1753077 1608252 
1960.887 1586968 1712558 1973034 2316371 2663779 2924360 3030317 2951481 
1964.745 2707787 2355446 1973400 1636887 1395958 1272253 1258961 1333869 
1968.602 1472584 1659371 1888432 2160069 2473995 2825998 3203588 3589859 
1972.460 3960524 4285358 4529603 4651626 4615157 4400451 4017606 3511689 
1976.317 2953115 2417982 1963448 1618595 1387581 1263680 1241449 1325859 
1980.174 1526547 1849099 2281828 2789181 3312018 3784310 4150056 4379666 
1984.032 4478212 4476739 4412802 4312664 4184580 4022254 3814058 3559124 
1987.889 3272422 2983340 2729593 2541113 2437241 2421680 2484525 2602508 
1991.747 2745465 2882431 2982039 3017905 2973065 2840172 2623742 2339656 
1995.604 2011613 1664293 1322967 1012164 756578 585873 531994 621641 869379 
1999.944 1265973 1773770 2325198 2840039 3243278 3482462 3549770 3476283 
2003.801 3321333 3145746 2995785 2889502 2816860 2747632 2650278 2507719 
2007.659 2323166 2121044 1938919 1819285 1793466 1876885 2058785 2303912 
2011.516 2555678 2746065 2817394 2733761 2502287 2173622 1835489 1578055 
2015.373 1470922 1536988 1744926 2014309 2246889 2367140 2345586 2206924 
2019.231 2009849 1821282 1684550 1608717 1568744 1526846 1452870 1344670 
2023.088 1230883 1162305 1189183 1336394 1591524 1903574 2204959 2430610 
2026.946 2545812 2557311 2508552 2461898 2477094 2587742 2789881 3043564 
2030.803 3291819 3482362 3583411 3596140 3551006 3495088 3466297 3478721 
2034.661 3514027 3533268 3487038 3340232 3086443 2748699 2372437 2007020 
2038.518 1698055 1475710 1355506 1344404 1442630 1644836 1940549 2311507 
2042.375 2727226 3147448 3529092 3828365 4015131 4078675 4028708 3890678 
2046.233 3698753 3492716 3307578 3175717 3120015 3147481 3248185 3392123 
2050.090 3537143 3632892 3637637 3525652 3295492 2971163 2593775 2214683 
2053.948 1876519 1607320 1412944 1281392 1189416 1114733 1048964 999843 
2057.805 988917 1043085 1182439 1407825 1694828 1995003 2252018 2413950 
2061.662 2451002 2365841 2197466 2008551 1864872 1819951 1892359 2062979 
2065.520 2282128 2492556 2647511 2727093 2740997 2719624 2696818 2692151 
2069.377 2704687 2713822 2693384 2624009 2507519 2366374 2237697 2154475 
2073.235 2133930 2169127 2232035 2282794 2286125 2224241 2100534 1937055 
2077.092 1764355 1613506 1507229 1456294 1462710 1522623 1629304 1773104 
2080.949 1941182 2113852 2266040 2371471 2408486 2367307 2254350 2090612 
2084.807 1904273 1723768 1568910 1444924 1345235 1257433 1172970 1095067 
2088.664 1040693 1034350 1100548 1249491 1470390 1730155 1985649 2194735 
2092.522 2330995 2392660 2403522 2402489 2424712 2489024 2584409 2675114 
2096.379 2707954 2635876 2434408 2111455 1705406 1275776 887739 590750 
2100.237 415202 366749 431619 583385 791564 1029866 1274513 1508027 1717149 
2104.576 1890529 2021433 2106860 2149147 2154841 2134463 2099835 2062613 
2108.434 2033217 2018703 2021433 2037179 2055788 2061248 2035814 1965512 
2112.291 1844673 1680159 1488776 1296646 1129383 1005322 931800 903942 
2116.148 908291 926985 945779 957136 961984 967464 985263 1027475 1102409 
2120.488 1214136 1359860 1529839 1705905 1865105 1981888 2032352 2002226 
2124.345 1891494 1718047 1513081 1316487 1166558 1088158 1088856 1154299 
2128.203 1255040 1350287 1402506 1385819 1291162 1128785 926022 722491 
2132.060 557904 468337 475667 584048 779381 1032955 1309973 1573466 1796560 
2136.400 1966044 2083854 2163066 2223109 2281529 2348317 2424646 2502754 
2140.257 2570876 2617709 2637710 2634143 2620475 2616775 2644877 2723791 
2144.115 2862352 3057345 3291619 3541085 3776589 3972260 4111855 4190836 
2147.972 4216865 4205055 4174109 4139418 4109246 4081417 4043557 3971993 
2151.830 3837624 3612110 3277897 2839439 2329562 1817388 1395160 1158850 
2155.687 1188818 1519598 2129268 2934134 3814760 4633944 5276848 5686218 
2159.544 5860955 5842954 5683532 5424881 5091349 4698282 4268727 3838260 
2163.402 3454406 3166272 3003025 2968795 3035756 3158896 3285910 3378966 
2167.259 3424315 3428490 3408820 3376328 3328078 3243779 3094485 2857382 
2171.117 2531281 2143819 1751047 1419260 1214900 1178120 1310704 1572435 
2174.974 1892692 2191705 2399423 2480226 2436441 2307244 2148781 2021600 
2178.832 1966643 1995302 2087882 2203860 2296618 2327597 2282628 2172756 
2182.689 2029522 1889264 1782786 1724800 1714088 1736443 1775533 1821381 
2186.546 1872392 1936622 2026460 2152710 2318902 2521783 2751033 2995618 
2190.404 3244046 3486571 3712354 3907194 4052152 4127275 4117542 4018107 
2194.261 3839363 3607332 3354790 3116110 2917555 2769873 2668880 2598408 
2198.119 2540280 2478860 2408086 2329395 2249020 2170659 2094208 2014776 
2201.976 1928834 1838917 1758666 1708799 1712658 1783684 1916221 2082089 
2205.833 2237530 2337124 2347485 2262377 2106727 1932295 1796893 1750349 
2209.691 1816490 1987647 2226306 2479193 2695385 2834669 2880296 2838138 
2213.548 2732327 2594275 2457400 2352715 2301980 2320301 2412284 2571243 
2217.406 2776743 2998354 3199216 3340232 3391655 3340065 3191639 2971931 
2221.263 2720257 2481926 2294252 2182114 2149713 2181714 2243225 2291621 
2225.121 2288790 2207756 2044869 1820184 1576027 1361156 1220216 1179814 
2228.978 1238425 1368302 1522258 1650290 1709597 1678928 1563025 1389675 
2232.835 1199616 1035479 934058 915364 982839 1123237 1311335 1513912 
2236.693 1697223 1833659 1905538 1909565 1859181 1782154 1713390 1686313 
2240.550 1724800 1835190 2005022 2205691 2403222 2563177 2661946 2690684 
2244.408 2655145 2570576 2457933 2338756 2230603 2146050 2091511 2066775 
2248.265 2064877 2072201 2072467 2047699 1984684 1879547 1740269 1585305 
2252.123 1439738 1329947 1275676 1286011 1357666 1476840 1621854 1768114 
2255.980 1892359 1972934 1992573 1941182 1816989 1631200 1407193 1181010 
2259.837 990876 871105 842421 905104 1039033 1210248 1383094 1528509 1633095 
2264.177 1698487 1736443 1759265 1772539 1771840 1746722 1687377 1592754 
2268.034 1475410 1361223 1282456 1266073 1327853 1465004 1657541 1871560 
2271.892 2070570 2221644 2301747 2304179 2238563 2129402 2009882 1917485 
2275.749 1883141 1922744 2032419 2187176 2348084 2471129 2524016 2494056 
2279.607 2393127 2250586 2104896 1987547 1911961 1871860 1845638 1809536 
2283.464 1746955 1657907 1558103 1472884 1424446 1424313 1468096 1539182 
2287.322 1614637 1675070 1711261 1725032 1726064 1726130 1733316 1749317 
2291.179 1769644 1787477 1797392 1797259 1789207 1777130 1764355 1752278 
2295.036 1739570 1724267 1704874 1682654 1661000 1644437 1637253 1641510 
2298.894 1656610 1680192 1707801 1735611 1760063 1778361 1788841 1790272 
2302.751 1782021 1764221 1737907 1704974 1667786 1629803 1594084 1563823 
2306.609 1541976 1530471 1530404 1541211 1561096 1586868 1615502 1645035 
2310.466 1675902 1710895 1753775 1808105 1874455 1948670 2021899 2083421 
2314.323 2121177 2127004 2098004 2037845 1955227 1861977 1770410 1690105 
2318.181 1627109 1584274 1560996 1555676 1566549 1593453 1636721 1696990 
2322.038 1773071 1860013 1950002 2031520 2091645 2120278 2110389 2060615 
2325.896 1975031 1862775 1736942 1612309 1504868 1428901 1394927 1409254 
2329.753 1471221 1572435 1697356 1826639 1940117 2022631 2068040 2079459 
2333.611 2068373 2048231 2030954 2022165 2019203 2014709 2000994 1975397 
2337.468 1943511 1917518 1912892 1940516 2002026 2086817 2175320 2246623 
2341.325 2282361 2275333 2228804 2155574 2070437 1987314 1915255 1857584 
2345.183 1813662 1780757 1755173 1732983 1709531 1679926 1639315 1584374 
2349.040 1514477 1433222 1347861 1270193 1214701 1193270 1213039 1272021 
2352.898 1359993 1461214 1559899 1645900 1714487 1767316 1808039 1840580 
2356.755 1865105 1880678 1886302 1883906 1880712 1888133 1917585 1976962 
2360.613 2064777 2170459 2274267 2356279 2401522 2406220 2379300 2340056 
2364.470 2309808 2301647 2316604 2340255 2349450 2318602 2231502 2087716 
2368.327 1903275 1706138 1528908 1399781 1334699 1335630 1391670 1483988 
2372.185 1590493 1692333 1777729 1842444 1889863 1927470 1964214 2004623 
2376.042 2047699 2084819 2103730 2090346 2035714 1939717 1812664 1672708 
2379.900 1540745 1435017 1364945 1329548 1318913 1319810 1320342 1314758 
2383.757 1305054 1298374 1303858 1326490 1366009 1416501 1469792 1517736 
2387.615 1556972 1588863 1617032 1644503 1671311 1692932 1702745 1695493 
2391.472 1670214 1632563 1593419 1564920 1555443 1567580 1596047 1630601 
2395.329 1659304 1673939 1671844 1657209 1637585 1622187 1617530 1625047 
2399.187 1640678 1656444 1662397 1648960 1609914 1544170 1456028 1355007 
2403.044 1254675 1169681 1112407 1090517 1105099 1150843 1216595 1289634 
2406.902 1358630 1415471 1458023 1488078 1510321 1529772 1548992 1567879 
2410.759 1583276 1590460 1584773 1563723 1527578 1480264 1427837 1377443 
2414.616 1335697 1306915 1292658 1292359 1303924 1325327 1355805 1395293 
2418.474 1443628 1499714 1558835 1613772 1654947 1673008 1662630 1623716 
2422.331 1562825 1490205 1418662 1358364 1314393 1286377 1269429 1257233 
2426.189 1244706 1230550 1217857 1212674 1221845 1251019 1301930 1373388 
2430.046 1459652 1553281 1645701 1727561 1790571 1828036 1834924 1809503 
2433.904 1754108 1675502 1584340 1494528 1419992 1372191 1358298 1378839 
2437.761 1428236 1495292 1566882 1630667 1677199 1702379 1706969 1695161 
2441.618 1672941 1645069 1614670 1582744 1549358 1515042 1482525 1456726 
2445.476 1443561 1448780 1475111 1521426 1581846 1646765 1706105 1750448 
2449.333 1773803 1775067 1756969 1724800 1684151 1639514 1592388 1541809 
2453.191 1486116 1424878 1361090 1302728 1260091 1245237 1266438 1324795 
2457.048 1411914 1511817 1604261 1669582 1696192 1683119 1640678 1585771 
2460.906 1537387 1510454 1510254 1532698 1566350 1597077 1611345 1601101 
2464.763 1563756 1501643 1420424 1327720 1232012 1142007 1066700 1014289 
2468.620 990876 998747 1035711 1095898 1170445 1250521 1328950 1400445 
2472.478 1461946 1510820 1544237 1559034 1553148 1526780 1483456 1430131 
2476.335 1374418 1321605 1273682 1227726 1178551 1121775 1057168 991009 
2480.193 934855 901783 902979 943389 1020135 1122938 1237960 1350886 1449412 
2484.532 1525915 1576526 1600337 1599106 1576559 1538584 1492832 1448548 
2488.390 1414706 1397720 1400911 1422950 1459452 1504203 1551752 1598574 
2492.247 1643339 1686346 1728126 1768646 1806409 1839083 1863574 1876818 
2496.104 1876186 1859082 1824143 1771574 1704209 1628439 1554744 1494461 
2499.962 1458688 1454399 1481495 1532732 1595016 1653716 1695959 1715153 
2503.819 1711494 1691402 1663661 1636587 1614936 1598873 1585571 1571671 
2507.677 1556108 1541011 1531568 1534261 1553614 1590194 1639514 1693431 
2511.534 1742564 1778827 1798590 1803281 1798423 1791470 1788974 1794298 
2515.392 1807407 1825274 1843442 1859315 1872159 1884106 1897883 1915755 
2519.249 1937121 1958788 1975198 1981189 1973900 1954262 1926571 1897451 
2523.106 1873590 1859381 1856220 1862642 1875986 1893391 1912493 1931730 
2526.964 1948337 1957624 1953663 1929100 1879547 1805211 1713489 1617697 
2530.821 1534926 1481794 1467963 1494129 1550654 1621388 1686546 1730189 
2534.679 1744327 1730255 1697589 1660302 1632530 1623317 1634958 1662996 
2538.536 1699086 1733349 1758167 1770376 1770543 1762392 1750382 1737740 
2542.394 1725864 1714055 1701381 1687410 1673573 1663861 1662031 1671677 
2546.251 1692799 1721739 1750814 1770676 1772738 1751513 1707202 1646166 
2550.108 1579286 1519165 1477605 1462677 1476374 1515574 1572735 1638550 
2553.966 1703144 1758067 1797392 1816723 1814128 1789740 1746423 1689739 
2557.823 1629038 1575528 1540313 1532998 1557671 1612143 1687510 1771142 
2561.681 1849066 1909565 1946174 1958156 1949203 1925373 1892892 1856353 
2565.538 1818919 1782786 1751413 1729424 1722903 1737142 1774801 1833526 
2569.396 1906702 1983386 2051860 2103730 2134629 2146583 2145351 2138425 
2573.253 2131366 2125206 2116050 2096705 2059750 2000761 1921446 1830731 
2577.110 1743595 1676301 1643905 1654581 1707568 1792435 1892226 1987547 
2580.968 2060649 2101233 2107493 2086218 2049230 2010315 1980623 1965545 
2584.825 1964613 1972502 1982620 1988379 1987180 1979325 1968441 1958422 
2588.683 1952731 1952165 1955660 1960453 1964181 1965845 1966377 1968674 
2592.540 1976329 1992673 2019170 2055089 2097538 2142521 2185710 2223309 
2596.397 2253650 2275533 2289323 2295652 2294586 2286292 2271036 2250053 
2600.255 2226340 2204193 2188741 2184145 2192204 2210754 2234932 2257880 
2604.112 2273401 2278531 2274600 2266606 2261744 2265474 2279863 2301081 
2607.970 2321567 2332494 2326198 2300415 2257913 2206524 2156273 2115117 
2611.827 2088715 2077861 2080658 2093476 2113985 2140656 2173489 2211986 
2615.685 2254882 2298449 2338457 2370405 2391827 2403088 2407253 2408886 
2619.542 2411685 2417982 2426945 2436174 2442572 2444405 2441939 2438507 
2623.399 2438573 2447370 2468596 2503787 2551512 2607708 2666313 2720924 
2627.257 2765905 2797385 2814426 2819428 2817828 2816560 2822163 2838838 
2631.114 2866855 2902044 2936535 2961555 2969429 2956585 2924193 2878395 
2634.972 2828366 2783512 2752134 2738963 2745231 2768940 2805989 2851112 
2638.829 2898541 2942874 2979304 3003725 3014068 3010298 2994984 2972598 
2642.687 2949145 2930464 2920857 2922592 2935935 2958653 2987678 3019841 
2646.544 3051806 3080503 3103562 3119247 3126722 3126622 3120982 3113574 
2650.401 3107667 3106399 3110970 3120415 3132029 3142675 3150685 3156059 
2654.259 3161365 3170678 3188101 3216106 3254395 3300166 3348813 3395529 
2658.116 3436672 3470572 3497259 3517835 3533468 3544492 3550538 3551474 
2661.974 3547699 3540851 3534403 3532299 3538112 3553912 3579269 3611509 
2665.831 3645689 3677132 3701059 3715328 3719739 3716765 3709814 3703030 
2669.688 3700290 3704334 3716197 3735848 3761883 3792466 3825390 3858585 
2673.546 3890009 3917625 3939559 3953970 3958752 3953067 3936851 3911273 
2677.403 3879278 3844945 3812220 3785146 3765827 3754664 3749918 3748147 
2681.261 3745974 3740126 3729297 3714058 3697115 3681877 3672120 3670115 
2685.118 3676397 3689062 3703966 3716531 3721611 3715763 3697282 3667576 
2688.976 3629952 3589559 3552810 3524950 3510019 3509184 3520674 3539815 
2692.833 3559926 3574291 3577364 3566674 3543156 3511355 3477485 3447526 
2696.690 3425384 3411992 3404679 3398668 3389384 3373389 3349982 3321400 
2700.548 3291085 3263008 3239606 3221847 3209163 3200517 3195043 3192807 
2704.405 3194309 3200184 3210598 3224851 3242010 3261172 3281903 3304639 
2708.263 3330215 3358563 3388650 3418004 3443619 3463391 3476450 3484032 
2712.120 3488541 3492783 3498328 3505209 3511889 3516733 3519104 3520407 
2715.978 3523647 3531765 3546697 3567609 3590895 3610941 3623503 3626477 
2719.835 3621398 3612511 3605862 3606263 3615785 3633761 3656950 3681877 
2723.692 3705871 3728195 3749818 3772211 3796243 3821546 3846282 3868613 
2727.550 3886332 3898434 3904553 3904720 3898669 3885864 3866039 3839597 
2731.407 3808443 3776188 3747144 3725521 3714125 3713156 3721177 3735012 
2735.265 3751322 3766796 3779564 3788087 3791730 3789959 3783575 3773915 
2739.122 3763354 3755366 3752725 3757003 3767498 3781369 3794337 3802426 
2742.979 3803730 3798683 3790293 3782204 3777157 3775386 3774450 3770105 
2746.837 3758307 3737352 3708745 3677032 3648696 3630119 3625575 3636668 
2750.694 3662129 3698820 3742766 3789992 3837090 3880615 3917458 3944708 
2754.552 3960290 3963634 3956411 3942167 3925449 3910972 3901978 3899203 
2758.409 3900908 3904018 3904887 3901076 3892283 3880214 3868613 3861560 
2762.267 3862797 3874598 3897198 3928859 3965907 4004563 4040447 4070179 
2766.124 4091953 4105366 4112190 4114632 4116036 4119214 4126105 4137846 
2769.981 4154973 4177454 4205657 4240420 4282748 4333547 4392953 4459231 
2773.839 4529369 4598647 4661841 4714694 4754590 4782093 4800083 4814188 
2777.696 4830839 4855868 4893028 4942960 5003859 5070699 5137884 5199815 
2781.554 5252432 5293987 5325247 5348829 5368453 5388145 5411293 5440046 
2785.411 5475478 5517188 5563836 5613509 5664431 5714888 5763840 5811353 
2789.269 5857832 5904617 5952717 6003442 6057467 6114959 6175753 6239580 
2793.126 6306073 6374862 6445545 6517485 6589739 6661871 6733173 6803477 
2796.983 6873254 6943244 7014087 7086963 7162411 7241140 7324230 7412931 
2800.841 7508898 7613182 7726057 7845676 7968669 8090447 8206587 8313875 
2804.698 8412002 8503459 8593246 8686804 8788632 8900934 9023279 9153001 
2808.556 9286587 9421400 9556017 9691150 9828121 9969170 10115895 10269218 
2812.413 10429824 10598704 10777298 10968029 11173393 11395318 11634100 
2815.788 11887793 12152095 12421160 12689062 12950745 13204082 13449945 
2819.164 13692937 13940001 14200043 14481583 14791039 15131900 15503590 
2822.539 15902439 16322711 16758438 17205496 17662436 18130772 18614660 
2825.914 19119134 19648462 20205440 20790558 21402572 22039428 22699636 
2829.289 23383016 24091324 24828118 25597758 26404784 27252932 28143852 
2832.665 29078122 30054954 31074030 32136566 33246740 34413268 35648828 
2836.040 36968864 38391548 39934880 41616104 43452372 45459716 47655132 
2839.415 50056972 52684592 55558560 58698256 62119440 65833820 69846632 
2842.790 74157048 78756760 83631520 88761248 94116784 99664544 105362640 
2846.166 111160024 117002576 122825208 128554720 134114192 139414720 
2849.059 144365072 148876176 152859664 156240512 158956560 160959536 
2851.952 162216864 162710432 162437696 161412656 159669520 157263008 
2854.845 154262512 150754704 146830992 142579904 138089936 133437392 
2857.738 128691536 123916984 119167744 114495168 109943632 105547272 
2860.631 101333032 97318624 93513424 89923376 86552400 83405464 80490856 
2864.006 77817984 75396600 73234624 71334376 69691848 68295544 67127888 
2867.381 66164040 65374196 64725324 64178512 63694344 63233600 62757336 
2870.757 62234716 61641992 60966108 60205176 59367692 58470364 57533348 
2874.132 56579556 55630224 54702992 53814044 52976992 52204392 51509712 
2877.507 50905656 50404312 50015512 49744048 49589736 49546948 49606820 
2880.882 49759024 49994920 50309844 50702372 51174196 51727040 52360652 
2884.258 53072044 53854212 54698184 55595388 56539244 57525972 58554796 
2887.633 59626616 60742588 61902772 63105336 64346940 65623120 66928728 
2891.008 68259096 69610440 70980120 72366960 73771288 75194360 76637720 
2894.383 78102824 79589968 81098072 82625584 84171144 85734832 87318584 
2897.759 88926272 90562504 92231264 93935096 95674464 97449232 99260184 
2901.134 101110448 103006192 104955672 106968080 109050200 111205528 
2904.027 113433032 115729024 118089232 120511256 122997056 125553432 
2906.920 128191304 130923632 133764056 136723536 139810960 143031440 
2909.813 146387456 149878608 153502320 157254064 161127008 165112112 
2912.706 169198368 173371424 177613856 181904992 186217360 190518848 
2915.599 194770928 198926784 202937984 206752032 210316832 213586512 
2918.492 216518656 219077008 221231792 222955600 224226080 225025408 
2921.385 225343904 225181792 224550928 223473632 221977136 220091152 
2924.278 217844352 215262832 212374128 209209408 205804096 202199152 
2927.171 198434528 194545072 190558768 186494816 182367424 178190992 
2930.064 173980976 169756576 165536784 161335936 157162848 153020048 
2932.958 148907680 144828608 140791344 136811600 132909360 129102512 
2935.851 125403968 121819200 118346536 114982320 111723792 108571904 
2938.744 105532448 102612632 99818792 97155024 94622144 92219216 89945184 
2942.119 87800264 85785648 83903160 82152440 80532264 79039864 77673424 
2945.494 76433128 75322224 74345384 73506704 72806904 72241256 71798760 
2948.869 71465088 71223064 71055536 70947304 70883016 70846808 70821736 
2952.245 70787256 70723112 70610352 70432856 70180256 69846776 69429960 
2955.620 68928184 68338904 67658600 66883624 66011728 65044196 63986428 
2958.995 62848120 61641456 60379604 59075776 57740544 56382236 55006952 
2962.370 53617788 52216948 50805044 49383016 47952488 46515928 45077412 
2965.746 43642660 42219164 40815460 39441644 38107392 36822052 35592684 
2969.121 34422772 33312310 32256498 31248712 30279994 29343350 28433836 
2972.496 27549948 26693542 25868852 25080722 24333302 23628972 22967702 
2975.871 22346784 21761658 21206438 20675384 20162920 19665656 19181774 
2979.247 18712406 18259892 17827834 17419454 17036438 16678756 16343869 
2982.622 16028939 15730796 15447485 15178186 14923695 14685257 14463837 
2985.997 14260061 14073699 13905377 13756340 13629783 13529583 13460266 
2989.372 13424552 13422742 13452303 13508595 13586192 13681346 13792731 
2992.748 13922483 14074383 14253076 14461303 14699413 14965465 15256116 
2996.123 15568906 15903024 16260274 16643018 17053220 17489302 17945746 
2999.498 18412418 18877414 19327386 19751574 20142096 20494862 20808216 
3002.873 21081726 21315386 21508504 21659668 21767162 21829350 21844716 
3006.249 21811580 21728388 21593742 21406156 21165386 20873188 20532932 
3009.624 20150356 19732088 19284848 18813984 18323170 17814164 17287446 
3012.999 16743286 16182851 15609227 15027408 14444004 13866684 13303046 
3016.374 12759143 12239300 11745133 11275602 10827946 10398736 9985411 
3019.750 9586841 9204203 8840704 8499979 8184471 7894430 7627108 7377779 
3023.607 7140415 6910520 6685827 6467338 6258640 6064590 5890073 5737114 
3027.464 5605253 5490846 5388413 5291572 5194953 5095674 4993669 4891554 
3031.322 4793986 4705583 4629322 4564760 4508142 4452971 4392217 4320696 
3035.179 4236505 4142562 4044694 3949924 3864535 3791596 3730701 3679037 
3039.037 3633661 3592732 3556886 3528124 3508783 3499230 3497025 3497059 
3042.894 3493618 3481828 3459984 3428857 3392189 3353621 3315691 3278665 
3046.751 3241743 3203789 3165204 3128491 3097589 3076532 3067489 3069024 
3050.609 3076832 3084474 3085208 3073962 3048302 3008630 2957786 2900243 
3054.466 2841640 2787981 2744731 2716556 2705587 2710755 2727559 2748832 
3058.324 2766839 2774975 2770807 2756335 2737696 2721858 2715523 2721291 
3062.181 2737029 2757135 2774042 2781778 2777043 2760803 2737262 2712222 
3066.039 2690617 2674981 2665413 2659412 2653411 2644010 2629743 2610908 
3069.896 2589509 2569043 2553411 2545312 2545746 2552612 2561844 2567077 
3073.753 2561311 2539980 2500587 2444771 2377401 2306044 2238196 2180149 
3077.611 2135695 2105895 2089347 2083587 2085885 2093342 2103464 2113719 
3081.468 2121177 2122975 2117049 2102765 2081190 2055256 2028823 2005355 
3085.326 1986881 1973234 1962150 1950301 1934858 1914324 1889963 1865005 
3089.183 1843509 1829367 1824442 1828003 1836388 1844640 1847468 1840647 
3093.041 1822978 1795961 1763756 1732384 1708500 1696857 1700317 1718113 
3096.898 1746456 1779093 1808538 1828036 1833160 1822912 1799721 1769578 
3100.755 1739969 1717548 1706836 1708267 1719011 1733216 1745358 1750848 
3104.613 1748452 1739204 1726430 1714188 1705140 1700317 1699319 1700583 
3108.470 1703144 1706471 1711028 1717415 1725232 1732418 1735511 1730621 
3112.328 1713955 1684151 1642042 1591291 1537221 1485451 1441533 1409520 
3116.185 1391902 1390008 1404002 1432757 1473748 1523455 1576426 1626410 
3120.042 1667253 1693730 1702745 1694429 1671910 1641277 1609781 1584972 
3123.900 1572834 1576027 1593652 1621654 1652918 1680026 1696757 1699019 
3127.757 1686612 1661765 1628938 1592488 1555875 1520961 1488211 1458322 
3131.615 1432092 1410883 1396224 1388578 1386717 1387814 1388811 1387681 
3135.472 1385254 1385720 1395393 1420357 1463309 1521792 1588198 1651255 
3139.330 1698787 1722138 1718213 1690304 1645667 1594350 1545667 1505899 
3143.187 1479001 1466168 1467298 1481229 1506132 1538152 1571671 1599605 
3147.044 1614304 1610779 1587400 1547928 1500280 1453269 1415404 1391071 
3150.902 1379570 1376014 1373155 1364380 1346332 1319212 1287341 1257233 
3154.759 1235103 1225932 1231514 1251351 1282223 1320076 1360790 1400811 
3158.617 1437411 1469226 1495392 1515574 1529639 1537054 1537420 1530471 
3162.474 1516971 1498019 1476242 1454898 1436846 1423881 1415803 1410318 
3166.332 1403371 1390573 1368867 1337923 1300135 1261653 1229288 1209783 
3170.189 1207557 1223273 1253977 1293223 1333503 1367239 1389143 1396623 
3174.046 1390107 1373222 1350155 1325825 1304589 1288936 1280395 1279232 
3177.904 1285413 1298175 1316985 1340615 1366973 1392966 1415005 1429167 
3181.761 1433322 1427272 1413542 1396889 1383194 1377177 1380800 1392933 
3185.619 1409221 1423947 1431926 1430762 1421221 1407459 1394994 1389077 
3189.476 1392933 1406495 1426873 1448880 1467930 1479267 1480597 1471687 
3193.333 1453534 1427970 1397254 1363616 1329016 1295981 1266804 1243975 
3197.191 1229819 1225134 1229620 1240585 1253977 1264178 1265607 1254375 
3201.048 1228922 1191542 1148119 1107624 1079555 1071484 1087793 1126958 
3204.906 1182871 1245271 1303226 1347628 1373022 1378939 1368901 1348792 
3208.763 1324396 1300368 1279498 1262184 1248195 1237096 1228490 1222476 
3212.621 1218455 1214701 1208886 1197755 1179448 1153468 1121975 1089121 
3216.478 1059559 1037239 1024220 1019902 1021629 1025781 1029368 1031062 
3220.335 1031360 1032357 1036210 1043616 1053348 1061917 1065272 1059858 
3224.193 1044314 1021065 995857 976795 971681 986459 1023024 1078359 1145063 
3228.532 1213604 1274380 1319743 1345302 1350686 1338488 1312764 1278534 
3232.390 1240685 1203071 1169448 1143070 1126360 1120712 1126061 1140578 
3236.247 1160843 1182505 1201510 1215166 1221944 1222476 1218256 1210946 
3240.105 1202473 1194134 1187157 1182106 1179482 1178718 1178352 1175462 
3243.962 1166790 1149216 1121609 1085368 1045210 1007016 977659 961885 
3247.820 961818 975899 1000308 1029368 1057433 1080319 1095632 1102641 
3251.677 1102276 1096928 1089387 1082877 1080385 1083441 1091546 1101545 
3255.534 1109218 1109982 1101146 1083541 1062150 1044779 1039099 1050890 
3259.392 1080618 1123436 1170511 1211843 1240020 1251983 1249823 1239223 
3263.249 1226928 1217558 1212441 1208786 1202008 1186758 1159714 1121211 
3267.107 1074705 1026046 982308 950628 936083 941728 967331 1009773 1062947 
3271.446 1119051 1170644 1211145 1236697 1246899 1243709 1230683 1211212 
3275.304 1188020 1162505 1135827 1109484 1085833 1068361 1060456 1063113 
3279.161 1075270 1092443 1108753 1118486 1118121 1107757 1090483 1071118 
3283.019 1053979 1042022 1035080 1031261 1027441 1021563 1012994 1002832 
3286.876 993334 987356 986824 993101 1006418 1026179 1050658 1077130 1102209 
3291.216 1121709 1131642 1129881 1116560 1094669 1069457 1046772 1031294 
3295.073 1025083 1027408 1035811 1046340 1055972 1063412 1068062 1069956 
3298.930 1068328 1061652 1047569 1024984 995525 964143 938640 928579 941031 
3303.270 979219 1040461 1116693 1196094 1266172 1317517 1344205 1345701 
3307.127 1325061 1288737 1243177 1195330 1150578 1113271 1086663 1072812 
3310.985 1072779 1086198 1111145 1143933 1179448 1211445 1234970 1245669 
3314.842 1241748 1223905 1195529 1161275 1127124 1098588 1079190 1071018 
3318.700 1073476 1084039 1099054 1114567 1127356 1135362 1138286 1137090 
3322.557 1133336 1129050 1126293 1126027 1129050 1135030 1142737 1150644 
3326.415 1157521 1162139 1164099 1164199 1163667 1163501 1164265 1165594 
3330.272 1165694 1162704 1155029 1142903 1128120 1113969 1104368 1102807 
3334.129 1110447 1126160 1147388 1170877 1193469 1214202 1232976 1250388 
3337.987 1266505 1279598 1286809 1284649 1270791 1245935 1214335 1184067 
3341.844 1163701 1161740 1182173 1224569 1282456 1345468 1402107 1441400 
3345.702 1456560 1445556 1412645 1365843 1316287 1275277 1250886 1246135 
3349.559 1258862 1281558 1304190 1316952 1314160 1295715 1267269 1238160 
3353.417 1218754 1216362 1232511 1263481 1300999 1336228 1361921 1375449 
3357.274 1378341 1374219 1367438 1360325 1352913 1343374 1329415 1310837 
3361.131 1289667 1269462 1254342 1247098 1248461 1256535 1268498 1281259 
3364.989 1292525 1301166 1306782 1309275 1308344 1304090 1297078 1289069 
3368.846 1282090 1278069 1276773 1275510 1269130 1251484 1219286 1172638 
3372.704 1117656 1064641 1026080 1010902 1024087 1062947 1120015 1184100 
3376.561 1244805 1295483 1332473 1356104 1367937 1369233 1360093 1340782 
3380.418 1312033 1276507 1239256 1206427 1183535 1173568 1176325 1188120 
3384.276 1203371 1216462 1224004 1224503 1218588 1208155 1195396 1181542 
3388.133 1167521 1154132 1142073 1132240 1125296 1121642 1120712 1121941 
3391.991 1124400 1128021 1134000 1144133 1160478 1183535 1212840 1245171 
3395.848 1276241 1300734 1314060 1313894 1299870 1274746 1242878 1209916 
3399.706 1181110 1160976 1152604 1156657 1171608 1193968 1219818 1244008 
3403.563 1262650 1273350 1275377 1269894 1259360 1246733 1234837 1225898 
3407.420 1221546 1222011 1226829 1234239 1241948 1246899 1246899 1240253 
3411.278 1227095 1209052 1189217 1171275 1158551 1153601 1157754 1170844 
3415.135 1192373 1221080 1255306 1292658 1329947 1363051 1386684 1395958 
3418.993 1387382 1360192 1316819 1263414 1208122 1159282 1123469 1104435 
3422.850 1101977 1112806 1131608 1152239 1168784 1176857 1174066 1160777 
3426.708 1139880 1116560 1097625 1089354 1096961 1122473 1164664 1218622 
3430.565 1277238 1333004 1379238 1412246 1431627 1439838 1440702 1438142 
3434.422 1434386 1429831 1422551 1410484 1391537 1366242 1336694 1307513 
3438.280 1283785 1269661 1267501 1276407 1293954 1315423 1336361 1353711 
3442.137 1365477 1371726 1373720 1373986 1375283 1380933 1394562 1419327 
3445.995 1457557 1509988 1573167 1640811 1704741 1756836 1790505 1802882 
3449.852 1794198 1767382 1726596 1676633 1622187 1567613 1517769 1478037 
3453.709 1454366 1451872 1473682 1518567 1580184 1648627 1711427 1757368 
3457.567 1779991 1777962 1755971 1722138 1685947 1655645 1636554 1631765 
3461.424 1641443 1664692 1699851 1744327 1794198 1844207 1887866 1919083 
3465.282 1934093 1932528 1918550 1900512 1887700 1888465 1907568 1943611 
3469.139 1990576 2039043 2078960 2101699 2103131 2083787 2048531 2005288 
3472.997 1963348 1931097 1913858 1913492 1928168 1952831 1980756 2005588 
3476.854 2022765 2030454 2029156 2021799 2011646 2001227 1991341 1981489 
3480.711 1968641 1949769 1922843 1887068 1844939 1799987 1757069 1720641 
3484.569 1693464 1676733 1669781 1670081 1674072 1678064 1678496 1673008 
3488.426 1660867 1643073 1621854 1600536 1583210 1573067 1572469 1581979 
3492.284 1600170 1622685 1643838 1657541 1659204 1646133 1619592 1583742 
3496.141 1544935 1508392 1477970 1454066 1434751 1416734 1397121 1375648 
3499.999 1353910 1335730 1324928 1323532 1331343 1344105 1355705 1360691 
3503.856 1355705 1340582 1318348 1293921 1272021 1256336 1249457 1251850 
3507.713 1262517 1278667 1296081 1309241 1313562 1306117 1287706 1262749 
3511.571 1238193 1222343 1220981 1236398 1265973 1303226 1339452 1366807 
3515.428 1381133 1381964 1373122 1359594 1346199 1335397 1327454 1321006 
3519.286 1315157 1310604 1310072 1316686 1332572 1357001 1385819 1410883 
3523.143 1423781 1418030 1391836 1348094 1294220 1239788 1193270 1161508 
3527.000 1147887 1152272 1171076 1197955 1226363 1249624 1263082 1265076 
3530.858 1256336 1239987 1220316 1202075 1188851 1182671 1184332 1193170 
3534.715 1208321 1228656 1252980 1279265 1304057 1323134 1331442 1325227 
3538.573 1302993 1266837 1222542 1178551 1144897 1129549 1136957 1166624 
3542.430 1214003 1270426 1326490 1374186 1408523 1428801 1437810 1440037 
3546.288 1439505 1437777 1434519 1427571 1415304 1397321 1374884 1350587 
3550.145 1327388 1307812 1292724 1281625 1272752 1264012 1254243 1243842 
3554.002 1234637 1227659 1223705 1221446 1218190 1210913 1197257 1177721 
3557.860 1155860 1137721 1130944 1142272 1174199 1224702 1286244 1348061 
3561.717 1398418 1427571 1429665 1403603 1352448 1282688 1203836 1125695 
3565.575 1058031 1008644 980183 970087 971050 975400 978456 979319 979618 
3569.914 981212 984533 988452 990411 987821 979452 966534 953151 944983 
3574.254 947373 962781 990577 1026179 1063844 1098123 1126193 1147754 
3578.111 1164431 1177588 1187157 1190811 1185163 1167222 1136525 1095931 
3581.969 1051588 1011234 981909 968560 973109 994562 1029667 1074473 1123802 
3586.308 1171309 1210448 1234272 1238724 1224071 1195230 1159382 1123569 
3590.166 1093872 1074174 1066435 1070852 1085667 1107458 1132073 1155063 
3594.023 1173202 1185396 1192639 1197921 1204932 1216528 1234471 1258396 
3597.881 1286344 1314060 1336727 1348626 1344637 1321871 1280329 1222775 
3601.738 1154963 1083940 1016913 960291 920278 901053 906565 938408 996389 
3606.078 1076200 1169747 1265375 1348692 1407692 1435981 1435350 1413875 
3609.935 1381930 1349756 1324263 1309275 1305918 1313063 1327487 1345136 
3613.792 1362087 1375814 1385853 1393697 1401708 1411714 1424778 1439871 
3617.650 1452836 1456792 1444425 1410817 1356669 1289700 1220848 1161408 
3621.507 1119649 1099618 1101379 1122207 1157122 1199417 1242579 1280628 
3625.365 1309142 1326091 1329980 1319611 1291727 1242247 1168750 1075768 
3629.222 978157 893051 832860 801821 798767 821141 864465 922403 985097 
3633.562 1040162 1076499 1087095 1071948 1037206 992570 947905 910914 886776 
3637.901 876517 879040 891823 913106 942027 978655 1023024 1073277 1125629 
3642.241 1174598 1214734 1243044 1259892 1269163 1277039 1290531 1315789 
3646.098 1356004 1408523 1464639 1510155 1530005 1514810 1465869 1394362 
3649.956 1315157 1240486 1176425 1122373 1076134 1035911 1002300 977791 
3653.813 966268 971349 994496 1031958 1073377 1104335 1113238 1096529 
3657.671 1059858 1013127 966667 927749 898696 877347 858290 835515 804311 
3662.010 764544 720633 680177 651041 638995 645367 666571 695709 725578 
3666.350 750371 767698 778850 788211 802153 826187 861909 906133 952089 
3670.689 995392 1037173 1083541 1142804 1222077 1325825 1452404 1590194 
3674.547 1712425 1780657 1769711 1689140 1577490 1469559 1382894 1317849 
3678.404 1266903 1221446 1176126 1130446 1088457 1055474 1035114 1026976 
3682.262 1026279 1025714 1017511 997485 965704 928313 894313 875288 881497 
3686.601 921241 997219 1105863 1233807 1359660 1461713 1524884 1545467 
3690.459 1528908 1485318 1425111 1356170 1285014 1215166 1148950 1087992 
3694.316 1033619 987588 952321 929708 921241 926421 943090 967331 995691 
3698.656 1025581 1056105 1087959 1122141 1159049 1196493 1229387 1251052 
3702.513 1256702 1244473 1216661 1178385 1135661 1093905 1057134 1027475 
3706.371 1005289 990013 981179 979153 986193 1006850 1045742 1106494 1187024 
3710.710 1277803 1360392 1413975 1423482 1385022 1306915 1204268 1094469 
3714.568 991374 905602 843682 807663 796609 806203 831001 863867 899625 
3718.907 935652 971847 1010171 1052385 1099419 1150644 1204002 1256901 
3722.765 1308178 1356902 1402041 1441433 1469526 1479101 1462777 1416235 
3726.622 1342244 1249657 1151707 1060091 983603 927649 894578 886112 903112 
3730.962 945647 1010636 1091380 1178153 1259260 1325327 1371094 1394396 
3734.819 1396855 1382230 1356004 1323034 1287208 1250488 1213970 1179050 
3738.677 1147621 1122274 1106029 1100980 1108388 1128652 1161408 1205530 
3742.534 1258928 1315390 1362585 1382861 1362253 1302628 1220582 1136093 
3746.391 1062947 1007548 972976 961221 973242 1008046 1060722 1121941 
3750.249 1177090 1211943 1216827 1189349 1134831 1064408 989979 921473 
3754.106 866424 829639 813439 819216 846504 892785 952919 1020035 1085600 
3758.446 1140312 1176126 1187489 1173036 1136857 1087593 1035711 990577 
3762.303 959295 946112 952089 975467 1011367 1052484 1089753 1116726 1130512 
3766.643 1132040 1123735 1108122 1086564 1059725 1028770 996156 964973 
3770.500 938408 917721 902016 888834 875952 861676 846504 832162 821008 
3774.840 815929 819116 832096 855800 891557 940732 1004094 1079588 1161076 
3779.179 1237362 1295283 1324829 1323466 1296413 1254043 1208454 1171541 
3783.037 1152438 1156059 1180777 1218588 1257233 1283419 1288770 1270658 
3786.894 1232843 1182771 1129748 1082279 1045709 1021762 1007979 999012 
3790.752 988584 971947 947307 916957 885647 859950 845774 846404 862407 
3795.091 890295 924063 956306 982175 1000806 1016050 1033154 1057367 1091181 
3799.431 1133668 1179648 1219751 1242479 1239489 1212175 1170877 1128585 
3803.288 1093506 1068760 1054178 1048565 1049827 1055773 1062681 1065604 
3807.146 1060290 1045310 1023589 1000673 983072 977260 987522 1015618 
3811.003 1059858 1114899 1173468 1227859 1272553 1305087 1325560 1336129 
3814.861 1339818 1339186 1335264 1328518 1318846 1307613 1297842 1293389 
3818.718 1298706 1318115 1352980 1398750 1442198 1466068 1458156 1419958 
3822.575 1362718 1300302 1241881 1192473 1153701 1123602 1098522 1073875 
3826.433 1047203 1019006 993765 977791 977061 994595 1029534 1076366 1125928 
3830.772 1166890 1188386 1185362 1159282 1118021 1071185 1027607 991872 
3834.630 964907 945281 931302 922170 919979 927782 948602 981843 1022260 
3838.969 1061286 1090483 1105166 1105232 1094503 1078592 1063113 1051787 
3842.827 1046107 1044779 1045410 1044579 1040162 1031460 1019969 1008511 
3846.684 1000208 999012 1007780 1029102 1064508 1114334 1179216 1260025 
3850.542 1359461 1480996 1627275 1794531 1963482 2096039 2153243 2122975 
3854.399 2027558 1902343 1773537 1654282 1548426 1455928 1374884 1303691 
3858.257 1241250 1186924 1140943 1104368 1078093 1063844 1062847 1075702 
3862.114 1101744 1138950 1183136 1228191 1266804 1291694 1299039 1289733 
3865.971 1269529 1245204 1222941 1206793 1197224 1192240 1186924 1176791 
3869.829 1160112 1141508 1128851 1129549 1146990 1179880 1221911 1263580 
3873.686 1293023 1300368 1282289 1243676 1194865 1145196 1101977 1068992 
3877.544 1047569 1037206 1037140 1045974 1061054 1079854 1099120 1116693 
3881.401 1131974 1145761 1159514 1174498 1190612 1206461 1219785 1227161 
3885.259 1226430 1218322 1205796 1192041 1178850 1165129 1148850 1127954 
3889.116 1101811 1072646 1046307 1030530 1031360 1049628 1079289 1110979 
3892.973 1136425 1152139 1160112 1165528 1173634 1187788 1208521 1232644 
3896.831 1254741 1268897 1271290 1261586 1243177 1222243 1204899 1194300 
3900.688 1190147 1190379 1193204 1198287 1207723 1223240 1245304 1271323 
3904.546 1296779 1316520 1327919 1330778 1326557 1317018 1302993 1283951 
3908.403 1259426 1228989 1193802 1156657 1121775 1093373 1073941 1063512 
3912.260 1058961 1055939 1049063 1035246 1012895 983802 951856 923598 905934 
3916.600 905635 926554 969257 1030098 1101811 1174598 1237495 1280694 
3920.458 1298208 1289102 1258729 1216329 1174598 1145794 1139017 1157654 
3924.315 1198054 1249092 1296579 1329249 1341147 1332672 1308710 1277072 
3928.172 1244839 1217492 1197224 1183004 1171674 1158950 1142405 1121742 
3932.030 1099817 1080784 1068195 1064276 1068627 1080053 1097326 1119716 
3935.887 1147521 1180844 1218389 1256502 1289866 1312365 1319311 1309507 
3939.745 1285679 1253910 1221811 1196526 1182173 1178319 1180777 1183734 
3943.602 1182771 1176824 1167953 1159880 1156292 1158817 1167654 1181442 
3947.459 1198652 1219286 1244240 1275012 1312100 1353379 1393997 1426873 
3951.317 1445755 1446354 1428369 1395359 1353844 1311668 1275012 1247796 
3955.174 1230683 1221944 1217492 1213638 1207524 1197955 1185695 1172903 
3959.032 1162637 1157588 1160079 1170976 1189881 1214369 1240486 1263547 
3962.889 1278435 1281027 1269030 1242612 1204600 1160910 1119251 1087660 
3966.747 1073344 1080020 1106959 1148883 1197456 1243543 1279731 1302096 
3970.604 1311169 1310604 1305220 1299271 1294552 1290232 1284250 1274613 
3974.461 1260988 1245005 1229985 1219253 1214834 1216628 1222376 1228889 
3978.319 1233341 1234272 1231846 1228158 1225433 1225932 1230583 1239190 
3982.176 1250654 1263281 1275477 1286045 1294486 1301166 1306616 1312399 
3986.034 1319677 1329415 1341480 1354774 1366308 1372889 1371194 1359793 
3989.891 1339186 1312498 1284848 1262351 1249723 1249923 1262916 1285978 
3993.749 1314160 1341147 1361389 1370961 1368568 1355971 1336960 1316819 
3997.606 1299870 1289202 1284882 1285247 1287108 1287706 1285347 
##END=
