##TITLE=cetvrtomas_4 Sep 25 16:10:31 2026 (GMT+02:00)
##JCAMP-DX=5.01  $$ Nicolet v. 1
##DATATYPE=INFRARED SPECTRUM
##ORIGIN=Vojna akademija
##OWNER=Nicolet
##LONGDATE=2026/09/25
##TIME=16:11:05
##SPECTROMETER/DATA SYSTEM=Nicolet iS20
##DATA PROCESSING=
Ratio against background
%Transmittance->Absorbance
Truncated
ElementMultiply or ElementDivide
##COMMENTS=
Number of sample scans: 8
Collection length: 11,90 sec
Sample gain: 8,0
Background collected on: Fri Sep 25 16:09:19 2026 (GMT+02:00);
Number of background scans: 8
Background gain: 8,0
Sample spacing:  1,000
Number of scan points: 12415
Resolution points: 8286
Number of FFT points: 65536
Apodization: N-B strong;
Phase correction: Mertz;
Laser frequency: 15798,00 cm-1
Number of rejected sample scans: 0
Number of rejected background scans: 0
Bench serial number: BER2010005;
##RESOLUTION= 4,000
##XUNITS=1/CM
##YUNITS=ABSORBANCE
##FIRSTX=400.156891
##LASTX=4000.123047
##FIRSTY=0.015967
##MAXX=4000.123047
##MINX=400.156891
##MAXY=0.133142
##MINY=-0.002299
##XFACTOR=1.000000
##YFACTOR=1.000000E-009
##NPOINTS=7468
##DELTAX=0.482117
##ZPD=6100
##XYDATA=(X++(Y..Y))
400.157 15966682 18695492 20370978 21064126 20976592 20406956 19656020 
403.532 18981382 18524920 18310314 18258612 18227824 18064898 17650632 
406.907 16940892 15966406 14832659 13693177 12746621 12185727 12121020 
410.281 12549856 13331233 14240169 15015197 15459914 15492705 15176367 
413.656 14679533 14201344 13877118 13724501 13652110 13509347 13160466 
417.031 12553061 11805391 11246222 11350455 12423411 14338889 16596681 
420.406 18691514 20326118 21422272 22021686 22180072 21937062 21330072 
423.781 20447450 19470064 18668096 18357112 18766030 19970712 21842416 
427.155 24071080 26193642 27702242 28202680 27470664 25541600 22681516 
430.530 19359326 16115723 13452063 11737984 11095920 11421748 12434867 
433.905 13797040 15149398 16185980 16712431 16664159 16133329 15322356 
437.280 14484666 13824883 13466931 13462522 13812159 14498746 15499676 
440.655 16783818 18278934 19843960 21269172 22283580 22645698 22231858 
444.030 21079952 19382400 17427456 15540333 13994304 12998677 12656687 
447.404 12948357 13740950 14833756 16026704 17147998 18098334 18850698 
450.779 19442064 19955032 20490206 21128058 21884230 22698868 23448582 
454.154 23996000 24208774 23991902 23292494 22097856 20443560 18430706 
457.529 16255148 14173648 12450449 11276213 10711714 10709472 11144632 
460.904 11859019 12676234 13446151 14081674 14575321 14996024 15440309 
464.278 15976066 16596267 17213528 17689008 17905794 17818618 17501686 
467.653 17118252 16870202 16903686 17261896 17880450 18624966 19338574 
471.028 19881594 20172118 20187078 19953468 19527490 18982386 18396862 
474.403 17840678 17375172 17027754 16779170 16552653 16234236 15706336 
477.778 14906207 13872773 12751534 11755720 11076408 10841058 11055675 
481.152 11612490 12313602 12952692 13379206 13528591 13423254 13130071 
484.527 12714070 12204300 11600714 10903774 10146420 9413950 8829207 8512548 
488.384 8551814 8957113 9653103 10492887 11316649 11989829 12439197 12664533 
492.241 12717414 12670503 12577073 12455871 12284766 12021644 11625388 
495.616 11087761 10448592 9804228 9278463 8995878 9037217 9408804 10038272 
499.473 10787217 11490026 11975558 12128516 11927774 11461006 10889742 
502.848 10387062 10076387 9984020 10048953 10153949 10180949 10038712 
506.223 9701348 9211040 8675209 8226746 7981830 8009437 8306039 8801210 
510.079 9374844 9899843 10265350 10420660 10394901 10298735 10285435 
513.454 10489629 10985121 11740979 12621756 13404937 13864564 13837608 
516.829 13297716 12370327 11297230 10346103 9702127 9434199 9476800 9687288 
520.686 9897912 9990632 9918149 9700772 9400068 9092263 8847198 8711650 
524.543 8714761 8867859 9164405 9576407 10051530 10522352 10916006 11182097 
528.400 11304474 11306786 11240985 11172271 11153981 11204706 11298862 
531.775 11372902 11352733 11175399 10818467 10308507 9718256 9140109 8663650 
535.632 8351670 8222593 8259232 8423926 8679300 8999227 9372542 9793078 
539.489 10245741 10696296 11090277 11359910 11452977 11350251 11085008 
542.863 10735012 10405795 10192821 10141638 10231696 10376474 10460608 
546.238 10372537 10064755 9571327 9002880 8499066 8189332 8150168 8381395 
550.095 8813890 9338482 9854287 10290321 10622574 10860932 11025223 11123521 
553.952 11143986 11061692 10858996 10542721 10155578 9764612 9451333 9284421 
557.809 9297860 9486112 9805651 10192516 10575142 10895790 11117470 11225141 
561.666 11223780 11133992 10984713 10804269 10619246 10451036 10315768 
565.041 10227625 10199029 10239940 10354858 10538816 10775294 11036711 
568.416 11295802 11532794 11747890 11961355 12205697 12505691 12860395 
571.790 13231477 13552554 13752373 13782606 13649546 13425202 13239504 
575.165 13232331 13519465 14137431 15027134 16044857 17013832 17785306 
578.540 18260236 18414908 18286434 17958108 17527800 17092336 16731026 
581.915 16490940 16394343 16437322 16594615 16817398 17039024 17190052 
585.290 17209426 17070002 16787882 16423110 16056787 15773194 15632756 
588.665 15651269 15797831 16006146 16201079 16317790 16330348 16256971 
592.039 16157849 16107883 16170608 16375454 16706716 17107878 17496408 
595.414 17792796 17931932 17887562 17676618 17354860 16998326 16683852 
598.789 16476760 16411033 16486157 16663814 16881880 17063420 17136968 
602.164 17057390 16810992 16423076 15949907 15472034 15064043 14775234 
605.539 14616749 14559320 14546814 14516972 14429549 14274888 14076916 
608.913 13876161 13713968 13613235 13572757 13575184 13602465 13649341 
612.288 13729220 13865179 14073801 14345670 14638682 14880798 14992526 
615.663 14918483 14645604 14214148 13700221 13194758 12765524 12441822 
619.038 12215137 12055096 11930533 11828237 11757660 11742034 11801749 
622.413 11937991 12126097 12323148 12484446 12579869 12607941 12596310 
625.788 12591057 12635333 12754708 12945899 13179114 13404150 13566569 
629.162 13621988 13542128 13323443 12987343 12579119 12156389 11782955 
632.537 11519354 11406135 11460121 11665412 11978998 12334737 12663578 
635.912 12909852 13039408 13046135 12946820 12775146 12567216 12358259 
639.287 12179014 12052337 11999605 12039596 12183751 12434321 12777262 
642.662 13181437 13598090 13975175 14266465 14442702 14502309 14468223 
646.036 14380569 14278072 14188095 14116175 14049400 13963780 13841473 
649.411 13683192 13510168 13356995 13257814 13230998 13270658 13347804 
652.786 13421989 13461530 13454798 13417752 13384912 13398478 13487677 
656.161 13658060 13889913 14148111 14394646 14602221 14763580 14890227 
659.536 15006828 15141404 15321258 15567360 15891580 16295051 16763913 
662.911 17266826 17755206 18177688 18489756 18665400 18703656 18631192 
666.285 18506872 18418848 18489098 18821666 19418952 20148032 20835296 
669.660 21382558 21785312 22087572 22337506 22570794 22806690 23052494 
673.035 23311268 23589124 23899364 24259612 24683282 25170492 25700994 
676.410 26235804 26722328 27115080 27384758 27528732 27570744 27559056 
679.785 27554396 27614172 27783160 28077394 28480146 28944646 29409186 
683.159 29811650 30106446 30281202 30358478 30388008 30425998 30523134 
686.534 30709332 30992818 31366088 31815610 32329596 32900158 33519682 
689.909 34173140 34830884 35452696 35991960 36410264 36690792 36841204 
693.284 36893032 36887660 36872764 36887408 36959124 37102264 37316364 
696.659 37586672 37886828 38185280 38449612 38656732 38801304 38897144 
700.034 38974412 39068080 39210468 39419804 39700752 40046196 40444752 
703.408 40884808 41357128 41854004 42366024 42882708 43395688 43904284 
706.783 44419212 44960060 45547912 46192132 46882004 47584656 48259308 
710.158 48869816 49403472 49876712 50329340 50805824 51334408 51919828 
713.533 52547140 53198836 53874916 54601684 55428024 56404872 57556348 
716.908 58865100 60269652 61688004 63034960 64254648 65326780 66256776 
720.282 67050896 67694384 68143264 68342624 68247040 67845312 67165408 
723.657 66263804 65202372 64027012 62764800 61427696 60027428 58587064 
727.032 57142240 55731848 54385956 53114164 51905340 50736292 49588024 
730.407 48455232 47350956 46297544 45317212 44418548 43592468 42815348 
733.782 42059904 41303484 40533716 39747808 38947264 38131952 37298704 
737.156 36444172 35569128 34683140 33805004 32957096 32159258 31424462 
740.531 30754070 30139792 29566282 29016622 28474450 27925110 27357374 
743.906 26763946 26144654 25507900 24873728 24268720 23720334 23251210 
747.281 22871752 22578160 22355504 22184256 22044658 21921238 21803150 
750.656 21677814 21527932 21331186 21062562 20705094 20259734 19749876 
754.031 19216962 18712650 18285292 17963252 17752894 17636036 17582968 
757.405 17560402 17545532 17529180 17512622 17500512 17492130 17476712 
760.780 17436458 17351822 17210908 17016488 16789054 16563462 16378172 
764.155 16267875 16249748 16318824 16446510 16589725 16700415 16735641 
767.530 16671045 16504776 16257763 15963279 15659582 15378205 15136086 
770.905 14938098 14780308 14655885 14560314 14491655 14446539 14414512 
774.279 14375329 14298789 14153211 13919917 13601235 13228026 12850463 
777.654 12529972 12315887 12231154 12263805 12371248 12492528 12566431 
781.029 12554596 12447074 12264384 12045524 11836818 11674500 11574341 
784.404 11531331 11523403 11520953 11495129 11426442 11306378 11137221 
787.779 10928679 10694835 10450459 10208459 9981003 9777591 9604692 9465082 
791.636 9357238 9275755 9213815 9166267 9133341 9122445 9147079 9223461 
795.493 9363536 9567973 9820800 10090460 10336365 10514918 10597517 10576262 
799.350 10470111 10315157 10156459 10033015 9965408 9953236 9977206 10011246 
803.206 10028981 10016503 9974527 9916183 9861676 9832256 9845576 9911200 
807.063 10030269 10194450 10388046 10587670 10767889 10908157 10997729 
810.438 11042182 11061453 11084872 11136745 11226976 11343006 11455154 
813.813 11524151 11519796 11434675 11289102 11124745 10987704 10915326 
817.188 10918826 10983252 11074370 11157075 11209330 11231396 11243672 
820.563 11277336 11359808 11501355 11693357 11911087 12124564 12306308 
823.938 12439913 12521037 12555278 12556609 12544501 12544228 12582666 
827.312 12687936 12880600 13166033 13527224 13923817 14301494 14597903 
830.687 14765465 14780274 14647147 14396598 14077326 13741873 13430840 
834.062 13171531 12973720 12835993 12751636 12714378 12720143 12766240 
837.437 12850394 12968770 13117400 13291942 13488770 13702649 13926691 
840.812 14148727 14352759 14523584 14649956 14731254 14780137 14822065 
844.186 14885461 14994721 15159965 15371751 15602152 15812675 15967987 
847.561 16043654 16036158 15961010 15848791 15732205 15636876 15575878 
850.936 15547992 15540848 15537930 15526392 15498439 15454936 15401960 
854.311 15348650 15303959 15274306 15263289 15271972 15300287 15349164 
857.686 15421220 15522614 15660957 15842332 16068168 16329970 16608901 
861.060 16874542 17092232 17232040 17275378 17224422 17101538 16944440 
864.435 16790362 16667223 16583083 16526734 16474903 16406043 16313456 
867.810 16210847 16127998 16098943 16148735 16278470 16462548 16653726 
871.185 16802210 16866654 16831108 16705992 16523017 16322229 16136492 
874.560 15987411 15879963 15807040 15758041 15726263 15710389 15714685 
877.935 15744643 15803570 15890995 16003774 16137352 16287174 16447026 
881.309 16605046 16742563 16834414 16853978 16784302 16626149 16403325 
884.684 16156403 15936296 15786491 15726468 15746841 15811473 15873123 
888.059 15887730 15835389 15724784 15591265 15478112 15422663 15438386 
891.434 15511316 15604315 15672361 15681429 15617401 15492053 15335811 
894.809 15188411 15080509 15027408 15025247 15056428 15096666 15125382 
898.183 15132484 15120647 15103219 15098074 15122980 15187861 15291603 
901.558 15421529 15557401 15675075 15754331 15785873 15772542 15730625 
904.933 15682803 15652919 15656628 15696477 15761513 15832607 15889689 
908.308 15917907 15913609 15883813 15841747 15800545 15768763 15747700 
911.683 15732514 15716059 15693212 15664151 15634576 15614825 15616852 
915.058 15651613 15724784 15834978 15970601 16111596 16229041 16292507 
918.432 16278815 16178310 16001299 15777009 15548850 15356991 15228216 
921.807 15164495 15144424 15129465 15081057 14976715 14818705 14634981 
925.182 14467229 14359130 14338718 14411394 14560143 14754290 14959910 
928.557 15148266 15305126 15427503 15521790 15597412 15664460 15731210 
931.932 15803054 15883192 15970532 16060330 16143233 16208438 16247960 
935.306 16260549 16254460 16246550 16257109 16301829 16387325 16507667 
938.681 16647942 16788848 16915536 17021070 17108362 17186260 17266242 
942.056 17356410 17459982 17575444 17697670 17821690 17943052 18059508 
945.431 18171574 18283012 18400768 18535466 18698502 18897104 19130458 
948.806 19385414 19638582 19859846 20022512 20113152 20136960 20117732 
952.181 20090178 20091912 20149280 20273342 20458426 20687336 20935770 
955.555 21179892 21401422 21587266 21731038 21833112 21901096 21948806 
958.930 21992894 22048074 22119612 22199634 22266700 22296312 22269002 
962.305 22182444 22054906 21922074 21822938 21784058 21811338 21887436 
965.680 21981916 22063866 22118288 22149912 22180316 22232660 22320204 
969.055 22436584 22558370 22653590 22697332 22682984 22624024 22546328 
972.429 22477302 22433794 22416628 22412092 22400892 22368064 22307892 
975.804 22225476 22131640 22038488 21954486 21884508 21832834 21804508 
979.179 21807992 21850570 21935422 22056580 22198242 22339494 22457868 
982.554 22538198 22576204 22578404 22558754 22533696 22518828 22525808 
985.929 22561580 22629398 22727950 22851006 22986566 23119514 23231846 
989.304 23309206 23344694 23340744 23307982 23261032 23214472 23177634 
992.678 23155476 23148940 23157782 23182490 23223176 23277918 23339694 
996.053 23396338 23433474 23438966 23409136 23351862 23285784 23234012 
999.428 23217828 23250266 23331476 23450858 23590488 23732090 23859420 
1002.803 23960984 24030036 24063060 24060784 24028914 23980346 23933008 
1006.178 23908080 23923276 23985984 24089012 24210422 24321282 24392564 
1009.552 24407776 24369224 24298118 24226888 24191538 24219844 24323664 
1012.927 24498038 24724458 24980582 25244792 25502312 25746592 25975176 
1016.302 26187164 26379752 26547448 26683676 26783822 26848812 26885964 
1019.677 26909018 26935176 26979422 27052834 27158744 27293860 27448426 
1023.052 27609900 27765322 27902284 28012962 28092770 28142826 28168916 
1026.427 28182068 28196280 28224850 28277892 28358104 28460334 28573206 
1029.802 28683486 28780836 28860186 28923362 28974718 29018074 29051410 
1033.177 29065934 29047868 28984246 28866842 28696336 28482164 28240196 
1036.553 27987516 27740032 27511716 27314428 27158358 27051038 26993596 
1039.928 26978190 26987110 26997122 26983442 26929782 26832916 26704994 
1043.303 26567174 26443026 26350528 26296912 26281776 26300994 26353732 
1046.678 26445104 26585068 26781812 27036896 27341598 27677804 28022928 
1050.054 28358386 28672124 28959170 29218300 29445352 29632080 29768640 
1053.429 29850228 29886038 29900308 29932646 30023000 30200492 30474084 
1056.804 30830794 31238992 31661190 32067784 32440048 32772080 33065780 
1060.179 33322758 33542160 33721308 33860812 33968432 34059088 34151164 
1063.555 34258496 34386048 34529564 34681736 34838852 35007368 35202724 
1066.930 35443636 35741132 36089380 36463308 36826596 37141496 37381540 
1070.305 37541004 37633788 37688132 37735984 37808672 37933292 38132352 
1073.680 38427748 38837536 39373692 40036276 40809204 41659140 42539608 
1077.056 43404840 44215484 44947972 45597076 46172820 46695828 47192980 
1080.431 47697656 48244128 48863032 49577144 50391404 51290668 52242060 
1083.806 53206960 54149992 55052344 55914704 56750232 57571368 58377308 
1087.181 59148252 59853368 60465628 60976060 61402468 61784756 62169480 
1090.557 62588000 63049092 63536836 64024360 64486600 64914168 65313108 
1093.932 65696852 66071288 66427672 66740252 66978520 67117992 67148304 
1097.307 67074560 66909872 66665612 66346712 65954640 65494040 64979464 
1100.682 64437404 63898048 63386320 62914452 62479972 62073296 61687396 
1104.057 61326300 61005380 60745140 60557912 60442016 60380024 60346976 
1107.433 60322536 60304412 60310312 60374464 60530492 60803140 61196500 
1110.808 61695916 62272876 62896684 63542516 64191804 64832144 65453120 
1114.183 66043088 66592140 67093396 67543272 67939376 68271704 68517912 
1117.558 68645688 68617400 68406352 68009776 67453672 66784264 66055356 
1120.934 65312184 64578092 63857248 63142276 62426680 61712984 61014648 
1124.309 60349984 59738036 59192148 58722532 58343236 58075492 57950636 
1127.684 58006072 58271952 58766156 59486648 60415624 61525652 62792452 
1131.059 64201480 65748544 67432968 69248872 71177744 73191680 75258464 
1134.435 77352712 79462872 81587896 83726216 85864264 87964472 89971184 
1137.810 91826632 93484128 94926552 96166752 97240072 98186552 99042360 
1141.185 99835392 100585592 101313416 102036328 102763896 103487720 
1144.078 104176496 104783232 105257368 105571648 105734896 105796704 
1146.971 105826800 105896352 106052200 106304448 106633168 107002712 
1149.864 107382408 107754792 108116912 108471504 108816816 109143952 
1152.757 109442560 109711936 109966544 110234704 110545184 110908824 
1155.651 111308992 111702584 112037904 112271184 112387096 112399072 
1158.544 112338560 112233248 112092592 111904088 111645000 111298200 
1161.437 110865792 110369264 109838432 109291808 108724280 108105864 
1164.330 107396192 106564352 105603256 104533792 103395480 102230576 
1167.223 101067000 99917504 98782720 97661352 96557688 95481144 94439288 
1170.598 93428776 92431720 91419440 90362712 89246856 88076592 86874952 
1173.973 85670208 84485704 83328944 82192840 81062328 79925992 78782856 
1177.349 77644376 76526976 75445664 74408384 73414408 72459000 71537752 
1180.724 70650152 69797952 68981976 68198576 67440360 66700532 65978476 
1184.099 65283500 64631188 64035996 63501208 63011704 62533276 62021656 
1187.474 61440944 60772464 60025908 59232288 58436172 57677152 56979228 
1190.849 56348168 55773928 55239016 54726408 54225704 53731204 53238612 
1194.225 52742464 52234288 51705392 51151868 50577012 49991720 49411748 
1197.600 48853832 48330112 47847528 47408712 47013392 46660820 46349960 
1200.975 46077316 45835840 45614448 45400376 45181892 44953628 44717480 
1204.350 44481716 44254996 44042180 43840468 43641084 43433036 43211400 
1207.726 42981392 42761416 42577800 42456808 42416728 42459328 42568992 
1211.101 42713848 42858972 42971408 43030304 43031440 42984756 42910688 
1214.476 42830776 42763536 42717872 42692680 42679120 42665740 42644576 
1217.851 42615116 42585548 42572280 42594208 42665888 42793844 42972432 
1221.227 43187172 43415644 43636392 43833724 44001040 44142048 44269232 
1224.602 44399648 44548860 44728976 44944040 45189316 45452692 45716992 
1227.977 45965660 46185020 46369576 46521460 46650488 46767040 46879828 
1231.352 46990536 47094260 47182268 47247284 47288436 47312712 47332848 
1234.728 47361156 47404056 47458052 47510020 47541032 47534712 47480268 
1238.103 47375712 47226928 47042264 46829628 46593676 46336436 46060000 
1241.478 45767136 45462660 45150568 44832636 44505212 44161560 43792420 
1244.853 43390160 42952532 42482352 41988144 41479816 40968512 40463264 
1248.229 39970844 39497492 39048104 38628304 38243604 37899592 37601268 
1251.604 37350812 37146804 36981744 36842140 36711560 36571680 36409400 
1254.979 36219808 36009420 35793084 35591388 35422068 35292596 35197764 
1258.354 35120732 35040164 34936728 34801836 34638712 34461116 34284920 
1261.730 34121484 33973768 33837312 33704228 33568004 33427380 33284586 
1265.105 33142372 33001140 32856982 32703732 32537352 32358936 32175920 
1268.480 32000188 31843100 31709272 31595726 31491398 31384394 31265590 
1271.855 31135572 31004240 30888388 30804540 30762892 30764208 30798744 
1275.231 30848970 30892904 30911584 30890166 30821758 30706416 30550862 
1278.606 30365302 30160782 29946954 29728082 29502974 29265792 29009326 
1281.981 28728372 28423720 28101326 27772208 27447296 27133032 26831224 
1285.356 26539804 26257558 25988120 25742722 25536678 25385706 25297366 
1288.732 25266180 25273660 25294312 25300808 25274328 25209116 25112562 
1292.107 25001568 24894782 24809032 24753116 24728210 24729402 24748906 
1295.482 24777144 24804402 24822014 24822328 24800368 24755010 24690122 
1298.857 24613986 24536566 24467328 24411454 24368906 24334352 24300606 
1302.233 24260452 24209370 24145790 24069960 23981852 23880600 23764356 
1305.608 23632366 23487124 23336618 23192416 23068848 22979300 22931058 
1308.983 22924282 22950970 22997536 23046694 23081880 23091314 23068848 
1312.358 23016506 22943914 22866930 22802080 22764122 22760772 22791500 
1315.734 22847198 22912964 22972210 23008926 23012140 22977972 22907620 
1319.109 22805850 22678236 22528984 22360528 22174876 21975466 21768276 
1322.484 21561602 21364736 21184694 21024964 20882748 20750136 20615652 
1325.859 20469368 20305804 20126756 19941188 19763470 19608560 19487148 
1329.234 19403570 19353956 19330226 19322780 19325688 19337570 19361996 
1332.610 19403742 19466080 19547660 19643712 19747344 19853394 19961240 
1335.985 20076192 20206864 20361810 20544640 20751248 20969222 21181318 
1339.360 21373334 21539386 21685128 21823182 21967068 22124040 22292926 
1342.735 22465124 22629152 22775088 22897142 22996454 23078490 23150862 
1346.111 23218982 23284980 23348364 23408472 23465964 23523990 23585732 
1349.486 23651924 23718758 23778986 23822946 23844230 23842584 23824908 
1352.861 23802892 23789696 23795402 23823508 23871184 23931048 23995650 
1356.236 24059208 24119098 24175110 24226748 24272506 24308878 24332424 
1359.612 24340590 24333160 24313256 24284558 24252814 24222930 24198824 
1362.987 24184146 24181940 24194796 24224154 24270402 24332880 24409282 
1366.362 24497300 24593298 24693348 24793070 24886782 24967912 25030736 
1369.737 25071210 25089392 25091534 25090972 25107260 25166102 25296734 
1373.113 25523678 25859954 26295926 26798306 27315876 27794886 28191014 
1376.488 28466138 28590828 28541394 28302648 27877094 27288814 26580560 
1379.863 25798874 24985460 24167402 23358610 22569188 21810222 21095152 
1383.238 20437066 19840978 19300158 18797790 18313042 17827386 17332756 
1386.614 16835068 16350957 15898246 15485872 15111728 14768002 14449107 
1389.989 14155881 13894874 13676113 13509005 13399230 13349308 13358601 
1393.364 13425202 13541684 13692903 13856148 14003405 14111827 14170464 
1396.739 14181009 14154991 14109739 14064492 14033623 14024965 14036873 
1400.115 14062610 14094098 14126854 14158243 14185219 14201686 14197304 
1403.490 14158723 14075992 13948452 13789721 13622295 13471579 13355082 
1406.865 13279644 13244867 13248147 13289756 13375686 13514304 13712532 
1410.240 13969906 14276326 14613768 14963133 15312814 15661128 16015669 
1413.616 16386224 16779410 17192156 17613468 18023968 18403914 18734790 
1416.991 18997650 19172598 19237084 19172980 18980828 18691376 18355486 
1420.366 18019546 17712718 17442908 17206288 16996122 16808926 16649526 
1423.741 16532000 16472630 16482715 16561430 16697349 16875370 17083684 
1427.117 17318684 17584208 17890636 18248384 18662596 19127478 19627038 
1430.492 20138938 20643034 21124790 21578282 22004188 22407416 22794326 
1433.867 23172740 23551134 23940220 24353066 24800788 25282440 25779604 
1437.242 26261464 26698580 27075934 27393086 27658982 27888398 28098744 
1440.618 28308094 28532300 28779916 29049816 29331014 29607568 29863998 
1443.993 30090996 30289408 30468574 30644722 30835916 31060292 31331756 
1447.368 31658374 32042346 32481394 32973364 33520504 34128904 34806544 
1450.743 35557548 36377764 37249568 38145628 39039008 39907240 40742928 
1454.119 41550580 42336472 43099052 43813200 44420824 44843252 45035476 
1457.494 45036136 44939740 44828892 44731840 44641832 44546472 44444096 
1460.869 44344744 44265820 44221576 44218164 44245460 44276680 44265272 
1464.244 44153712 43891164 43439192 42777212 41894872 40781360 39435296 
1467.620 37871284 36128912 34257348 32310322 30326466 28304662 26215672 
1470.995 24013648 21682968 19292364 17014108 15048298 13501007 12344044 
1474.370 11464850 10740174 10089917 9479238 8910066 8399164 7959760 7589646 
1478.227 7274529 6996577 6742730 6508639 6297400 6114825 5963802 5840435 
1482.085 5735133 5636972 5537961 5435383 5329205 5219667 5105966 4985558 
1485.942 4857443 4724777 4597073 4487653 4409187 4365742 4348239 4333680 
1489.800 4296601 4224995 4125436 4019010 3925549 3857883 3818437 3802994 
1493.657 3804833 3817668 3837190 3860590 3885931 3908832 3921002 3912577 
1497.515 3876002 3811017 3725053 3631990 3546463 3481627 3445623 3441047 
1501.372 3465629 3514428 3581540 3660224 3743067 3822515 3888505 3928491 
1505.229 3928124 3874330 3764222 3617823 3471340 3347678 3241375 3136534 
1509.087 3025613 2910883 2802587 2712955 2654178 2630809 2639543 2669347 
1512.944 2706987 2741530 2766972 2783179 2793583 2802754 2813726 2827399 
1516.802 2841940 2855281 2867321 2879462 2893605 2909649 2925094 2934367 
1520.659 2931398 2913719 2887667 2866287 2859750 2871824 2899075 2934901 
1524.516 2970029 2994650 2998020 2970496 2907681 2811791 2692284 2562110 
1528.374 2435508 2325232 2239062 2180482 2147116 2132332 2125939 2117115 
1532.231 2096572 2060150 2013477 1970738 1947139 1950101 1980190 2034715 
1536.089 2114185 2222143 2364741 2549312 2775209 3028215 3268483 3434334 
1539.946 3474312 3393225 3250823 3109302 2999154 2916787 2843508 2760737 
1543.804 2659079 2542246 2423646 2318403 2235465 2174455 2128369 2089147 
1547.661 2051627 2016540 1990476 1983319 2002492 2046500 2104563 2161634 
1551.518 2204160 2225174 2223409 2202428 2168394 2129502 2093243 2064344 
1555.376 2045801 2040807 2053924 2093376 2167961 2277831 2391960 2440506 
1559.233 2370038 2212485 2041440 1902176 1804312 1741799 1705306 1685814 
1563.091 1676101 1671178 1669083 1670779 1678662 1695061 1719710 1749850 
1566.948 1780823 1806109 1818520 1811067 1779758 1727893 1666854 1612309 
1570.806 1575960 1562758 1573001 1604760 1655978 1724301 1807673 1901611 
1574.663 1999497 2090679 2161668 2200929 2206324 2186709 2154408 2118747 
1578.520 2084387 2052626 2023564 1997899 1976030 1958722 1945608 1935590 
1582.378 1926771 1918850 1912859 1912926 1924308 1951566 1996401 2055622 
1586.235 2121610 2183646 2231802 2258446 2261044 2242726 2211087 2174588 
1590.093 2139424 2107526 2075897 2039176 1991940 1931962 1861611 1787045 
1593.950 1717182 1661000 1625013 1612276 1621954 1650357 1692134 1741000 
1597.807 1791270 1837186 1872758 1892925 1893956 1875221 1840314 1797059 
1601.665 1755572 1725897 1715186 1725332 1752544 1788509 1824276 1852227 
1605.522 1869297 1877251 1881876 1890429 1908766 1938552 1975497 2010981 
1609.380 2034516 2038977 2022831 1991807 1956692 1930432 1923309 1939551 
1613.237 1976329 2025261 2074365 2108924 2117082 2093642 2047266 1998698 
1617.095 1971603 1977461 2010981 2057952 2104396 2142288 2169327 2188441 
1620.952 2205891 2229570 2265507 2314705 2370038 2418382 2445771 2444438 
1624.809 2414617 2361543 2292954 2218147 2148082 2094807 2068772 2075531 
1628.667 2112720 2170792 2236231 2297717 2347318 2382232 2403288 2414350 
1632.524 2418581 2417915 2410718 2392394 2357179 2305012 2247922 2210720 
1636.382 2215150 2264741 2346552 2441472 2533981 2613009 2673414 2716056 
1640.239 2745932 2770507 2797685 2832135 2874025 2919723 2963257 3000222 
1644.097 3029350 3055576 3090681 3153589 3261706 3417369 3596140 3757304 
1647.954 3868814 3921470 3925784 3898267 3855509 3810849 3777491 3770941 
1651.811 3809980 3912811 4075330 4250324 4376486 4438711 4461808 4472923 
1655.669 4484673 4499236 4512528 4518588 4511858 4489461 4452603 4406241 
1659.526 4356103 4307076 4260496 4213252 4158954 4089913 4004128 3907829 
1663.384 3815462 3742565 3700290 3692638 3718302 3772679 3850394 3944641 
1667.241 4045831 4142295 4218437 4258488 4252632 4204084 4129316 4049644 
1671.099 3983697 3941866 3926887 3938288 3973899 4031116 4105232 4187423 
1674.956 4263139 4316211 4336893 4325113 4289072 4238446 4183041 4131356 
1678.813 4090816 4069377 4071618 4097138 4139886 4190836 4240788 4282748 
1682.671 4314538 4341411 4377155 4435731 4519190 4613449 4702602 4778944 
1686.528 4843102 4900367 4958745 5027322 5115220 5227448 5362850 5512423 
1690.386 5662014 5798392 5911972 6001191 6071814 6135257 6206674 6302946 
1694.243 6440064 6627216 6856086 7095114 7303843 7458435 7564998 7647746 
1698.100 7737323 7860690 8036911 8266728 8520219 8743868 8897924 8981704 
1701.958 9018780 9033834 9043983 9062388 9100925 9172223 9288482 9453534 
1705.815 9658489 9882149 10101923 10300669 10470926 10613373 10732940 
1709.191 10836913 10932927 11029132 11134026 11255811 11403821 11586660 
1712.566 11810601 12076457 12378782 12703255 13031146 13349854 13662026 
1715.941 13992626 14382659 14873768 15474403 16142992 16809788 17421660 
1719.316 17971542 18491036 19024824 19616154 20296638 21082734 21972890 
1722.692 22952402 24002512 25109894 26275720 27512598 28836248 30256262 
1726.067 31775110 33396464 35140384 37049216 39185772 41610856 44346176 
1729.442 47341608 50477664 53596644 56594236 59483988 62443472 65806448 
1732.817 70028592 75500272 82168896 89301432 95842664 101169760 105345320 
1736.193 108775824 111855256 114838688 117835072 120834768 123736440 
1739.086 126408848 128729016 130617632 132022872 132889376 133142456 
1741.979 132720816 131619496 129924624 127794328 125406088 122865088 
1744.872 120173616 117249216 113992312 110351280 106364768 102142912 
1747.765 97833160 93540960 89289344 85019176 80657712 76195024 71717888 
1751.140 67401808 63424820 59889952 56796716 54067048 51588660 49247124 
1754.515 46943912 44600080 42165380 39637588 37074404 34582556 32278304 
1757.891 30233244 28456124 26900206 25488154 24132094 22754624 21312358 
1761.266 19813754 18324932 16940306 15738321 14746714 13944860 13284153 
1764.641 12713388 12191487 11693459 11209296 10741634 10299651 9892691 
1768.016 9525906 9198213 8905026 8640496 8400516 8181567 7977477 7779150 
1771.874 7574507 7355806 7126437 6898737 6685861 6495085 6326682 6174274 
1775.731 6029379 5883860 5733119 5575985 5414414 5249917 5082733 4911861 
1779.589 4737974 4566535 4408718 4277895 4184981 4132126 4112190 4109648 
1783.446 4105600 4081819 4027404 3942969 3841603 3742766 3663165 3612511 
1787.303 3591797 3595405 3614883 3642749 3673624 3704066 3731035 3748782 
1791.161 3748681 3722246 3665804 3586351 3498094 3417202 3354222 3311918 
1795.018 3285643 3266179 3241910 3200818 3134198 3037858 2914219 2771541 
1798.876 2625442 2496255 2404421 2365874 2385330 2453202 2548579 2647977 
1802.733 2730593 2783112 2801887 2790015 2754668 2703920 2645244 2584609 
1806.590 2526882 2477027 2439140 2416049 2406953 2406953 2406987 2395992 
1810.448 2366107 2315438 2250353 2181914 2121910 2076796 2046533 2025228 
1814.305 2005455 1981389 1951400 1918683 1888965 1867434 1855122 1848067 
1818.163 1838850 1821182 1792401 1755971 1719444 1692832 1683286 1694961 
1822.020 1727461 1777796 1841712 1913625 1987147 2053225 2101300 2122576 
1825.878 2113220 2076929 2023697 1968175 1925107 1906469 1916820 1949403 
1829.735 1984950 1999430 1977827 1920713 1843010 1764887 1706138 1678895 
1833.592 1684683 1713057 1743329 1749683 1709165 1611045 1461414 1283785 
1837.450 1110879 978422 911379 916725 983503 1089454 1210049 1324097 1420158 
1841.789 1494727 1549956 1588497 1608584 1601434 1556706 1468861 1346332 
1845.647 1208155 1079023 979419 921540 907893 931435 977692 1028438 1069225 
1849.986 1092011 1096728 1089055 1077695 1070952 1074240 1091148 1121842 
1853.844 1164033 1212574 1260390 1298075 1316354 1309308 1276407 1225566 
1857.701 1170013 1125728 1104867 1111278 1139116 1175362 1204666 1214568 
1861.559 1200114 1164265 1115364 1061984 1010171 961752 915364 868449 819647 
1865.898 769855 722359 681206 650842 634516 634284 650311 681604 724748 
1870.238 773473 818817 850953 859319 838204 788908 721728 653629 604586 
1874.578 590319 614408 666571 723222 756877 742605 668927 540487 377991 
1878.917 210883 69056 -22895 -53938 -26108 48047 151183 265319 374675 467308 
1883.739 534349 570445 574227 549378 504692 453178 411786 396928 422797 
1888.078 495570 610161 746521 874027 961619 984234 933427 815398 648187 
1892.418 453775 253615 67366 -90711 -209886 -283369 -308136 -283965 -213761 
1896.758 -102869 38768 194905 345261 464456 530700 530767 465119 348113 
1901.097 206208 70780 -31476 -81800 -75539 -20443 66803 168022 267540 355176 
1905.919 426943 482799 524497 552563 565800 560625 532359 477458 397127 
1910.259 298109 195369 106572 50399 41121 84268 174518 294462 420973 528842 
1915.080 600771 633288 640124 648386 690863 796576 974770 1208820 1461314 
1919.420 1690371 1857950 1935657 1906603 1762092 1507794 1166358 782535 
1923.277 412449 109853 -83920 -150899 -93659 65411 293666 550871 799132 
1927.617 1011400 1169681 1265574 1294984 1252880 1132937 930704 651240 
1931.474 312931 -47743 -379119 -629256 -756519 -746795 -619065 -423445 
1935.332 -222769 -71994 -7985 -35518 -130694 -247076 -337107 -361375 -300951 
1939.672 -158749 44103 274569 495669 672412 783730 827282 821041 792560 
1944.011 769490 769490 794452 831200 856265 846272 785688 674901 532193 
1948.351 391489 289621 255671 300497 412084 558336 693684 775830 774303 
1952.690 681571 517066 324503 160630 78534 121585 305868 618058 1012928 
1957.030 1427804 1790505 2035281 2119879 2027825 1776032 1411515 1008345 
1960.887 648785 405318 327156 424123 665178 976364 1261221 1413975 1350155 
1965.227 1032689 487045 -195380 -885432 -1433627 -1729726 -1735666 -1494983 
1969.084 -1100774 -659992 -255520 81252 365456 645698 973176 1378141 1849365 
1973.424 2340455 2778076 3091315 3233531 3190637 2988011 2677715 2319702 
1977.281 1959687 1627508 1335962 1088623 888104 737095 636706 586503 581692 
1981.621 615237 680078 772112 888834 1029866 1191476 1363616 1527877 1660867 
1985.961 1735944 1732883 1646798 1492466 1300867 1110082 955376 854571 
1989.818 806269 789373 774535 735402 662954 573332 504029 495105 571407 
1994.158 728034 927848 1111278 1213305 1191775 1038402 787248 501309 255505 
1998.497 106472 70713 121055 198684 240387 197258 55602 -161564 -404709 
2002.837 -621547 -770246 -831166 -807785 -714940 -572940 -399346 -211376 
2006.694 -26904 132059 238663 266214 196993 26441 -234062 -558347 -913141 
2011.034 -1267282 -1594527 -1875407 -2094809 -2239445 -2298907 -2264430 
2014.409 -2130420 -1893617 -1549925 -1096940 -541801 92354 754553 1374518 
2018.266 1868632 2168094 2238030 2089014 1780158 1403171 1069059 866059 
2022.124 841458 990577 1267867 1601733 1918850 2164365 2300248 2307077 
2025.981 2181248 1930398 1577424 1166990 769955 467043 332096 400675 651041 
2030.321 1003695 1347130 1581813 1645568 1541444 1326789 1085368 879970 
2034.178 720135 562615 342608 10636 -421955 -878620 -1229353 -1343790 
2038.036 -1143638 -627171 122778 964276 1727694 2278664 2544612 2528048 
2041.893 2286325 1905305 1465835 1022725 612284 258920 -16102 -184947 
2045.751 -219722 -103730 157249 527748 941131 1311136 1561628 1639448 
2049.608 1531402 1265375 900688 511028 166729 -72424 -174283 -133410 27303 
2053.948 267341 536108 782369 969157 1074805 1097393 1049196 953616 838304 
2058.287 729096 649979 617394 638199 706627 804875 902946 964940 959461 
2062.627 863801 674967 410890 111742 -173720 -398783 -527405 -546434 -462900 
2066.966 -300852 -90380 140477 372453 596258 810120 1011466 1194433 1343407 
2071.306 1439073 1462511 1403071 1266006 1073576 864067 679115 555549 512388 
2075.646 545198 626386 716086 775996 778817 718442 610194 484092 370397 
2079.985 291876 255505 252389 264954 275464 274967 267507 267905 294595 
2084.325 363234 476629 624196 782435 924860 1027408 1077861 1079256 1047070 
2088.664 1005356 975699 974338 1003861 1054544 1106395 1137854 1131044 
2092.522 1078392 984334 866424 749807 660034 617460 630202 692324 783763 
2096.861 876782 941994 955277 905967 798269 653032 500280 375770 311140 
2101.201 325730 423128 589523 799331 1017544 1211378 1354376 1429998 1433521 
2105.541 1371593 1260257 1119649 973773 846305 754620 708154 703541 724981 
2109.880 744131 729727 656948 514180 310278 75088 -147222 -312738 -385906 
2114.220 -350184 -210747 8184 272546 546525 796443 998547 1138153 1209517 
2118.559 1215365 1166790 1083508 989647 912010 872433 879671 926321 990112 
2122.899 1040062 1043649 980050 843417 645533 407773 155525 -89982 -315487 
2127.239 -513207 -677360 -801369 -875611 -891946 -848032 -751955 -621911 
2131.096 -482726 -358064 -260090 -185875 -117808 -34259 80788 223513 371094 
2135.436 482202 517729 454472 299668 89206 -119067 -263865 -302607 -222106 
2139.775 -42243 195700 440541 653828 819846 943654 1041490 1126991 1198320 
2144.115 1233541 1197988 1060888 811946 472947 99247 -240453 -478423 -576149 
2148.454 -536638 -400736 -228001 -74346 25414 70183 85626 109124 167823 
2152.794 269496 398254 528643 637867 723089 805174 920444 1101512 1359262 
2157.134 1665890 1963415 2176786 2246023 2155840 1944610 1684517 1447816 
2160.991 1286011 1207557 1184299 1165926 1104535 971980 771681 537169 323508 
2165.331 190098 179656 310046 567161 913039 1294552 1662065 1975297 2207623 
2169.670 2346418 2384231 2315271 2131133 1824176 1395725 865229 282327 
2173.528 -277706 -728536 -988091 -1010769 -801170 -415831 59115 524696 
2177.385 899393 1142272 1251351 1258097 1204965 1129217 1050990 972046 
2181.242 887506 795945 708884 646860 629605 662655 728864 791464 803680 
2185.582 730357 564905 336076 99943 -79580 -148613 -87233 87515 324801 
2189.922 562881 746322 843085 850820 788908 684193 556677 414870 255836 
2194.261 77341 -110918 -281945 -393487 -400670 -278799 -34259 288262 620148 
2198.601 885514 1030397 1040062 943521 802385 686416 652899 722326 876816 
2202.940 1070587 1252548 1381199 1440935 1441301 1406595 1358530 1304788 
2206.798 1234504 1125363 958830 732813 469166 210750 8614 -99953 -100020 
2211.137 -8217 136003 279310 377560 408071 373415 296816 211148 144853 
2215.477 110615 103456 104185 92288 52752 -14545 -95150 -165737 -203196 
2219.817 -192797 -132515 -32105 90730 217778 335976 437888 519885 579270 
2224.156 611521 611388 575787 509170 426346 349406 303613 304774 351097 
2228.496 418353 466711 449032 327620 89935 -245884 -633160 -1011430 -1317133 
2232.835 -1506705 -1562669 -1495643 -1335928 -1125032 -903420 -698202 
2236.211 -522441 -374418 -241513 -107109 44368 220132 417789 623168 812112 
2240.550 954181 1022127 998016 880766 688507 456959 229812 44435 -74379 
2244.890 -124036 -122015 -99755 -89518 -113899 -178357 -270157 -362666 
2248.747 -422518 -424206 -352469 -208628 -8946 218540 442432 632790 764677 
2253.087 824627 810452 732747 611919 475932 352921 265020 224043 228618 
2257.427 266479 317440 361775 386083 386713 370464 351495 346090 364793 
2261.766 411786 481472 562483 640821 704437 746455 765274 763548 747417 
2266.106 723321 697268 674801 660266 656915 666538 688242 719704 756678 
2270.445 795647 835017 876151 921772 973176 1027475 1075768 1103538 1094901 
2274.785 1038867 934390 793555 638995 500048 401903 358558 369137 419945 
2279.125 489765 558601 615569 660731 703773 756611 827780 916327 1011931 
2283.464 1097326 1155428 1175528 1156126 1105166 1036608 964674 898696 
2287.322 841060 787979 732681 669657 598182 523302 456163 409398 394076 
2291.661 416329 474208 559331 656616 749973 824428 870043 883755 868814 
2296.001 833092 785688 734938 685155 636938 588129 535975 479813 422266 
2300.340 368872 327487 305006 305603 329178 371657 426279 485054 542179 
2304.680 595030 644437 694779 751102 817523 894877 978755 1060223 1128187 
2309.020 1170079 1177422 1147621 1085733 1003429 917289 844612 797572 782535 
2313.359 797074 832860 877247 918518 948038 962051 961520 950794 935718 
2317.699 921639 911944 908291 910350 917655 930140 949532 979386 1023987 
2322.038 1086896 1168817 1265009 1366009 1457291 1524485 1555476 1544735 
2325.896 1493996 1414008 1321206 1232843 1163867 1121842 1104535 1101445 
2329.753 1098190 1081548 1044945 991507 933460 888137 872367 897367 964741 
2334.093 1066036 1182671 1290830 1367671 1394429 1364613 1284483 1173900 
2337.950 1059991 971582 931003 947141 1013658 1110049 1209252 1282821 
2341.808 1310704 1285014 1211179 1103937 982740 867353 771282 702081 660266 
2346.147 642015 640887 650908 668098 690034 716219 747285 785323 832826 
2350.487 892055 964940 1051687 1149714 1253378 1355173 1444891 1513579 
2354.344 1553281 1560032 1534261 1482093 1414506 1344471 1284383 1242114 
2358.202 1219685 1213206 1214701 1216528 1213638 1205663 1196227 1188851 
2362.059 1185097 1180877 1167953 1136160 1079123 996655 897401 797174 714161 
2366.399 662821 651273 678186 733676 802452 868947 920211 948204 951126 
2370.738 931833 895010 846371 790136 728598 662788 594168 525857 464190 
2375.078 418651 398984 413112 463859 546657 649150 753757 842786 901086 
2379.417 921108 903145 855036 788012 713796 641982 578043 524298 481903 
2383.757 451752 435201 434107 448601 476264 511924 548316 577711 594898 
2388.097 598415 590916 576782 562151 551302 546160 547089 553293 564905 
2392.436 583020 609563 645864 691162 742472 794418 840296 874226 891690 
2396.776 890163 868681 827349 767133 690200 601467 508772 422664 355773 
2401.115 318435 316843 350235 411189 486348 560956 622935 665045 686947 
2405.455 693120 691560 689436 691461 699027 710643 723321 734241 741874 
2409.795 746090 747816 748048 748579 750570 755848 766137 782269 804244 
2414.134 829473 853243 869113 869910 851019 811016 752861 683496 613114 
2418.474 551932 508607 489002 495238 525260 574128 634582 698098 755782 
2422.813 800427 826751 833258 821274 795514 761457 724748 689635 658673 
2427.153 633222 614905 605250 606312 619252 642347 670587 696472 711738 
2431.493 710411 692158 662490 632094 612284 611189 629870 662357 697136 
2435.832 721927 728665 715422 687412 653928 624860 606511 600472 603724 
2440.172 611654 620380 628178 636341 647324 663153 683164 704337 721263 
2444.511 727901 719504 692755 648121 589788 525061 464655 420707 403163 
2448.851 418054 463660 530966 603624 663419 695576 691793 653663 590850 
2453.191 517862 447473 388106 341945 306531 277586 252521 232165 219237 
2457.530 216850 225568 242144 260909 276260 284847 287765 289621 296717 
2461.870 314091 343603 384027 432415 485386 540885 598382 656450 711838 
2466.209 758902 789904 799066 784128 749077 702612 657047 623400 608037 
2470.549 611421 628908 653032 675963 692821 702479 705997 706727 707988 
2474.889 712767 722624 738257 758669 781307 801589 814037 813838 798435 
2479.228 769191 731154 692290 659768 637934 626618 621343 614905 601135 
2483.568 577081 543838 505389 466479 430591 398652 369435 341414 315152 
2487.907 293567 281896 285576 307725 347648 400344 457258 509071 547288 
2492.247 566033 563179 539790 500181 450923 401107 360614 338529 341613 
2496.587 371657 425085 492617 562848 624926 672379 705399 730191 756412 
2500.926 792228 840894 897899 952487 990245 999444 975567 924362 859784 
2505.266 801024 766005 763880 793290 841425 889499 917887 913969 876583 
2509.605 816029 750073 697335 671914 677224 706627 745691 778950 794120 
2513.945 786419 758968 720434 680941 647955 625424 612915 608900 611587 
2518.285 621840 641584 673441 717679 771548 828478 880899 921108 944352 
2522.624 950096 941961 925757 908590 896172 891391 894313 902016 910084 
2526.964 913205 906897 888403 856895 813937 762818 707955 653795 604354 
2531.303 562781 531098 510265 500214 500081 507877 520814 535378 548880 
2535.643 559629 567857 575820 586902 603956 628609 659835 694414 728399 
2539.983 758304 783332 805472 828976 858788 898098 946776 1000773 1053348 
2544.322 1096496 1123669 1131708 1122506 1101744 1077429 1058862 1052285 
2548.180 1060024 1079754 1104933 1126891 1136890 1129383 1102707 1059858 
2552.037 1006850 951591 900854 859352 829307 810485 801257 799165 801622 
2556.377 806302 810717 812908 811946 808692 805074 804410 808991 819116 
2560.716 832196 843616 847965 841524 824361 799829 773573 750471 732681 
2565.056 718841 705532 689735 672478 659105 658740 679879 726773 796012 
2569.396 877314 956505 1019935 1060821 1079887 1084704 1085468 1091081 
2573.253 1104734 1124067 1142339 1153069 1152338 1140412 1120679 1097824 
2577.110 1075569 1055108 1036143 1017345 997916 976961 953151 923366 883522 
2581.450 829175 759300 678186 595959 528278 491357 496465 546989 636075 
2585.790 749376 867387 972511 1052219 1100880 1120114 1116892 1101047 
2589.647 1083109 1073045 1078559 1103272 1146392 1201776 1258828 1304655 
2593.504 1328584 1325061 1296446 1252049 1206328 1173867 1163435 1176658 
2597.362 1206228 1240386 1265009 1269628 1250920 1212674 1164132 1117689 
2601.219 1084704 1071550 1078857 1100914 1127854 1148153 1152272 1136160 
2605.077 1101977 1058064 1016282 988883 983703 1002732 1040859 1088690 
2608.934 1135196 1171641 1193968 1203271 1204268 1202407 1202274 1205696 
2612.792 1211843 1218788 1223838 1225633 1223473 1217126 1206726 1192539 
2616.649 1175495 1157787 1142970 1134964 1137256 1151109 1174930 1204135 
2620.506 1233574 1257798 1273550 1280362 1280096 1275444 1268997 1262351 
2624.364 1256236 1250720 1246866 1245902 1250089 1261620 1281592 1309640 
2628.221 1343673 1380634 1417199 1450144 1477139 1496589 1507428 1509456 
2632.079 1503339 1490571 1473216 1454100 1435782 1420158 1408390 1400512 
2635.936 1396323 1395293 1397055 1401642 1409155 1419493 1432657 1448481 
2639.793 1466733 1487280 1509722 1533230 1555775 1575062 1588298 1593486 
2643.651 1589994 1579020 1563158 1546032 1530737 1519531 1513646 1513147 
2647.508 1517835 1527345 1540912 1557438 1574397 1588863 1597344 1597410 
2651.366 1588331 1572203 1552783 1534594 1520728 1512582 1509456 1509323 
2655.223 1510620 1513413 1519897 1533264 1556174 1589262 1630268 1674505 
2659.081 1716317 1751280 1776897 1793499 1803214 1808704 1812065 1814427 
2662.938 1815791 1816324 1816523 1817222 1819219 1821947 1823411 1820550 
2666.795 1809902 1789207 1759032 1722471 1684882 1651820 1628140 1616366 
2670.653 1616699 1627707 1647197 1673340 1704342 1738472 1773104 1804745 
2674.510 1829334 1843143 1844108 1832461 1811366 1785681 1761094 1742863 
2678.368 1733715 1734580 1743862 1758533 1774968 1789606 1799721 1803780 
2682.225 1801285 1793100 1781222 1768280 1757302 1751114 1752045 1761926 
2686.083 1781355 1810102 1846770 1888532 1931763 1971137 2001161 2016473 
2689.940 2013311 1990409 1949469 1895088 1833227 1770443 1711959 1660834 
2693.797 1617963 1582645 1553348 1529041 1509323 1494561 1485218 1481195 
2697.655 1481727 1484985 1489374 1493663 1498052 1503638 1511983 1524219 
2701.512 1539980 1557338 1573001 1583709 1587101 1582844 1572635 1559766 
2705.370 1547728 1539448 1535990 1536788 1540479 1545667 1551851 1560165 
2709.227 1572435 1590659 1616267 1649126 1687710 1729424 1770942 1809503 
2713.084 1842377 1867501 1882941 1886968 1878515 1857451 1826073 1788076 
2716.942 1749517 1716916 1695959 1689972 1698653 1718013 1741300 1760828 
2720.799 1770010 1765153 1746490 1718180 1687144 1660768 1645634 1644969 
2724.657 1658639 1683153 1713190 1743462 1769877 1791104 1807507 1820683 
2728.514 1832029 1841678 1848500 1850696 1846936 1837319 1823943 1809736 
2732.372 1797492 1787943 1779492 1768879 1752777 1729690 1701315 1672808 
2736.229 1651255 1642807 1650756 1673939 1707103 1742364 1771940 1790039 
2740.086 1794165 1785281 1766085 1740002 1709597 1676667 1642474 1607653 
2743.944 1573932 1543239 1518135 1501743 1496489 1504635 1527245 1563690 
2747.801 1610912 1663794 1715020 1756337 1781488 1787111 1774402 1748153 
2751.659 1716151 1685448 1660568 1642441 1628339 1615103 1599838 1583210 
2755.516 1568578 1560830 1563956 1579286 1604095 1633228 1660335 1680658 
2759.374 1692267 1696192 1695294 1692234 1688741 1684783 1679394 1672243 
2763.231 1664393 1658905 1659803 1671045 1694961 1731686 1778927 1832195 
2767.088 1886502 1936589 1977927 2007119 2022165 2023098 2011913 1992340 
2770.946 1969539 1948770 1934658 1930132 1936090 1951266 1973533 1999763 
2774.803 2026793 2051694 2071802 2085119 2091112 2090779 2087150 2084819 
2778.661 2088815 2103231 2129768 2167228 2212019 2259512 2305478 2347751 
2782.518 2386296 2422013 2456434 2489124 2518517 2541713 2555644 2559011 
2786.375 2551712 2536047 2515218 2492790 2472062 2456101 2447903 2450802 
2790.233 2467463 2499554 2546879 2606642 2673181 2740463 2802520 2855648 
2794.090 2898875 2933733 2963557 2991347 3019807 3050538 3084140 3121116 
2797.948 3161566 3205157 3250756 3296126 3337995 3373389 3400705 3420642 
2801.805 3436706 3453672 3476651 3508850 3550839 3600617 3654510 3708511 
2805.663 3759710 3806939 3850327 3891146 3930565 3970287 4011853 4057671 
2809.520 4110450 4173038 4247379 4333547 4429639 4531143 4632537 4729198 
2813.377 4817974 4898859 4974297 5048909 5127993 5215509 5313642 5422331 
2817.235 5539136 5660335 5782140 5901896 6018057 6131157 6243009 6355865 
2821.092 6472046 6593574 6722640 6861539 7014087 7184610 7377610 7595917 
2824.950 7839637 8104794 8383523 8666928 8947135 9220110 9486993 9753767 
2828.807 10028811 10319602 10630825 10963101 11314472 11682158 12065317 
2832.182 12466202 12889577 13340287 13821634 14333752 14874386 15440344 
2835.558 16031105 16650695 17308374 18016818 18789350 19637680 20569688 
2838.933 21589564 22700158 23904546 25208272 26619626 28147104 29798164 
2842.308 31575628 33476372 35489088 37596244 39774936 41996396 44231076 
2845.683 46446856 48610292 50690268 52654328 54470876 56109588 57539516 
2849.059 58732240 59663260 60313660 60673080 60740376 60523368 60036024 
2852.434 59297800 58332204 57163896 55821816 54337104 52741380 51067112 
2855.809 49343068 47592388 45833964 44080796 42344252 40636560 38970752 
2859.184 37362836 35828920 34381668 33029668 31775504 30616206 29546384 
2862.560 28560324 27654426 26828052 26082582 25419712 24840082 24341466 
2865.935 23919214 23565932 23274106 23034780 22838956 22676768 22536906 
2869.310 22407206 22275870 22131850 21967556 21779146 21565780 21329724 
2872.685 21074734 20804670 20523900 20237168 19949966 19668638 19400728 
2876.061 19152930 18930952 18738492 18576688 18445986 18346120 18278172 
2879.436 18244308 18248316 18293896 18383484 18517694 18694560 18909978 
2882.811 19158642 19435552 19736700 20059744 20404558 20772310 21164446 
2886.186 21582948 22028064 22498414 22990932 23500836 24022472 24549994 
2889.562 25079178 25607002 26132794 26657850 27184284 27714180 28249072 
2892.937 28788944 29332998 29880006 30429872 30983886 31545200 32118584 
2896.312 32708340 33318392 33950088 34602752 35274016 35960644 36659928 
2899.687 37369624 38087860 38812828 39541912 40272436 41002812 41734056 
2903.063 42470580 43220552 43994292 44800164 45643228 46522384 47432180 
2906.438 48364592 49313372 50277848 51262108 52274572 53322708 54410220 
2909.813 55533560 56683100 57845616 59009236 60165480 61310576 62442824 
2913.188 63558316 64647912 65695620 66679248 67575640 68363728 69026832 
2916.563 69554048 69937696 70171848 70250832 70169744 69926408 69521688 
2919.939 68960616 68250064 67396624 66406472 65285348 64042440 62693180 
2923.314 61260096 59772944 58263356 56758088 55276272 53826156 52407004 
2926.689 51012480 49636572 48275968 46931248 45606760 44307796 43039232 
2930.064 41804460 40605968 39445640 38325136 37245636 36206772 35206748 
2933.440 34241968 33308412 32403238 31525958 30678360 29864424 29087440 
2936.815 28348766 27647576 26980232 26342890 25732528 25147458 24587862 
2940.190 24054654 23547844 23065912 22606256 22166090 21743472 21338842 
2943.565 20954304 20593834 20261190 19959542 19691554 19459044 19263926 
2946.941 19107950 18992112 18914962 18872048 18855230 18854020 18857272 
2950.316 18856304 18846130 18826200 18799174 18768658 18737628 18705732 
2953.691 18669792 18624238 18562198 18476306 18360258 18208198 18015816 
2957.066 17780680 17503480 17188362 16843232 16479410 16109223 15743887 
2960.442 15391525 15055364 14733860 14421088 14109500 13791397 13460711 
2963.817 13114464 12753683 12382089 12005771 11631479 11264924 10909652 
2967.192 10566077 10232409 9905572 9583284 9265398 8955219 8658377 8380517 
2971.050 8126737 7898007 7691723 7501684 7320726 7142874 6964758 6786884 
2974.907 6612514 6445949 6291080 6149774 6021920 5905523 5797283 5693771 
2978.764 5591861 5488531 5381905 5271079 5156727 5041300 4928617 4823067 
2982.622 4728294 4646100 4575743 4514604 4458796 4405170 4352221 4301052 
2986.479 4254640 4216898 4191271 4179394 4180833 4193379 4213285 4236472 
2990.337 4258990 4278431 4293054 4303227 4310455 4318554 4331639 4354798 
2994.194 4392619 4448217 4523375 4618036 4730404 4857711 4996451 5142913 
2998.052 5293215 5444072 5592800 5737382 5876907 6011035 6138953 6258908 
3001.909 6367970 6461553 6534841 6584054 6607905 6607401 6587182 6552669 
3005.766 6509379 6461587 6411178 6358185 6300997 6237833 6166477 6084952 
3009.624 5991583 5884699 5763403 5627674 5479270 5321054 5156995 4990719 
3013.481 4824674 4659363 4494114 4327422 4159054 3990184 3823451 3662329 
3017.339 3509484 3365775 3229859 3099390 2971564 2845509 2722258 2605342 
3021.196 2499155 2407786 2333160 2275233 2231302 2197000 2167728 2138425 
3025.053 2104929 2064078 2014110 1955260 1889497 1820683 1753942 1694329 
3028.911 1645967 1610979 1588963 1577191 1571438 1567048 1558968 1544037 
3032.768 1519830 1485518 1441666 1390606 1336129 1282123 1233208 1192373 
3036.626 1161408 1139781 1125961 1118121 1114965 1116394 1122938 1135429 
3040.483 1153435 1175163 1197290 1216296 1228955 1234139 1232145 1225633 
3044.341 1217558 1211145 1208587 1211212 1218588 1229686 1242114 1252614 
3048.198 1257333 1252880 1236531 1207922 1168651 1122739 1074938 1029766 
3052.055 990876 960092 937578 923366 917190 918684 927848 943455 963213 
3056.395 983769 1002101 1016515 1027707 1038202 1051255 1068461 1088889 
3060.252 1108255 1120812 1120712 1105332 1076233 1038634 999743 966268 
3064.110 942658 929343 924694 925524 929642 935851 944152 953982 964010 
3068.449 970818 970984 961287 941596 913737 882792 853642 831133 817954 
3072.789 814369 819216 830735 847434 867652 890096 912408 931501 943787 
3077.129 946742 938873 921075 896139 868217 841325 819249 804277 798070 
3081.468 801024 812610 831233 853841 876517 894412 903311 901020 887672 
3085.808 866059 840860 817622 800526 791896 791896 797904 805738 810419 
3090.147 807165 792294 765009 726773 683761 643973 616266 607805 621674 
3094.487 655056 699923 745592 782037 803016 808095 801456 790336 780112 
3098.827 772411 764743 751865 728200 691958 646428 599642 561321 540122 
3103.166 540022 560359 595595 638000 680841 718841 749309 771415 784593 
3107.506 788078 781074 763283 736896 706163 677887 659304 656782 673142 
3111.845 706992 752562 801356 844479 874226 886577 881630 863469 837873 
3116.185 810950 787348 768395 752662 736829 717712 694049 667866 643575 
3120.525 627382 624362 636407 660963 692456 722458 744331 754155 752662 
3124.864 743965 733876 727005 724848 724715 720500 705233 673407 623168 
3129.204 556809 481240 405882 340287 293070 270325 273939 302387 351064 
3133.543 413046 479581 542544 594400 629207 643741 637967 615138 581062 
3137.883 544003 512388 493049 490030 503133 528278 558136 584944 602463 
3142.223 607606 601401 588660 575389 566663 565369 570976 580166 588892 
3146.562 594035 594732 593272 592940 597419 608269 624130 640555 651472 
3150.902 651605 638166 612417 579702 548648 528278 525923 545264 585044 
3155.241 638597 696007 747583 784560 802651 802983 790900 774004 759599 
3159.581 752130 752064 756213 758902 755483 743700 724782 702877 683828 
3163.921 672014 669160 673507 680509 684823 681936 669989 649846 625324 
3168.260 600306 579105 564540 557307 556245 559198 563279 565402 563577 
3172.600 557174 547487 537601 531695 534084 546923 569649 597486 623234 
3176.939 638133 635511 612815 572933 523667 474904 436594 414538 410194 
3181.279 419414 436130 452714 463427 465285 458253 444986 429132 414538 
3185.619 404324 400344 403428 412980 426744 441039 452084 455998 450923 
3189.958 437921 421172 406811 400941 407275 425749 451619 477326 495238 
3194.298 500081 491291 472781 452216 437324 433642 442598 461636 485519 
3198.637 508242 526354 538695 547089 554288 563047 574559 588428 602728 
3202.977 615469 624661 629538 629605 625192 616266 602861 585608 565369 
3207.317 543506 522009 502536 486215 473179 462897 454571 448070 443924 
3211.656 443327 448236 459547 477292 499716 524662 548913 570047 586338 
3215.996 597419 603060 603923 600206 591679 578010 559099 535411 508175 
3220.335 479382 451254 426213 405982 391920 384591 383994 389466 399846 
3224.675 413709 428866 442929 453875 459613 459447 454041 445052 435400 
3229.015 427938 424720 425815 429231 431254 428103 416893 397890 374277 
3233.354 352390 339358 340453 357630 388139 425450 460409 484690 493447 
3237.694 486016 466479 441669 419281 404788 400974 406910 419248 433510 
3242.033 445350 452614 454339 451686 447341 444422 445815 453875 469199 
3246.373 490495 515473 540221 560724 573995 578209 573298 561620 545928 
3250.713 529605 516270 508308 507445 514113 527416 545264 564705 582522 
3255.052 595528 602595 604719 604387 605449 610227 618854 628742 633620 
3259.392 627514 605548 567127 515938 459115 405750 362704 334219 320590 
3263.731 319794 329311 347781 375305 412913 460409 514843 569848 616730 
3268.071 647490 656616 643608 613047 573531 533686 501508 481207 473776 
3272.411 477558 490030 508407 530236 553060 574128 589954 597718 595926 
3276.750 585674 570876 557373 550904 554421 567459 585375 601268 607904 
3281.090 600571 578972 546890 511459 479813 458253 449132 451652 462067 
3285.429 476131 489897 501043 509403 515938 521610 527184 531596 533288 
3289.769 529970 520151 503863 482699 459746 438949 423759 416329 417391 
3294.109 425881 439679 456429 473776 490196 504261 514909 521046 521876 
3298.448 517099 507114 493513 478254 463461 450691 440375 432216 425749 
3302.788 420674 418684 422200 434670 458319 493613 538165 586437 630965 
3307.127 664912 682036 680078 660133 626718 586338 546094 512985 491656 
3311.467 484491 490992 507644 528411 546060 553624 545629 521046 482301 
3315.807 436030 390395 353916 332992 330538 345891 375604 415135 459049 
3320.146 502768 542444 574924 597718 609132 608999 598514 579934 556345 
3324.486 530368 503133 474838 444753 413311 382203 355441 337833 333390 
3328.825 342940 363367 388703 411288 425782 430956 430790 432680 444455 
3333.165 470891 511061 558302 601733 630567 637436 620944 585541 540188 
3337.505 495006 457556 432050 418817 415268 418518 426445 438219 454604 
3341.844 476596 503929 535079 566563 593206 609497 611222 596125 565369 
3346.184 523435 478155 438054 411122 401836 410326 431884 458154 480178 
3350.523 490262 484391 462897 429762 391224 353087 320424 296253 282029 
3354.863 277950 283753 298043 319032 344167 370132 394606 416429 436263 
3359.203 456727 480576 510232 546027 585608 625324 661428 691228 713597 
3363.542 729594 740514 747119 749176 745293 734075 715190 689868 660333 
3367.882 629240 598614 568952 540354 512654 487376 467474 456495 457988 
3372.221 472018 495603 521942 541781 547951 535610 505422 463096 418087 
3376.561 381142 361278 364428 391423 438684 498257 559961 613346 649680 
3380.901 664116 656848 633388 601633 571208 549245 538231 536340 538529 
3385.240 539558 536572 531364 529572 538364 562350 601998 650941 699392 
3389.580 734938 748612 737095 703674 657479 610957 575422 558170 560592 
3393.919 578308 603856 628012 642612 642911 626618 595860 554951 511028 
3398.259 471455 442863 430757 437888 464389 507346 561952 621243 677854 
3402.599 724881 757176 772842 772909 761856 745525 730258 720666 718011 
3406.938 721164 726541 730590 731320 729561 728200 731287 742240 761856 
3411.278 788277 817589 844844 866059 878874 882360 876251 860249 833524 
3415.617 796045 749077 696472 644637 601501 574957 569914 587565 624329 
3419.957 673806 727669 778518 821241 853077 873197 881862 880534 870939 
3424.297 856065 839566 824892 814933 810153 809157 808858 805605 797904 
3428.636 785987 772278 760163 751799 747152 743368 736398 722823 701848 
3432.976 675863 650311 631496 624594 631563 650045 675067 699392 715953 
3437.315 720268 711141 690465 663419 636374 615967 606378 609431 623566 
3441.655 644769 667467 686914 700853 709714 715887 722657 731685 741908 
3445.995 749442 750006 740945 723786 704603 691693 693817 715057 754255 
3450.334 804643 856198 898065 921440 922502 902348 865428 817689 764710 
3454.674 710975 658972 611620 572104 544402 532890 540653 568388 613346 
3459.013 669890 729594 783697 825291 850056 857593 850853 834785 814966 
3463.353 794850 775697 756645 735635 711340 684857 660200 643110 639128 
3467.693 650809 675830 707822 737095 754819 755914 740879 715754 690034 
3472.032 673839 673607 691162 722989 762453 801091 830967 846936 846006 
3476.372 828013 795049 751898 705200 664082 638166 634781 657147 701682 
3480.711 758769 813771 853277 868051 856729 825125 783730 743102 710013 
3485.051 686914 671980 661229 651406 641318 632259 626585 625789 629572 
3489.391 634914 638265 636839 629605 618024 605217 594234 586702 582157 
3493.730 578109 571938 561554 547520 532359 520184 515772 522573 542046 
3498.070 572933 612384 656019 699061 736332 763051 774701 767830 740713 
3502.409 693717 630998 559596 488836 428369 385055 362903 361808 376997 
3506.749 400808 424820 440541 442863 431354 410326 388007 372818 371193 
3511.089 384956 411686 445748 481671 514943 543904 568454 590253 609796 
3515.428 626386 637170 638166 626751 601899 566364 525790 488007 460011 
3519.768 446744 449198 464588 486580 506583 516668 510995 488206 451918 
3524.107 410658 374012 350401 344929 358061 385752 420674 454538 480012 
3528.447 492684 491523 478221 455865 428269 398818 371259 348942 335644 
3532.787 333788 344465 366451 395701 426346 451752 467043 470161 463195 
3537.126 450790 438750 432083 433344 443559 461935 487410 518061 553160 
3541.466 590850 628543 663120 690498 706860 710046 699691 677257 645931 
3545.805 609596 571706 535411 503995 480676 469265 472052 489931 520814 
3550.145 559464 598813 630501 648884 652733 646993 640356 641916 658275 
3554.485 689669 732116 777158 816626 842985 852115 843516 819382 783663 
3558.824 740779 695709 653198 618555 596623 590949 602795 630401 668463 
3563.164 709050 743799 765407 769390 755118 725910 688938 651970 621475 
3567.503 600074 586769 580166 579470 585574 599974 622869 652999 686317 
3571.843 717779 742405 756910 761258 758570 753524 750637 751799 756047 
3576.183 759565 758171 748313 729992 705399 679115 655687 638630 628908 
3580.522 625258 625026 626220 627315 628410 630899 636407 645566 657811 
3584.862 670885 680708 682102 669657 640024 594566 539425 482898 432382 
3589.201 391622 360316 336009 315550 296849 278813 262202 249537 244266 
3593.541 249073 265086 290318 320690 350633 375239 391323 397392 394076 
3597.881 382634 365124 344565 324835 309980 304044 309549 326294 351296 
3602.220 379683 406479 428501 445052 458087 470824 486846 508242 534681 
3606.560 563345 590120 610857 623433 628278 627813 622902 613545 598083 
3610.899 575289 545928 515208 490959 482401 494707 525094 562715 592907 
3615.239 603856 587963 545662 483429 414638 353916 314821 303116 314555 
3619.579 336805 356569 366351 366451 363035 364163 377030 405551 449463 
3623.918 505024 565236 621774 666239 692689 698098 683396 654094 621641 
3628.258 600903 603724 629572 665277 694215 705433 695244 664547 616830 
3632.597 556876 491622 428402 374410 335446 315053 314124 331765 365290 
3636.937 409796 458452 503166 536207 552397 551534 537932 519222 503531 
3641.277 497726 504659 522340 545861 569151 588229 601567 611587 623002 
3645.616 642247 674469 721031 776958 830005 862108 858024 812676 736033 
3649.956 648718 574062 527383 511824 522108 550274 588959 632890 677423 
3654.295 718774 750803 766370 759831 729893 682766 630235 584811 554719 
3658.635 543638 550075 568355 590551 608933 617693 615735 606146 594798 
3662.975 588461 590651 601434 616863 631330 639858 639958 632094 620579 
3667.314 610725 608535 618555 642281 676859 715688 751765 780842 802850 
3671.654 819780 833125 841591 841292 824660 783663 713597 622769 535112 
3675.993 479117 467739 495338 546890 606809 662324 702977 722126 719173 
3680.333 698563 668330 637403 612649 596922 589788 587532 585973 581128 
3684.673 571042 555681 535909 512819 486846 458286 427705 398254 375703 
3689.012 366716 374576 397492 427938 455832 473047 476629 468303 453245 
3693.352 437656 426047 419878 417324 414306 406844 392749 374344 356403 
3697.691 345858 347449 363367 391224 425881 460044 486116 499982 501872 
3702.031 496300 489698 488007 494077 508109 528677 553127 578574 601899 
3706.371 619285 627614 624760 610127 586072 557174 529108 506417 490495 
3710.710 477326 459281 430093 388836 341978 299767 271717 264258 279111 
3715.050 314522 366782 431486 503531 577346 648419 711440 761922 796410 
3719.389 812875 810950 791763 758769 716119 668961 621508 576251 533321 
3723.729 491324 449563 408867 373117 347748 338629 348278 374874 411786 
3728.069 451785 487741 515241 532857 542245 547354 554122 569284 597851 
3732.408 641318 695509 752960 803448 836711 845176 827415 790070 744563 
3736.748 703242 671980 651406 638000 627116 615138 600339 583252 566796 
3741.087 555316 553160 564805 592841 637801 694879 752894 798435 824295 
3745.427 833391 834686 835947 840030 846139 850787 849193 837507 815199 
3749.767 786352 759200 741310 735070 736531 738622 734639 721131 697965 
3754.106 666339 627713 583351 534714 484491 437059 398487 375139 371226 
3758.446 386945 416694 450790 478420 492617 491755 480411 465152 452747 
3762.785 448236 453410 467839 488703 512256 535345 556245 575787 595196 
3767.125 614872 633487 647656 653165 647192 630036 606577 584944 572005 
3771.465 571872 584546 607274 635611 664978 690930 709813 719073 717580 
3775.804 705731 685421 659569 631828 605847 584546 569549 560160 554255 
3780.144 549245 544003 539624 538231 542842 556146 578507 608468 641617 
3784.483 672246 694680 705499 704171 692456 672843 647723 619020 587864 
3788.823 555748 524729 497693 478089 469265 472947 488637 513715 543605 
3793.163 571938 593172 602629 596888 575355 540089 497262 454704 420740 
3797.502 401173 398785 414704 449397 502934 573962 656019 736995 799066 
3801.842 829075 825955 799663 762586 723985 688109 655521 624063 591912 
3806.181 557971 525193 499451 486746 490428 509370 539160 573597 606212 
3810.521 630766 642081 638299 619816 590850 556942 525591 504725 501508 
3814.861 521179 562682 616498 666571 698430 705233 688076 652833 607174 
3819.200 561023 523966 506152 512886 540420 576583 609099 631961 645599 
3823.540 653364 658375 661394 661328 655255 640621 617759 590584 565601 
3827.879 549245 545729 556013 577479 605349 633985 658043 673673 680210 
3832.219 679381 674005 666671 658607 650045 640754 630899 620646 611189 
3836.559 603193 596490 591215 588063 588428 595893 613346 642181 680476 
3840.898 723653 764577 795116 809024 802385 776427 736796 692788 654326 
3845.238 627946 616996 621276 638133 663220 692224 720932 745957 765142 
3849.577 777622 783929 785024 782469 777855 772112 765407 757242 747683 
3853.917 737361 727636 719571 713365 709050 705997 703773 701151 697103 
3858.257 689934 677556 657512 627813 587631 538629 485220 435666 399979 
3862.596 387310 403229 447374 512256 584546 650079 699392 730059 746322 
3866.936 754454 760661 768328 776992 782867 780012 764179 736730 703740 
3871.275 672478 647590 630799 621309 617659 617859 620281 624030 629140 
3875.615 636706 647358 662357 682301 707457 736995 768461 797439 817323 
3879.955 821772 808593 781572 749641 723122 709714 712668 730988 759333 
3884.294 789605 811514 816726 803879 779846 755018 737560 731220 735203 
3888.634 746056 759665 772212 781207 785887 786784 785423 782601 778286 
3892.973 772145 764312 755715 747816 741841 738157 735900 733544 729163 
3897.313 722160 713962 708652 711705 728067 758570 799530 842487 877114 
3901.653 894811 890229 863336 819249 767864 721064 688076 673673 676593 
3905.992 691062 709780 726142 735137 734008 722890 704105 681571 659901 
3910.332 643542 635412 636971 647391 664680 685719 706893 724848 736697 
3914.671 740447 735834 725313 713796 707192 710178 724284 745957 768129 
3919.011 783531 786883 777888 760959 743401 732183 731121 739219 750969 
3923.351 758669 755649 739551 714327 688972 672146 669425 681007 702479 
3927.690 726906 748015 762121 768494 770021 770652 774203 782336 794086 
3932.030 806236 814966 816493 808095 788609 757773 716551 668330 618323 
3936.369 573298 540586 525890 530667 551866 581825 611620 633288 641916 
3940.709 636341 619551 596424 572701 553392 541947 540122 548681 567957 
3945.049 597021 633487 673076 709714 736464 748479 744364 728067 706428 
3949.388 687976 678750 680509 690664 704271 715953 721960 721098 715024 
3953.728 707026 701151 701185 709581 727835 755051 788842 824959 857194 
3958.067 880102 888868 881729 859817 827515 790501 754022 721330 692456 
3962.407 665343 636905 605084 570677 537534 510763 496100 497626 515905 
3966.747 548349 588660 629704 664149 686748 695841 693386 684292 675100 
3971.086 672711 681704 703674 736398 774768 812145 842520 862174 870209 
3975.426 868814 861178 851019 840097 829307 817456 803713 787016 767399 
3979.765 745393 721894 697932 674436 652501 634051 621077 615901 619650 
3984.105 631828 649515 668231 682965 689403 686217 674868 659868 647159 
3988.445 642845 651074 673607 708884 753093 800626 845674 883356 910748 
3992.784 925956 929542 922635 907328 885049 857427 825324 790037 753458 
3997.124 718608 688872 667932 657744 658043 665808 676626 685354 
##END=
