##TITLE=cetvrtomas_1 Sep 25 08:50:23 2026 (GMT+02:00)
##JCAMP-DX=5.01  $$ Nicolet v. 970
##DATATYPE=INFRARED SPECTRUM
##ORIGIN=Vojna akademija
##OWNER=Nicolet
##LONGDATE=2026/09/25
##TIME=08:51:13
##SPECTROMETER/DATA SYSTEM=Nicolet iS20
##DATA PROCESSING=
Ratio against background
%Transmittance->Absorbance
Truncated
ElementMultiply or ElementDivide
##COMMENTS=
Number of sample scans: 8
Collection length: 11,90 sec
Sample gain: 8,0
Background collected on: Fri Sep 25 08:49:20 2026 (GMT+02:00);
Number of background scans: 8
Background gain: 8,0
Sample spacing:  1,000
Number of scan points: 12415
Resolution points: 8286
Number of FFT points: 65536
Apodization: N-B strong;
Phase correction: Mertz;
Laser frequency: 15798,00 cm-1
Number of rejected sample scans: 0
Number of rejected background scans: 0
Bench serial number: BER2010005;
##RESOLUTION= 4,000
##XUNITS=1/CM
##YUNITS=ABSORBANCE
##FIRSTX=400.156891
##LASTX=4000.123047
##FIRSTY=0.011704
##MAXX=4000.123047
##MINX=400.156891
##MAXY=0.200802
##MINY=0.000463
##XFACTOR=1.000000
##YFACTOR=1.000000E-009
##NPOINTS=7468
##DELTAX=0.482117
##ZPD=6100
##XYDATA=(X++(Y..Y))
400.157 11704420 8528532 6093991 4508678 3783173 3821345 4456887 5481853 
404.014 6694408 7937689 9115238 10209375 11261217 12326556 13424484 14509435 
407.871 15482919 16246412 16756888 17079722 17367550 17807778 18513372 
411.246 19455544 20450610 21225958 21520620 21197600 20334242 19201238 
414.620 18167046 17540772 17528492 18194066 19485034 21214266 23062940 
417.995 24578990 25254204 24817768 23470022 21790362 20354936 19534246 
421.370 19451420 20045378 21124198 22382052 23460578 23991376 23764568 
424.745 22821774 21459800 20084834 19068272 18617876 18727490 19223714 
428.120 19846250 20363928 20628126 20617564 20409422 20135084 19912294 
431.494 19816944 19885132 20126894 20551622 21174082 21994672 22974130 
434.869 24006960 24940328 25595368 25847998 25670832 25133556 24349632 
438.244 23417494 22388262 21264580 20035142 18723306 17416142 16285764 
441.619 15556577 15428293 16015738 17278688 19029568 20967446 22787728 
444.994 24232562 25118354 25369476 25007010 24162254 23045750 21928104 
448.369 21060336 20608288 20639662 21115710 21927580 22920824 23947048 
451.743 24880604 25636138 26170412 26465528 26513214 26310184 25868008 
455.118 25229938 24476792 23746054 23195738 22964944 23113680 23581568 
458.493 24208774 24815348 25286372 25583172 25723422 25738154 25644224 
461.868 25435416 25090516 24590914 23935774 23143174 22242320 21264162 
465.243 20243450 19231196 18296904 17529180 17009802 16772695 16778034 
468.617 16915364 17042470 17028788 16821256 16469602 16125660 15977098 
471.992 16167374 16692391 17376550 17918914 18036332 17593250 16626906 
475.367 15329083 13966278 12827461 12121395 11943406 12254091 12919239 
478.742 13768208 14663905 15544145 16406903 17282998 18193376 19118752 
482.117 19982612 20663012 21004760 20873604 20189960 18978302 17378310 
485.492 15641790 14067812 12900090 12284596 12217523 12562133 13076901 
488.866 13504801 13644964 13413616 12875036 12210332 11655270 11394025 
492.241 11513842 11961968 12581575 13151756 13475133 13426568 12963410 
495.616 12131481 11050781 9906522 8901272 8233770 8050413 8406428 9259982 
499.473 10472385 11843390 13118630 14060214 14505530 14406394 13843355 
502.848 12986626 12035338 11141607 10401315 9854321 9502673 9333066 9321319 
506.705 9430949 9607674 9787113 9912759 9953236 9918251 9849779 9805041 
510.562 9822733 9905268 10012637 10081982 10055667 9919200 9711784 9523841 
514.419 9460714 9607301 9997786 10598399 11312329 12009347 12577652 12947093 
518.276 13108727 13105516 13011172 12904356 12845958 12874729 12999292 
521.650 13202169 13440854 13659940 13797007 13797040 13632176 13310391 
525.025 12881385 12420547 12014150 11725660 11579207 11560968 11635836 
528.400 11768384 11936560 12134854 12365930 12624894 12891044 13120542 
531.775 13256652 13247088 13055115 12676439 12140339 11511937 10873333 
535.150 10311051 9900081 9680850 9657608 9795993 10037458 10304266 10522318 
539.007 10636971 10620775 10481618 10257106 10011179 9815513 9738756 9832866 
542.863 10116404 10568487 11124813 11693629 12160512 12423615 12423581 
546.238 12165759 11727499 11236531 10838849 10640468 10682100 10922870 
549.613 11261524 11563112 11710444 11649449 11397631 11036914 10677652 
552.988 10431758 10370229 10511965 10820676 11225277 11641078 11994666 
556.363 12245332 12388669 12455087 12494301 12563430 12701072 12911900 
559.738 13160090 13379342 13492702 13441435 13215217 12864080 12491301 
563.112 12213399 12132537 12296253 12685378 13222561 13806412 14349643 
566.487 14801632 15163260 15469734 15764948 16070437 16374318 16635684 
569.862 16809408 16866654 16815194 16696593 16578574 16529625 16602326 
573.237 16823324 17187914 17663230 18191578 18705766 19132256 19410464 
576.612 19512968 19454714 19293092 19109058 18989724 18994120 19138318 
579.986 19386004 19662952 19878334 19956558 19865050 19616360 19257588 
583.361 18845924 18437896 18073704 17776780 17562886 17442734 17425662 
586.736 17516554 17707818 17973612 18267666 18536920 18726486 18798794 
590.111 18742954 18578242 18352860 18130946 17984596 17969366 18111496 
593.486 18399454 18784576 19189082 19521666 19707400 19699668 19502398 
596.861 19164600 18767484 18390330 18084622 17861910 17696738 17546016 
600.235 17374998 17179090 16984924 16834930 16760917 16764602 16811508 
603.610 16846814 16815678 16694183 16501196 16291922 16129650 16061464 
606.985 16095847 16201355 16322264 16404666 16421391 16377347 16301107 
610.360 16222645 16155029 16084433 15977509 15801337 15545554 15233501 
613.735 14919992 14666510 14522831 14502172 14574019 14671274 14716413 
617.109 14650025 14446676 14123534 13729186 13327577 12972492 12700048 
620.484 12524072 12441345 12439675 12506987 12633831 12811387 13028039 
623.859 13266628 13499571 13696802 13830869 13885432 13864119 13792320 
627.234 13710241 13661274 13681755 13789584 13980649 14232500 14512792 
630.609 14791484 15045657 15263323 15439554 15567739 15636533 15629904 
633.984 15534873 15351293 15101744 14829779 14586218 14420848 14359917 
637.358 14400811 14513992 14657017 14789222 14886525 14948764 14995990 
640.733 15057628 15157633 15307803 15501907 15720146 15933167 16111322 
644.108 16228251 16263576 16207304 16061189 15842296 15580240 15316418 
647.483 15095637 14953840 14911762 14970061 15111659 15309485 15540814 
650.858 15792023 16059883 16346380 16649388 16955810 17245106 17491406 
654.232 17675860 17794730 17860632 17899198 17938114 18000966 18098956 
657.607 18232836 18397346 18588410 18806026 19054562 19336046 19645202 
660.982 19964190 20265392 20514590 20683272 20759068 20752916 20696408 
664.357 20638550 20636394 20744540 21017036 21500044 22216130 23119690 
667.732 24055600 24794368 25164698 25182288 24997008 24772442 24611392 
671.107 24563564 24643266 24841658 25136540 25499082 25902298 26323738 
674.481 26750132 27177156 27604992 28037418 28480606 28943160 29434538 
677.856 29962574 30528682 31126530 31741850 32356438 32955560 33530812 
681.231 34080916 34606596 35102952 35556036 35946640 36257732 36488608 
684.606 36661696 36822196 37021508 37306508 37700784 38197796 38761528 
687.981 39337124 39867284 40303560 40621172 40819032 40918300 40955148 
691.355 40974884 41022224 41127916 41303884 41538440 41802452 42058848 
694.730 42282236 42468280 42638840 42830776 43079296 43400192 43780176 
698.105 44180272 44553232 44867320 45117740 45331044 45549532 45813896 
701.480 46143124 46531048 46955500 47397700 47857808 48361368 48947208 
704.855 49649128 50473420 51390984 52339080 53245540 54054368 54739112 
708.229 55308896 55796008 56238892 56666640 57098248 57549240 58039360 
711.604 58600336 59268860 60073504 61022768 62098524 63262196 64468384 
714.979 65685600 66905192 68140200 69408584 70718624 72054880 73382552 
718.354 74655424 75835752 76906360 77866464 78721288 79462512 80057648 
721.729 80456208 80599984 80442248 79963272 79167992 78083192 76744816 
725.104 75197592 73489592 71671576 69799112 67923376 66086144 64318196 
728.478 62636068 61047404 59555388 58161212 56863980 55656964 54526132 
731.853 53448636 52399112 51359696 50324316 49303204 48316300 47383104 
735.228 46508700 45678456 44857880 44006248 43087488 42085348 41007548 
738.603 39884028 38754716 37658104 36627268 35682244 34832316 34077688 
741.978 33411528 32818958 32277982 31763702 31249354 30714986 30152862 
745.352 29568692 28979642 28406526 27868472 27375864 26930592 26528888 
748.727 26165838 25837130 25538192 25262422 24996130 24720530 24416924 
752.102 24073426 23695208 23305954 22945764 22655578 22464672 22377344 
755.477 22369738 22393250 22390076 22315390 22147192 21895730 21597016 
758.852 21303344 21061762 20903262 20833000 20830046 20854484 20858272 
762.227 20803316 20668920 20460580 20207002 19956626 19759516 19651304 
765.601 19642256 19709968 19804078 19857454 19811152 19627732 19307710 
768.976 18885788 18423930 17988878 17629998 17370756 17201738 17089440 
772.351 16988162 16861074 16689051 16476313 16244829 16025743 15846558 
775.726 15719596 15640106 15585907 15527043 15430833 15273928 15047234 
779.101 14758061 14429206 14094132 13791637 13554502 13405894 13353202 
782.475 13385083 13472638 13573680 13644451 13644588 13549511 13355219 
785.850 13078608 12751534 12415364 12111004 11866748 11697816 11603505 
789.225 11572164 11585605 11624775 11672696 11713712 11734817 11725252 
792.600 11677291 11590914 11475600 11353243 11252751 11205862 11236837 
795.975 11351882 11535142 11751192 11953317 12092469 12134410 12067803 
799.350 11905672 11680014 11432702 11204808 11025495 10912200 10870478 
802.724 10897523 10986786 11130252 11318859 11539497 11774070 11998584 
806.099 12185182 12310774 12361362 12336510 12251024 12131378 12008530 
809.474 11909656 11854592 11850710 11896204 11984584 12110867 12276040 
812.849 12486901 12751534 13074305 13448440 13854370 14258418 14620656 
816.224 14903704 15077936 15130700 15066409 14906481 14680184 14420060 
819.598 14158038 13919301 13725937 13596073 13541820 13569236 13675361 
822.973 13847699 14064458 14301357 14534891 14746851 14928565 15078004 
826.348 15197435 15288034 15347654 15370859 15353386 15294933 15203852 
829.723 15095672 14990296 14906138 14854671 14839035 14855837 14897634 
833.098 14958469 15036326 15133135 15252067 15395026 15559702 15739730 
836.473 15927942 16118541 16310189 16506841 16714532 16937376 17174816 
839.847 17418592 17655844 17870646 18050148 18188364 18286814 18354416 
843.222 18403570 18447646 18496498 18554416 18619916 18686810 18747348 
846.597 18795370 18830110 18857134 18888038 18936214 19013678 19125886 
849.972 19269884 19434338 19604574 19765446 19906360 20023762 20118982 
853.347 20196520 20258554 20302924 20323512 20310458 20254490 20150078 
856.721 19997704 19803418 19578334 19336808 19095346 18869798 18674738 
860.096 18520840 18413800 18355452 18344046 18377990 18455976 18576134 
863.471 18734964 18921226 19116122 19292122 19417950 19469128 19435552 
866.846 19330020 19186002 19055048 18988130 19022886 19172738 19422452 
870.221 19732642 20049820 20324762 20520184 20619230 20625172 20554680 
873.596 20430120 20272058 20097082 19916558 19739612 19576566 19439986 
876.970 19345572 19308852 19339892 19438740 19591748 19773872 19950486 
880.345 20088788 20166878 20177914 20132724 20055336 19972932 19904558 
883.720 19854472 19811256 19756118 19669886 19544680 19388604 19222468 
887.095 19071354 18953864 18876894 18833640 18809418 18787586 18758106 
890.470 18716696 18663532 18598612 18519006 18420578 18302814 18176030 
893.844 18061478 17988258 17984732 18065138 18223470 18432434 18654296 
897.219 18850076 18994638 19083368 19130526 19159960 19192650 19240096 
900.594 19299916 19360642 19407762 19431946 19430492 19408040 19371106 
903.969 19325862 19277192 19229292 19187940 19160548 19153206 19167438 
907.344 19196736 19226936 19238540 19216650 19155664 19063910 18960682 
910.719 18871184 18816372 18807098 18840974 18904996 18981210 19051412 
914.093 19103102 19130076 19131080 19107604 19063044 19000558 18923788 
917.468 18836406 18742332 18643608 18542072 18440214 18341764 18254294 
920.843 18186914 18148080 18141414 18162002 18195622 18221466 18220152 
924.218 18178656 18096814 17986600 17869610 17768564 17700156 17672926 
927.593 17685832 17732528 17805120 17897402 18005042 18123068 18244618 
930.967 18359046 18455148 18525058 18568974 18596434 18624586 18673250 
934.342 18756690 18878278 19029082 19191680 19344950 19472246 19567764 
937.717 19637852 19697900 19767492 19865292 20002492 20181664 20396744 
941.092 20637092 20890536 21146600 21397836 21639050 21865240 22070454 
944.467 22246714 22386764 22486690 22550726 22592608 22634704 22704732 
947.841 22824324 23003616 23235830 23499506 23763202 23997014 24182990 
951.216 24318408 24416116 24497264 24584532 24692296 24826188 24984092 
954.591 25161468 25355742 25567498 25798030 26044866 26298004 26539594 
957.966 26746220 26897528 26981996 27001108 26969234 26909124 26846840 
961.341 26803450 26794078 26824632 26893014 26989012 27097234 27200508 
964.716 27282180 27331720 27348340 27341070 27324768 27314960 27318700 
968.090 27329920 27330448 27295552 27206118 27056820 26861184 26647950 
971.465 26454190 26309724 26229398 26210216 26233552 26273046 26303494 
974.840 26308846 26282972 26229398 26157250 26080050 26011866 25967122 
978.215 25958608 25994136 26073962 26188818 26322046 26452816 26562490 
981.590 26641222 26689102 26715246 26731702 26748510 26769620 26793266 
984.964 26814942 26831648 26844442 26857342 26874580 26897666 26922978 
988.339 26945400 26959994 26965954 26967398 26970538 26978542 26989646 
991.714 26996204 26989788 26967646 26937574 26916562 26926856 26984642 
995.089 27092016 27233282 27379570 27500208 27572686 27593906 27579500 
998.464 27559234 27562092 27608064 27701360 27830884 27976030 28116064 
1001.839 28237720 28337520 28420606 28496352 28574550 28660374 28753648 
1005.213 28848358 28935192 29003268 29044502 29057396 29049250 29036920 
1008.588 29040782 29079360 29158516 29267564 29378588 29458792 29482762 
1011.963 29447088 29377596 29326440 29356254 29515600 29824638 30263190 
1015.338 30777830 31293224 31739750 32071956 32276020 32369610 32390780 
1018.713 32385424 32390636 32434444 32531604 32686368 32895688 33150528 
1022.087 33437580 33737960 34032320 34303100 34537992 34732344 34887428 
1025.463 35007444 35095804 35153896 35182280 35182280 35158924 35119332 
1028.838 35070480 35016708 34957736 34889512 34808588 34716084 34618648 
1032.213 34526692 34448776 34386264 34331392 34270472 34188120 34077364 
1035.588 33943028 33800884 33671360 33571008 33506438 33472150 33453864 
1038.964 33434070 33400864 33348304 33277396 33191654 33094100 32986480 
1042.339 32870744 32752820 32643322 32557424 32510214 32511104 32561318 
1045.714 32653038 32774292 32912918 33062670 33223488 33401578 33603264 
1049.089 33832872 34090448 34372992 34676824 34998892 35337416 35688932 
1052.464 36047000 36401764 36740804 37054628 37340340 37603400 37855412 
1055.840 38109236 38375264 38658360 38957452 39269800 39592612 39924128 
1059.215 40261060 40596032 40914444 41197236 41426996 41593680 41700864 
1062.590 41764620 41808728 41853564 41911984 41985372 42068704 42156764 
1065.965 42250424 42357368 42488560 42649984 42838092 43039268 43236840 
1069.341 43421904 43601628 43800516 44056080 44406876 44876060 45466708 
1072.716 46158416 46917924 47705424 48491424 49259448 50006852 50739496 
1076.091 51467112 52201480 52953748 53737616 54568400 55458896 56417436 
1079.466 57443064 58524992 59644480 60780808 61914504 63028560 64108000 
1082.842 65136536 66096632 66975624 67771024 68498512 69189768 69888768 
1086.217 70636160 71456584 72353424 73310408 74300792 75297712 76283888 
1089.592 77249184 78183312 79070712 79884216 80592368 81172400 81620880 
1092.967 81957840 82220264 82448392 82667264 82881392 83075320 83226312 
1096.343 83316184 83338864 83298320 83201272 83044992 82816232 82493144 
1099.718 82058776 81510216 80864384 80152888 79412184 78676448 77968280 
1103.093 77301952 76686776 76129912 75637608 75212720 74852880 74551984 
1106.468 74305792 74119080 74010352 74008224 74142296 74429696 74864176 
1109.844 75413776 76029680 76666416 77292448 77903848 78518880 79164216 
1113.219 79857616 80594408 81348664 82084872 82771968 83393744 83950712 
1116.594 84447872 84879440 85220680 85425496 85443368 85239304 84804680 
1119.969 84163064 83359576 82446232 81464008 80440728 79394088 78338408 
1123.345 77294912 76293248 75364864 74542464 73849248 73299896 72904320 
1126.720 72669832 72604656 72718056 73016424 73501912 74172408 75025296 
1130.095 76063312 77299376 78754568 80453056 82409776 84619680 87050512 
1133.470 89649456 92350720 95089016 97817920 100507824 103145112 105721968 
1136.846 108227848 110647640 112966944 115176232 117275160 119267160 
1139.739 121151728 122917544 124542584 126002760 127286224 128401040 
1142.632 129373656 130233048 130996552 131656464 132187352 132560760 
1145.525 132771640 132853016 132877096 132928384 133082360 133379056 
1148.418 133814008 134350352 134941616 135557648 136192976 136863872 
1151.311 137590464 138379424 139213376 140055024 140860720 141600512 
1154.204 142263824 142859952 143405120 143912176 144383216 144811776 
1157.097 145187648 145502992 145750736 145918272 145984896 145921776 
1159.990 145703088 145322960 144805120 144202384 143574208 142967424 
1162.883 142391472 141815280 141176512 140412832 139487712 138402800 
1165.776 137194112 135913952 134607744 133298296 131987976 130668312 
1168.669 129334240 127989992 126645264 125306008 123965464 122604744 
1171.562 121203720 119753936 118267736 116776888 115317848 113910680 
1174.455 112549056 111199872 109821536 108382616 106881192 105345704 
1177.349 103826232 102367416 100993584 99700312 98462672 97249608 96042768 
1180.724 94844056 93672200 92549752 91490152 90491240 89538520 88613928 
1184.099 87704312 86805344 85917808 85039328 84160008 83261952 82327504 
1187.474 81350304 80341328 79328136 78343608 77414640 76550568 75740984 
1190.849 74961624 74187656 73402752 72604272 71800944 71005904 70228432 
1194.225 69471488 68732200 68006872 67295448 66601992 65932200 65290080 
1197.600 64675832 64086376 63519464 62976116 62461228 61981144 61537864 
1200.975 61126424 60734964 60351012 59968464 59592712 59239880 58929040 
1204.350 58673528 58470856 58302004 58137420 57950484 57728052 57477180 
1207.726 57221420 56992488 56815636 56700280 56638744 56610960 56592236 
1211.101 56561360 56506900 56424340 56315008 56182252 56032340 55875208 
1214.476 55725368 55602696 55526100 55508668 55553212 55652068 55790352 
1217.851 55951716 56125612 56307504 56497580 56696204 56900616 57104180 
1221.227 57301944 57494276 57690136 57904444 58151776 58437040 58751856 
1224.602 59074716 59382124 59656224 59894444 60107900 60315184 60529196 
1227.977 60748872 60958216 61134284 61259944 61334348 61375716 61416136 
1231.352 61487968 61609036 61777460 61973120 62169748 62344016 62486592 
1234.728 62601200 62699720 62792180 62880672 62958224 63013120 63034000 
1238.103 63013620 62950068 62842032 62686212 62476720 62207028 61875144 
1241.478 61486600 61053964 60591780 60110068 59610764 59088116 58533640 
1244.853 57942760 57319792 56678836 56037580 55410596 54805680 54220600 
1248.229 53648712 53082488 52520476 51967108 51431860 50923132 50446328 
1251.604 50002352 49589736 49208008 48859876 48551040 48287376 48070432 
1254.979 47895660 47750912 47620928 47491060 47351284 47197488 47030780 
1258.354 46854140 46669856 46479124 46282136 46079892 45873476 45663880 
1261.730 45450080 45228808 44996444 44751348 44497612 44244064 44002400 
1265.105 43781792 43584448 43404292 43230364 43052332 42865632 42674148 
1268.480 42488120 42317844 42167792 42033552 41902568 41762288 41605168 
1271.855 41435380 41266792 41119172 41009040 40943168 40917248 40918628 
1275.231 40931556 40942040 40941568 40925404 40889432 40828020 40733100 
1278.606 40597124 40416820 40194536 39937860 39654688 39348984 39017584 
1281.981 38651952 38243312 37789656 37298888 36790208 36286260 35809672 
1285.356 35375516 34990024 34652708 34360120 34109624 33898960 33726360 
1288.732 33585508 33464920 33350806 33229034 33091954 32940440 32784514 
1292.107 32637640 32511428 32411274 32334522 32273736 32220382 32170356 
1295.482 32124970 32089758 32070172 32068852 32083444 32108594 32137994 
1298.857 32168034 32197260 32225524 32249610 32262388 32250360 32199434 
1302.233 32098104 31942088 31737004 31498026 31245794 31000540 30781174 
1305.608 30600598 30465270 30376994 30332542 30325220 30344834 30379978 
1308.983 30419066 30451798 30471524 30474936 30462072 30434526 30395114 
1312.358 30347144 30294524 30242514 30196976 30163270 30144694 30140788 
1315.734 30146968 30155954 30160428 30153892 30133612 30099804 30053818 
1319.109 29996654 29927926 29845294 29747100 29632542 29501770 29354622 
1322.484 29188566 28997600 28774358 28512698 28211982 27880484 27535650 
1325.859 27198038 26887726 26618886 26396298 26217538 26076178 25966876 
1329.234 25888264 25842864 25834810 25865580 25930786 26020802 26122132 
1332.610 26222536 26314266 26396160 26471692 26547730 26631286 26727860 
1335.985 26843032 26983054 27155112 27366372 27619398 27907408 28210566 
1339.360 28499888 28746034 28930128 29053712 29135626 29204514 29287412 
1342.735 29403796 29561528 29756824 29976950 30205040 30425606 30626054 
1346.111 30800380 30947164 31069404 31172416 31264450 31354118 31448760 
1349.486 31551756 31661332 31770442 31868558 31946044 31997084 32021516 
1352.861 32024048 32012384 31993766 31973008 31952858 31934884 31920906 
1356.236 31914234 31917836 31932994 31957780 31987776 32017450 32043844 
1359.612 32068032 32097000 32140810 32208822 32304536 32422624 32550066 
1362.987 32669436 32768540 32843870 32898620 32938294 32966140 32981620 
1366.362 32982084 32965674 32934864 32897904 32867492 32856342 32871888 
1369.737 32915600 32984768 33077578 33197306 33355530 33571008 33866616 
1373.113 34259644 34753340 35328036 35944732 36553444 37107320 37570124 
1376.488 37908448 38089628 38079648 37846736 37378256 36688448 35821476 
1379.863 34834508 33786524 32722022 31667784 30642872 29662872 28742142 
1383.238 27892992 27116772 26401404 25721944 25048778 24356712 23636844 
1386.614 22903534 22191614 21539910 20973706 20496146 20093682 19747830 
1389.989 19442274 19167022 18915342 18681932 18461198 18249282 18048388 
1393.364 17870506 17738224 17677964 17704262 17809470 17965638 18137646 
1396.739 18297802 18435166 18555316 18673354 18804296 18954142 19113974 
1400.115 19265970 19389850 19471486 19504094 19484308 19409668 19276984 
1403.490 19083920 18833672 18539858 18228342 17928998 17669544 17466398 
1406.865 17323650 17238660 17208392 17235730 17331720 17513104 17795558 
1410.240 18186050 18675982 19240582 19844932 20456446 21049416 21611224 
1413.616 22139694 22637986 23109276 23554842 23971978 24355660 24696994 
1416.991 24981214 25184958 25276224 25224916 25024032 24704326 24324014 
1420.366 23938190 23581604 23263796 22980942 22727008 22501590 22315426 
1423.741 22188616 22140986 22182304 22305762 22494086 22729136 23001310 
1427.117 23313680 23680336 24120464 24650036 25272606 25974366 26727016 
1430.492 27495938 28250946 28969546 29638608 30252780 30811050 31317082 
1433.867 31780638 32217886 32654360 33124744 33664628 34288684 34975048 
1437.242 35669872 36317276 36885528 37371432 37788536 38155940 38492112 
1440.618 38811668 39123916 39432684 39737788 40036024 40324900 40602944 
1443.993 40872028 41136148 41402688 41682588 41990264 42344324 42763204 
1447.368 43259976 43837352 44486156 45192996 45952068 46769808 47665372 
1450.743 48660396 49767940 50979988 52264780 53578876 54875080 56124596 
1454.119 57320620 58467368 59568388 60602596 61506068 62176824 62543832 
1457.494 62644028 62602192 62549612 62546932 62596148 62677824 62772884 
1460.869 62872476 62976500 63088596 63209572 63330120 63428888 63465656 
1464.244 63384020 63122428 62617160 61814248 60673844 59164164 57278808 
1467.620 55041472 52513336 49767792 46883556 43916092 40863692 37687160 
1470.995 34332216 30796290 27206506 23834148 20973010 18758454 17125284 
1474.370 15891235 14870134 13947117 13078437 12274098 11562806 10964461 
1477.745 10474049 10067162 9712529 9385001 9070372 8764255 8468185 8185213 
1481.603 7917645 7666800 7435446 7228203 7049244 6900185 6776721 6668297 
1485.460 6561044 6444100 6315520 6186004 6073494 5994372 5950533 5924165 
1489.318 5879964 5785900 5634858 5449877 5268530 5121053 5020852 4965583 
1493.175 4944133 4943865 4956199 4976676 5003859 5036070 5065737 5077940 
1497.032 5057256 4995010 4896849 4778508 4659396 4552974 4463917 4388836 
1500.890 4320361 4252900 4186052 4123930 4073524 4041015 4028140 4031718 
1504.747 4042287 4048005 4039276 4019311 4009613 4032353 4083324 4136909 
1508.605 4169826 4174577 4154338 4118277 4075798 4033391 3991522 3946113 
1512.462 3890511 3821078 3739056 3651904 3569747 3504340 3464259 3451835 
1516.319 3459951 3475782 3487706 3491480 3490879 3492850 3503271 3523881 
1520.177 3551708 3578934 3597309 3601218 3591697 3572553 3545594 3508916 
1524.034 3459717 3397232 3325707 3254996 3198315 3164470 3153188 3153188 
1527.892 3149584 3129392 3087077 3025045 2952148 2879095 2815026 2766806 
1531.749 2737229 2726726 2732327 2748699 2770007 2792016 2814293 2840506 
1535.607 2875727 2925927 2998354 3100091 3237703 3411091 3607566 3790895 
1539.464 3903449 3895091 3766295 3575193 3388883 3249487 3164269 3120515 
1543.321 3096087 3069157 3022777 2949512 2854447 2751700 2658778 2589775 
1547.179 2554878 2560211 2606175 2686116 2783712 2876827 2942707 2971330 
1551.036 2967427 2946310 2924026 2912518 2915720 2929263 2942273 2944075 
1554.894 2930631 2907848 2888635 2889369 2925927 3009898 3139338 3277830 
1558.751 3354155 3318963 3207661 3088578 2998754 2941806 2907914 2886133 
1562.609 2867522 2845976 2819195 2787880 2756802 2733394 2724525 2735495 
1566.466 2768906 2823831 2895673 2973966 3040928 3070692 3042329 2951981 
1570.323 2820062 2677448 2550412 2453268 2389229 2355513 2346785 2356946 
1574.181 2378900 2404421 2423979 2427045 2407520 2369605 2326597 2293420 
1578.038 2280230 2291188 2324465 2373736 2429210 2479493 2513218 2523816 
1581.896 2511585 2483892 2451269 2423713 2407387 2403188 2407820 2416849 
1585.753 2427145 2438140 2451202 2468096 2487857 2507119 2520183 2521483 
1589.610 2508786 2484392 2455167 2429977 2417449 2423813 2450702 2495822 
1593.468 2553912 2618075 2680648 2734028 2771674 2788614 2782612 2754534 
1597.325 2708621 2651144 2588909 2528215 2474028 2429444 2395892 2373536 
1601.183 2361576 2358978 2363809 2373137 2383232 2390228 2390794 2384164 
1605.040 2371871 2358045 2347684 2345619 2354314 2373603 2400256 2429544 
1608.898 2458333 2485825 2514018 2546579 2586976 2636043 2692251 2751867 
1612.755 2811458 2868489 2922592 2975600 3029950 3086876 3143410 3190237 
1616.612 3214403 3205291 3162500 3094151 3013601 2932566 2860050 2802987 
1620.470 2766739 2754201 2766505 2801120 2850645 2902177 2943507 2965825 
1624.327 2968928 2957419 2937670 2915053 2893105 2873925 2858316 2847043 
1628.185 2840039 2837571 2840706 2850878 2870256 2900943 2944375 3000289 
1632.042 3066154 3136968 3205391 3262006 3296960 3303638 3285042 3257399 
1635.900 3246516 3270786 3327911 3402608 3478087 3544693 3599682 3646391 
1639.757 3693440 3751188 3829100 3932170 4060112 4206828 4363065 4518219 
1643.614 4664052 4794053 4904958 4996350 5070766 5132486 5185396 5231505 
1647.472 5270006 5299554 5320451 5335210 5347219 5360570 5379959 5411629 
1651.329 5464506 5551586 5684203 5856085 6027699 6150581 6213228 6235110 
1655.187 6237160 6230135 6217531 6199582 6175013 6141944 6098057 6041172 
1659.044 5968001 5875463 5761322 5625392 5470345 5303915 5138052 4986228 
1662.901 4858917 4759045 4683142 4625036 4580397 4549458 4536165 4547181 
1666.759 4589372 4668004 4782863 4924897 5073045 5199882 5280504 5305223 
1670.616 5281611 5228420 5165077 5105028 5057725 5029333 5025042 5049445 
1674.474 5106436 5193478 5299655 5409012 5506148 5581490 5631098 5652178 
1678.331 5642846 5603038 5537726 5458366 5382475 5329239 5313474 5343965 
1682.189 5424177 5553566 5721837 5901829 6053267 6147153 6189465 6206035 
1686.046 6220388 6244320 6283347 6341408 6422913 6533058 6674421 6844945 
1689.903 7035706 7232582 7420886 7588466 7729025 7842707 7934213 8012104 
1693.761 8088185 8179744 8307559 8493288 8746708 9055316 9392280 9736486 
1697.618 10081880 10435185 10806918 11199606 11592479 11940239 12196189 
1700.994 12352123 12438072 12492767 12540511 12590750 12644952 12702334 
1704.369 12762930 12828860 12904117 12992736 13097867 13221775 13366699 
1707.744 13535462 13730315 13950265 14189567 14439105 14686525 14922838 
1711.119 15145143 15358878 15575535 15809549 16073119 16371841 16703032 
1714.495 17057562 17427456 17816512 18247314 18757796 19390196 20155804 
1717.870 21015610 21896600 22734792 23509088 24240306 24967842 25735342 
1721.245 26582108 27538440 28624060 29847246 31206700 32694512 34301740 
1724.620 36020616 37845144 39770648 41797564 43939884 46236616 48753768 
1727.995 51574820 54772076 58363812 62280756 66376284 70468784 74451600 
1731.371 78369760 82476320 87224800 93225408 100994792 110444888 120568720 
1734.746 129929408 137677632 143897792 149149664 153995040 158829056 
1737.639 163867792 169175312 174669184 180168544 185418912 190164560 
1740.532 194197760 197362096 199543056 200681856 200802368 200034736 
1743.425 198583024 196660032 194377344 191716560 188558800 184777136 
1746.318 180317872 175251840 169736656 163966224 158060256 152014480 
1749.211 145713152 139041792 132003472 124769120 117653312 110971152 
1752.104 104911920 99490688 94593672 90049904 85686112 81359496 76963752 
1755.480 72440008 67809288 63179680 58725680 54622612 50971004 47773732 
1758.855 44953924 42394188 39967392 37564632 35126660 32667506 30280526 
1762.230 28096446 26218734 24676092 23424594 22377552 21444480 20549850 
1765.605 19645826 18714310 17767702 16842026 15980363 15220118 14575801 
1768.981 14039166 13585577 13188438 12822853 12466100 12099317 11708538 
1772.356 11292503 10867896 10459283 10087781 9762850 9483098 9238658 9016073 
1776.213 8802325 8590035 8378997 8175726 7988512 7824658 7685315 7566077 
1780.071 7456614 7347280 7232818 7113638 6993581 6875341 6757975 6638083 
1783.928 6511061 6375770 6236286 6101014 5979019 5874758 5787680 5713444 
1787.786 5647445 5587363 5534471 5491786 5461251 5439476 5414782 5369023 
1791.643 5286339 5163601 5016897 4872555 4755126 4675071 4629154 4605747 
1795.500 4591012 4574470 4551701 4523945 4494984 4467031 4437338 4397840 
1799.358 4339001 4255142 4149621 4035430 3930565 3851096 3804766 3788689 
1803.215 3792967 3805200 3813289 3807874 3783341 3736349 3667141 3578834 
1807.073 3480792 3386913 3314956 3282538 3300333 3367312 3466831 3571317 
1810.930 3647360 3668611 3626310 3530829 3405948 3278899 3173281 3101793 
1814.787 3066454 3058679 3064652 3068890 3059480 3031819 2990013 2944642 
1818.645 2908882 2894806 2909349 2951414 3012233 3076899 3127390 3145679 
1822.502 3118012 3037491 2907014 2740196 2561544 2401323 2283061 2218913 
1826.360 2205025 2227938 2269138 2313606 2350283 2375169 2391227 2407253 
1830.217 2432609 2471395 2519850 2569377 2610308 2634510 2638210 2622942 
1834.075 2593809 2558577 2524682 2497255 2477494 2464298 2455467 2449803 
1837.932 2447170 2446737 2445204 2435675 2408553 2355513 2271103 2156706 
1841.789 2022631 1888499 1778461 1716350 1715086 1768613 1853192 1939418 
1845.647 2005854 2044037 2056388 2050928 2037246 2021899 2010415 2005755 
1849.504 2009549 2021133 2038344 2055921 2065809 2059284 2027924 1967975 
1853.362 1882143 1780291 1677265 1588763 1528442 1505633 1523920 1579751 
1857.219 1663861 1762924 1861311 1945009 2004523 2035348 2039143 2023963 
1861.077 2001494 1982953 1977062 1986814 2010182 2041274 2073167 2100401 
1864.934 2120079 2131899 2137959 2139957 2138791 2132998 2118580 2090280 
1868.791 2042938 1972502 1878016 1760961 1625512 1478569 1330877 1195197 
1872.649 1085036 1012197 983138 997916 1051056 1132671 1230849 1333569 
1876.506 1429565 1508658 1561761 1583110 1570706 1529340 1469426 1406961 
1880.364 1357500 1331841 1332572 1354442 1385487 1414108 1432557 1439971 
1884.221 1441267 1443794 1452537 1467897 1485285 1497853 1500712 1492932 
1888.078 1478469 1463974 1456061 1457092 1464173 1471188 1472551 1466833 
1891.936 1456493 1446886 1443761 1450276 1466999 1490671 1516206 1538318 
1895.793 1552783 1556706 1547662 1524419 1485916 1433721 1373754 1315489 
1899.651 1271024 1252481 1267103 1315589 1392168 1484753 1578355 1659138 
1903.508 1717149 1746057 1745259 1715785 1660867 1584972 1494827 1400445 
1907.366 1314360 1250620 1223672 1242878 1310970 1420191 1554512 1689539 
1911.223 1802250 1874622 1897717 1873191 1812897 1735112 1659038 1601002 
1915.080 1568977 1562160 1572236 1585937 1591657 1580949 1553148 1515375 
1918.938 1479466 1456759 1458355 1493198 1567547 1684650 1839050 2014676 
1922.795 2184045 2316337 2387396 2388129 2324798 2216082 2086484 1955227 
1926.653 1834591 1727927 1631532 1543073 1466666 1414573 1404035 1448215 
1930.510 1545899 1678928 1816590 1923376 1970904 1950934 1873923 1767615 
1934.368 1662597 1583509 1539282 1526447 1532233 1546032 1563590 1589129 
1938.225 1632131 1702512 1804645 1937254 2090579 2248654 2389195 2485891 
1942.082 2511752 2451069 2303379 2087749 1841246 1612010 1441932 1359860 
1945.940 1368768 1446620 1551253 1636587 1671012 1648960 1591923 1538783 
1949.797 1532233 1596013 1730355 1911328 2104896 2276965 2407220 2490923 
1953.655 2533981 2542513 2514251 2436041 2293187 2077195 1798823 1489574 
1957.512 1196426 970685 852314 861577 994496 1226563 1516173 1820749 2108225 
1961.852 2356246 2559278 2720057 2846142 2944341 3019807 3071426 3095853 
1965.709 3085842 3032453 2928796 2771907 2563977 2311374 2025761 1721007 
1969.567 1417930 1148352 952985 882559 982706 1276274 1754940 2373270 
1973.424 3064953 3749885 4354530 4823904 5122729 5239085 5179730 4964208 
1977.281 4616764 4171633 3679538 3200317 2806289 2557478 2481926 2570243 
1981.139 2777843 3033687 3257533 3384175 3373456 3222481 2963357 2649811 
1984.996 2344719 2101433 1960253 1937254 2023430 2182647 2367473 2530581 
1988.854 2638010 2682116 2680282 2666846 2677815 2734728 2832202 2940705 
1992.711 3018039 3030584 2970963 2858149 2727759 2616742 2546279 2513451 
1996.568 2495255 2461299 2390961 2281895 2152976 2029789 1935890 1876951 
2000.426 1842477 1815326 1783884 1754640 1753642 1813163 1958988 2197000 
2004.283 2506086 2844308 3163668 3424950 3607767 3714660 3757438 3750419 
2008.141 3698051 3597009 3443418 3245782 3022710 2805088 2620375 2485525 
2011.998 2402422 2361876 2347918 2347884 2353947 2359311 2353514 2319902 
2015.856 2231335 2066442 1817355 1500479 1155561 838204 598548 469298 463029 
2020.195 574095 786053 1078127 1430696 1827936 2253117 2689717 3119514 
2024.053 3522512 3883892 4194717 4454845 4668807 4844040 4982139 5079549 
2027.910 5129334 5122361 5051121 4911459 4696607 4401254 4023725 3573856 
2031.767 3081804 2603609 2204493 1950401 1878216 1983352 2221444 2528915 
2035.625 2836437 3095152 3288247 3425017 3530195 3627245 3724953 3820376 
2039.482 3903416 3965673 4008676 4041751 4069811 4086669 4067905 3978413 
2043.340 3789190 3492750 3115576 2714756 2367206 2139690 2071535 2162333 
2047.197 2373003 2637076 2878528 3039827 3089246 3027047 2876861 2675914 
2051.054 2461232 2261910 2098237 1976096 1890529 1827470 1768047 1691901 
2054.912 1582778 1433122 1245271 1034615 822602 638664 513118 470692 528544 
2059.251 687545 930339 1221678 1519066 1776398 1958489 2049729 2055855 
2063.109 2003258 1930165 1876552 1871660 1926571 2033151 2168827 2303979 
2066.966 2406553 2453202 2427878 2324365 2148048 1915821 1656144 1405963 
2070.824 1207956 1099120 1102242 1222210 1442896 1732950 2050528 2356479 
2074.681 2617342 2810824 2927929 2968428 2938937 2849378 2713422 2545779 
2078.539 2360744 2173522 1993671 1828036 1682088 1559865 1468927 1419027 
2082.396 1418761 1472086 1575129 1713556 1866236 2011680 2133331 2223909 
2086.253 2288623 2338923 2389328 2450036 2523616 2604308 2681515 2740130 
2090.111 2765938 2747199 2674847 2545879 2365008 2147349 1918018 1710163 
2093.968 1558469 1485119 1496523 1576858 1696192 1816756 1907834 1952797 
2097.826 1950301 1908133 1836155 1739537 1616832 1466500 1293555 1114467 
2101.683 958000 855700 829639 884319 1001038 1143967 1269861 1343574 1347595 
2106.023 1286809 1182073 1064276 964608 904838 899260 952919 1062250 1216794 
2110.362 1398949 1585205 1746623 1858483 1902576 1876552 1793632 1680658 
2114.220 1568944 1485252 1444924 1451274 1495625 1563224 1638084 1705206 
2118.077 1749949 1759830 1724400 1638849 1508958 1355240 1209517 1106262 
2121.935 1074805 1124699 1242745 1394661 1538783 1641776 1690404 1696990 
2125.792 1695061 1721673 1798789 1922777 2060150 2161301 2175587 2074965 
2129.649 1865338 1590127 1312565 1100316 1005322 1044181 1198088 1418728 
2133.507 1651854 1847967 1982520 2054856 2083621 2092310 2094907 2089647 
2137.364 2061847 1989843 1861844 1684716 1487246 1313362 1207225 1198553 
2141.222 1291993 1465736 1677199 1881111 2044636 2153609 2217348 2259845 
2145.079 2306744 2372470 2456101 2541646 2609575 2645177 2645810 2624009 
2148.937 2600342 2593775 2615942 2668080 2743097 2833802 2936168 3052239 
2152.794 3188234 3345374 3514896 3676097 3799217 3857883 3839162 3751957 
2156.651 3627078 3511388 3443418 3441749 3489510 3540016 3533335 3427188 
2160.509 3213836 2925694 2623809 2374603 2232035 2217747 2312940 2469629 
2164.366 2631176 2743864 2778844 2737495 2642610 2531548 2438773 2390561 
2168.224 2399124 2467530 2588909 2753101 2941839 3125521 3268416 3329046 
2172.081 3270018 3075831 2758703 2365641 1967043 1647230 1472684 1478802 
2175.938 1660867 1979924 2376168 2782278 3144177 3420742 3587287 3631957 
2179.796 3550405 3345607 3029683 2631143 2190972 1758233 1382894 1098987 
2183.653 923499 854405 875056 962018 1095798 1262417 1459286 1691735 1966976 
2187.993 2289723 2657978 3055676 3453471 3812554 4087170 4233360 4224058 
2191.850 4049845 3731102 3312118 2856949 2431576 2089314 1860413 1746922 
2195.708 1726696 1761028 1810534 1842144 1834924 1786146 1706105 1614604 
2199.565 1535857 1495326 1510753 1590559 1728259 1905604 2093575 2260545 
2203.423 2380366 2437707 2430543 2369305 2271436 2154841 2033883 1920946 
2207.280 1825574 1757934 1730189 1749550 1816623 1920081 2037479 2138692 
2211.137 2198099 2200596 2149513 2064577 1974532 1907035 1878815 1889630 
2214.995 1926704 1972568 2010381 2033850 2046400 2056521 2072667 2096306 
2218.852 2119180 2127004 2106194 2047466 1953996 1840514 1728925 1641942 
2222.710 1597443 1600004 1642641 1704741 1761893 1792035 1782786 1734946 
2226.567 1663894 1593985 1549191 1546298 1589196 1668650 1766317 1862542 
2230.425 1944210 2006920 2053491 2089014 2115084 2126039 2110622 2058751 
2234.282 1967409 1847535 1722804 1621022 1567281 1573599 1634525 1729557 
2238.139 1832994 1920880 1978127 2001227 1993738 1961185 1905937 1825540 
2241.997 1716683 1580882 1425842 1268731 1128951 1024884 966003 951823 
2245.854 972312 1013526 1062482 1110348 1154099 1193768 1229055 1258928 
2249.712 1280993 1293755 1298972 1302528 1311501 1331442 1361621 1394229 
2253.569 1415338 1409686 1368136 1291561 1191875 1088690 1005322 959261 
2257.427 957667 997385 1065571 1145727 1222875 1288637 1340881 1384290 
2261.284 1423848 1463275 1502308 1536223 1558801 1567015 1563357 1557305 
2265.141 1563623 1596113 1663861 1765685 1888399 2009915 2107693 2161501 
2268.999 2161867 2111455 2022865 1913492 1799954 1694196 1603396 1530604 
2272.856 1479433 1454465 1461813 1504801 1580982 1677731 1773870 1843808 
2276.714 1863574 1819385 1712192 1559333 1387747 1229653 1113869 1058363 
2280.571 1070221 1144299 1268100 1424446 1595415 1764887 1917252 2038677 
2284.428 2117448 2145351 2119280 2043071 1928335 1791669 1653051 1532865 
2288.286 1445090 1398218 1392601 1421687 1473482 1535425 1595215 1643639 
2292.143 1676035 1692400 1696658 1695460 1695959 1704209 1721972 1745791 
2296.001 1766850 1773637 1753409 1698155 1607919 1492134 1367904 1257532 
2299.858 1182173 1155661 1181409 1251750 1351185 1460150 1561096 1642408 
2303.716 1699186 1732318 1746257 1746623 1737308 1722138 1703643 1684650 
2307.573 1668318 1657408 1653151 1655047 1660468 1666322 1670613 1672775 
2311.430 1674139 1677764 1685415 1698221 1716650 1740402 1771142 1811499 
2315.288 1865338 1935024 2020168 2116083 2214550 2306810 2384364 2441672 
2319.145 2476527 2487491 2472895 2429877 2355646 2251052 2124640 1993571 
2323.003 1880545 1807374 1787045 1818520 1886569 1965212 2028890 2057353 
2326.860 2043471 1993638 1925739 1860845 1815825 1799056 1808538 1835290 
2330.718 1867900 1898749 1924408 1944743 1959854 1968208 1964846 1944277 
2334.575 1903108 1842311 1767582 1689506 1617896 1560996 1522790 1502773 
2338.432 1497886 1504702 1519864 1541510 1568811 1601500 1639514 1683186 
2342.290 1733582 1791137 1855854 1924374 1990309 2045169 2079226 2085751 
2346.147 2063612 2016273 1950800 1875454 1797691 1723436 1658572 1608684 
2350.005 1579951 1578454 1608185 1669548 1756237 1856054 1954961 2038977 
2353.862 2100001 2136860 2153409 2154908 2144352 2120711 2080524 2022032 
2357.719 1949902 1875720 1819352 1799521 1827337 1899248 1996234 2089314 
2361.577 2147316 2150179 2094541 1998631 1894189 1818653 1802649 1857584 
2365.434 1973733 2123441 2270803 2381699 2437540 2437041 2396825 2342021 
2369.292 2295552 2270337 2264741 2264142 2248654 2203560 2124008 2018570 
2373.149 1904706 1801950 1724068 1673374 1641510 1614238 1577789 1525450 
2377.007 1461048 1397021 1349988 1332772 1351550 1401708 1470723 1541044 
2380.864 1596911 1627608 1628938 1603629 1558336 1501244 1438940 1376579 
2384.721 1317251 1263348 1218389 1186359 1171109 1175860 1200015 1239721 
2388.579 1286377 1329515 1358065 1364114 1344105 1301166 1243543 1182073 
2392.436 1128353 1091380 1075768 1081448 1104568 1139482 1179781 1220881 
2396.294 1258729 1290930 1316221 1333736 1344172 1349922 1355173 1366109 
2400.151 1388479 1426806 1481960 1551020 1626610 1699951 1761427 1802948 
2404.009 1819718 1810202 1775467 1719577 1648295 1569043 1489906 1418994 
2407.866 1362552 1323865 1302096 1292857 1289235 1283984 1272453 1253113 
2411.723 1227759 1200015 1173701 1150611 1130578 1112374 1095765 1082378 
2415.581 1077429 1087095 1117457 1169947 1240918 1319444 1391071 1440469 
2419.438 1455729 1432557 1375050 1296114 1213006 1144000 1103405 1097692 
2423.296 1123901 1171275 1225134 1269296 1293190 1292691 1271290 1237129 
2427.153 1200480 1169382 1147555 1134598 1127921 1125230 1127124 1136193 
2431.010 1156126 1188486 1230683 1275577 1312465 1331708 1328152 1302495 
2434.868 1261321 1214535 1171043 1135495 1108222 1085866 1064541 1043118 
2438.725 1023124 1008743 1003363 1006917 1015253 1021164 1018806 1006252 
2442.583 989249 978356 987057 1025283 1094636 1186459 1284715 1369898 
2446.440 1425410 1444126 1427970 1388213 1339552 1295749 1265109 1248893 
2450.298 1242413 1238990 1232943 1221944 1207457 1193735 1185163 1183502 
2454.155 1187755 1193104 1193768 1184200 1161076 1125130 1080751 1035379 
2458.012 996987 973508 968991 983935 1013061 1047037 1073676 1081216 1062216 
2462.352 1016282 951823 884319 835416 824461 864166 956306 1089022 1239588 
2466.692 1378939 1481262 1528675 1517170 1456792 1368535 1278335 1207889 
2470.549 1171873 1174166 1207690 1259061 1314127 1360890 1392866 1409819 
2474.406 1415304 1414506 1411747 1407958 1402074 1391038 1372557 1346365 
2478.264 1315722 1286776 1266538 1261022 1272486 1298407 1332074 1363882 
2482.121 1385421 1391005 1379870 1356204 1327454 1300401 1280628 1270260 
2485.979 1268565 1273616 1284549 1301531 1326125 1358796 1396789 1433455 
2489.836 1458156 1460283 1431560 1370430 1283054 1183136 1086464 1008776 
2493.694 960424 944053 955044 984002 1019570 1051023 1071251 1077861 1072480 
2498.033 1060722 1050724 1052451 1074207 1121709 1195230 1288271 1387149 
2501.891 1473947 1530504 1542142 1502142 1414141 1290664 1149548 1010404 
2505.748 889665 797074 736132 703674 694879 703574 726175 761889 811547 
2510.088 876484 956738 1049860 1151043 1253279 1348925 1430895 1494062 
2513.945 1535159 1553880 1552184 1533663 1502940 1465503 1425909 1387415 
2517.802 1351118 1315323 1275543 1226031 1162471 1083375 993832 904108 
2521.660 830204 788676 792526 847434 949499 1085135 1233973 1375881 1493231 
2526.000 1575462 1620657 1633062 1620723 1592422 1556407 1519032 1485717 
2529.857 1461148 1449213 1452005 1468528 1494162 1520961 1539249 1541377 
2533.714 1523122 1485650 1434618 1379471 1328883 1289866 1265940 1257067 
2537.572 1261022 1274513 1293987 1315755 1335996 1350387 1354874 1346166 
2541.429 1322735 1285945 1239688 1189549 1141907 1101977 1073144 1057267 
2545.287 1054311 1063512 1083342 1112009 1146226 1182206 1215100 1239954 
2549.144 1253611 1255206 1247796 1237296 1231547 1238857 1264344 1308809 
2553.001 1367804 1432391 1489973 1529041 1541809 1526214 1487546 1437544 
2556.859 1390972 1361356 1357367 1380368 1424313 1477272 1525549 1558402 
2560.716 1570041 1561096 1538118 1511119 1489840 1482359 1493331 1522623 
2564.574 1567015 1619825 1672409 1715119 1739171 1737840 1709298 1656876 
2568.431 1588963 1518168 1456726 1414806 1397354 1403537 1427637 1462212 
2572.289 1500546 1538650 1575728 1613406 1652918 1694895 1736776 1774136 
2576.146 1802150 1817156 1817754 1805810 1785581 1762924 1743429 1731386 
2580.003 1728925 1735445 1747122 1758965 1764355 1757601 1735478 1698653 
2583.861 1651588 1601234 1556474 1523687 1505899 1500778 1501942 1501011 
2587.718 1490139 1465304 1428203 1385919 1348659 1328318 1333968 1369366 
2591.576 1432491 1514776 1603828 1685115 1745824 1777696 1778461 1751746 
2595.433 1706969 1656377 1611311 1581414 1571803 1582212 1608950 1645701 
2599.291 1685747 1722903 1753077 1774369 1786612 1791902 1793000 1793832 
2603.148 1797026 1804246 1815126 1825873 1831031 1825441 1804845 1768846 
2607.005 1721140 1669116 1621255 1584972 1564222 1558735 1564554 1575827 
2610.863 1588065 1599572 1612109 1629803 1657109 1695959 1744826 1798057 
2614.720 1847402 1884738 1904340 1904706 1887933 1860579 1830432 1804246 
2618.578 1786778 1779492 1781289 1789740 1802482 1818653 1839815 1868499 
2622.435 1907601 1958922 2021200 2089813 2157805 2217348 2260711 2283594 
2626.292 2284526 2266240 2233500 2193536 2153609 2120245 2098470 2091145 
2630.150 2098237 2117148 2142055 2166995 2185677 2194335 2193136 2185877 
2634.007 2178884 2178884 2189140 2208689 2231602 2249054 2253450 2240894 
2637.865 2214084 2180715 2152577 2139091 2145318 2169593 2204659 2240261 
2641.722 2267439 2281895 2285126 2283194 2283227 2291021 2307610 2329429 
2645.580 2349050 2359078 2354014 2332394 2297117 2255016 2214184 2181881 
2649.437 2163566 2161734 2175587 2202161 2236797 2274501 2310441 2341455 
2653.294 2365741 2384031 2398224 2411285 2426012 2443938 2464398 2485658 
2657.152 2503920 2515118 2516351 2505953 2484958 2456367 2425445 2398491 
2661.009 2381632 2380166 2397191 2432542 2483192 2542946 2604375 2659145 
2664.867 2700619 2724492 2729293 2717023 2692084 2660645 2628909 2603142 
2668.724 2588175 2586842 2600408 2627942 2666613 2712689 2761304 2807656 
2672.582 2847543 2877594 2895673 2900743 2892938 2873525 2844775 2810090 
2676.439 2773141 2738429 2708688 2686283 2671880 2664746 2663913 2668646 
2680.296 2679015 2696285 2721424 2754801 2794850 2838138 2879229 2912918 
2684.154 2935235 2944341 2940672 2926761 2905313 2878262 2846276 2809057 
2688.011 2766205 2718490 2667946 2618242 2573243 2536114 2507953 2488291 
2691.869 2475128 2466530 2461532 2460232 2463998 2474028 2490557 2512152 
2695.726 2535847 2557844 2574476 2583276 2583342 2575409 2561111 2542213 
2699.583 2520816 2498088 2475594 2454468 2435841 2420348 2408286 2398790 
2703.441 2390528 2381965 2372104 2361110 2350516 2343020 2341555 2348018 
2707.298 2362776 2383964 2408119 2430976 2449369 2461565 2468563 2472828 
2711.156 2477960 2486591 2499488 2514551 2527949 2535381 2534014 2523716 
2715.013 2507719 2492223 2483992 2488457 2508186 2541613 2583976 2627942 
2718.871 2666746 2694885 2709421 2710221 2699152 2679215 2653545 2625776 
2722.728 2598575 2574609 2556178 2544246 2539547 2541480 2548979 2560877 
2726.585 2576643 2596242 2620142 2648911 2681715 2716690 2750933 2780778 
2730.443 2803654 2818428 2825698 2827699 2827166 2825932 2824931 2823731 
2734.300 2821329 2816927 2810524 2803354 2796918 2792916 2791682 2792516 
2738.158 2793383 2791315 2783812 2768506 2744464 2711822 2672714 2630143 
2742.015 2588709 2553845 2530615 2523049 2532781 2558278 2594909 2636143 
2745.873 2674714 2704753 2723191 2730360 2729293 2724525 2720091 2718090 
2749.730 2718323 2717990 2713455 2701319 2680448 2652245 2621409 2594509 
2753.587 2578809 2579376 2598675 2634910 2682482 2733194 2779410 2815260 
2757.445 2838638 2852146 2861351 2873092 2892304 2920090 2953449 2985876 
2761.302 3008897 3016571 3005994 2979537 2943674 2907514 2879762 2866387 
2765.160 2869289 2886000 2911584 2939438 2964291 2983807 2998687 3012300 
2769.017 3029083 3052807 3084974 3123686 3164503 3201719 3230026 3246750 
2772.875 3252258 3250022 3244947 3241275 3241776 3246015 3252125 3257700 
2776.732 3261906 3266513 3275594 3293822 3325039 3370217 3426987 3490144 
2780.589 3553979 3613647 3666373 3711585 3749951 3782104 3807574 3825156 
2784.447 3834115 3835352 3832343 3830939 3837390 3856679 3890712 3937486 
2788.304 3991588 4047236 4099580 4146510 4189264 4231252 4276089 4326117 
2792.162 4381574 4440987 4502048 4563320 4624366 4686659 4752077 4822363 
2796.019 4897686 4977145 5058630 5139628 5217555 5291236 5359630 5422532 
2799.876 5479404 5530444 5575717 5615725 5652010 5686520 5721837 5760583 
2803.734 5805040 5856992 5917380 5986712 6064422 6149539 6240085 6333877 
2807.591 6428664 6522228 6613557 6702584 6790856 6880828 6975701 7078543 
2811.449 7191617 7315907 7450345 7592917 7740662 7889908 8038430 8184707 
2815.306 8329243 8473962 8621839 8775987 8939018 9112530 9297318 9493427 
2819.164 9701179 9920658 10153034 10398668 10657582 10928170 11207732 
2822.539 11493564 11783568 12077444 12377555 12688449 13015064 13361608 
2825.914 13729733 14118639 14524955 14944477 15374532 15814427 16267017 
2829.289 16736709 17229110 17748856 18298320 18877898 19486350 20122488 
2832.665 20786212 21479886 22208388 22978532 23798096 24674724 25615156 
2836.040 26625050 27709694 28874668 30127290 31477898 32939334 34527624 
2839.415 36261372 38158944 40238196 42514904 45000560 47702128 50621312 
2842.790 53754564 57090880 60613188 64297760 68111592 72018432 75975208 
2846.166 79934952 83852160 87678696 91366152 94866768 98129152 101099912 
2849.541 103725456 105950944 107727320 109012424 109775032 109998896 
2852.434 109684216 108850024 107529912 105773664 103640520 101189920 
2855.327 98483544 95576760 92518544 89356456 86133584 82892256 79674024 
2858.702 76513736 73440856 70477120 67635376 64924284 62350100 59919128 
2862.077 57640112 55522148 53572616 51796432 50193112 48758180 47483740 
2865.453 46361540 45382904 44539132 43821300 43217404 42711620 42286252 
2868.828 41920412 41593572 41287780 40986536 40676588 40346060 39983488 
2872.203 39579404 39126996 38623992 38074436 37489240 36884988 36279780 
2875.578 35693468 35142540 34640036 34196580 33819548 33515598 33290562 
2878.954 33149098 33093564 33123314 33234470 33419042 33667348 33968788 
2882.329 34312928 34691896 35100616 35537268 36003368 36503384 37043624 
2885.704 37630536 38269004 38961472 39706820 40499636 41332892 42198348 
2889.079 43088036 43996056 44918648 45853588 46800364 47758788 48728896 
2892.455 49710944 50705048 51711292 52729332 53758688 54798616 55849020 
2895.830 56910136 57982896 59068564 60167800 61280012 62403112 63534684 
2899.205 64673252 65821180 66984280 68171912 69395360 70664504 71984368 
2902.580 73355168 74772496 76229784 77721808 79247040 80808704 82413336 
2905.956 84068760 85781976 87558400 89401760 91316056 93305328 95374400 
2909.331 97526992 99763344 102078488 104461424 106898224 109372656 111870344 
2912.706 114380752 116895536 119407416 121906888 124378560 126801936 
2915.599 129150064 131391064 133492816 135422592 137148864 138644752 
2918.492 139884704 140846656 141511776 141863696 141889456 141582160 
2921.385 140941936 139977856 138709824 137167216 135383360 133394240 
2924.278 131232280 128922208 126484560 123935928 121293072 118577344 
2927.171 115813504 113028576 110249232 107495408 104779600 102106120 
2930.064 99473152 96875880 94310040 91773960 89269560 86801264 84374104 
2933.440 81993576 79663920 77387952 75168440 73007992 70909768 68878016 
2936.815 66917440 65032916 63229308 61509692 59875920 58327200 56859748 
2940.190 55466992 54140872 52873616 51658408 50492552 49377816 48319668 
2943.565 47326712 46408436 45572384 44823380 44162592 43588440 43097808 
2946.941 42687492 42354480 42096628 41909976 41788444 41722744 41699296 
2950.316 41703416 41719136 41731612 41729604 41704252 41649508 41560792 
2953.691 41433960 41264460 41047424 40778408 40453844 40072796 39637224 
2957.066 39151180 38620840 38052628 37451132 36818984 36155884 35459280 
2960.442 34725992 33953992 33144162 32301720 31435292 30556408 29677240 
2963.817 28808134 27955534 27122064 26306030 25503332 24709902 23923662 
2967.192 23145656 22380274 21634070 20914422 20227414 19576638 18962932 
2970.567 18384280 17837122 17316548 16818502 16338261 15873089 15420568 
2973.943 14979836 14550651 14134282 13732264 13346198 12977510 12626702 
2977.318 12293220 11976410 11675419 11390249 11121754 10871566 10641283 
2980.693 10431554 10241433 10067502 9904590 9747160 9590059 9430847 9269832 
2984.551 9110839 8959481 8821532 8701441 8600513 8516873 8446089 8383422 
2988.408 8325021 8270106 8220871 8182512 8161275 8163538 8194330 8256496 
2992.265 8351232 8477375 8632080 8810610 9005958 9210804 9417370 9620004 
2996.123 9817107 10011518 10210359 10422255 10655138 10911793 11189270 
2999.498 11477744 11764707 12036871 12284392 12503270 12694691 12863296 
3002.873 13013972 13149673 13269292 13368886 13442392 13484601 13491916 
3006.249 13463547 13400392 13304412 13177508 13020800 12835275 12621961 
3009.624 12382396 12118396 11832392 11526159 11201170 10859471 10503410 
3012.999 10137432 9768034 9402946 9050716 8717972 8408488 8122788 7857451 
3016.856 7606505 7363253 7121856 6877664 6628192 6373618 6115665 5857160 
3020.714 5602030 5354699 5119377 4900065 4699555 4519023 4357643 4212416 
3024.571 4079277 3952799 3829435 3707074 3586719 3471841 3368013 3280501 
3028.429 3212467 3164069 3131562 3108434 3087010 3061182 3027548 2985976 
3032.286 2938904 2889469 2840106 2791249 2741897 2690217 2635610 2579109 
3036.144 2523016 2470562 2423713 2382898 2346485 2311907 2276965 2240728 
3040.001 2204393 2169959 2139657 2115217 2096805 2084153 2077295 2076629 
3043.858 2083255 2097538 2117681 2138958 2154708 2157172 2140356 2102865 
3047.716 2048131 1984018 1920081 1865737 1826073 1802649 1793300 1794398 
3051.573 1802416 1814960 1831397 1851095 1873424 1896652 1918883 1938286 
3055.431 1953563 1965046 1973201 1977694 1977727 1971436 1956725 1932994 
3059.288 1901644 1866669 1833460 1807473 1792634 1790738 1800619 1819917 
3063.146 1845039 1872758 1899414 1921812 1936689 1941115 1933560 1914290 
3067.003 1886103 1853258 1820716 1791736 1767249 1744959 1720908 1691269 
3070.860 1654082 1610280 1563956 1520529 1485119 1461148 1449046 1448016 
3074.718 1455629 1469559 1487845 1508725 1529539 1547163 1557072 1555210 
3078.575 1539016 1508226 1465370 1415437 1364746 1318580 1281758 1257466 
3082.433 1247597 1253378 1275211 1312731 1363250 1421986 1481195 1531834 
3086.290 1564488 1572036 1551087 1503438 1435749 1357832 1280927 1215399 
3090.147 1168451 1143967 1141143 1156923 1185861 1222144 1260988 1298374 
3094.005 1331642 1358431 1376114 1382595 1375648 1354276 1319910 1275809 
3097.862 1227626 1180545 1139482 1106362 1080618 1059393 1039830 1020666 
3101.720 1003529 992271 992337 1007315 1037040 1077894 1121676 1160312 
3105.577 1187123 1199550 1200413 1196825 1196958 1207457 1231148 1265773 
3109.435 1304987 1340084 1363649 1369998 1357467 1327786 1285048 1234504 
3113.292 1180944 1128818 1081282 1040262 1007680 984666 972578 972711 986027 
3117.632 1012895 1052750 1103173 1159880 1216163 1265009 1297809 1308311 
3121.489 1293123 1253412 1194798 1126758 1060356 1004658 965471 943256 
3125.346 933792 929276 921706 905436 878774 844612 809522 781008 765075 
3129.686 764080 776892 798734 823863 847201 866457 881995 896803 913504 
3134.026 934290 958697 983337 1003297 1014057 1012430 998547 975733 950428 
3138.365 930472 923034 933228 962615 1008378 1063279 1117922 1161275 1184200 
3142.705 1181508 1153069 1104402 1045011 986625 939470 910117 899592 903676 
3147.044 914799 923698 923366 910084 884585 850886 814966 782867 758536 
3151.384 744198 739219 741874 749973 761325 775066 790800 809058 830403 
3155.724 855302 883522 914301 945813 975035 998747 1013293 1016249 1006518 
3160.063 985363 956704 926089 899592 883223 880634 892918 918584 953849 
3164.403 993699 1032789 1066634 1091546 1105066 1105664 1093406 1069391 
3168.260 1036409 998249 959726 925258 898098 879704 869379 864498 862141 
3172.600 859253 854837 848894 842919 838404 836279 836179 836644 835947 
3176.939 833225 828610 823697 820477 820875 825390 833125 842354 851086 
3181.279 858788 866059 875521 890694 913737 945447 983968 1025515 1064143 
3185.619 1094868 1113504 1118985 1112441 1097426 1079057 1061751 1050325 
3189.476 1047004 1052750 1065936 1083375 1100183 1111012 1111112 1097393 
3193.333 1069358 1029833 984832 942658 910914 895840 899426 918717 945813 
3197.673 970785 984234 979784 956837 920610 879936 843915 819116 807165 
3202.013 804742 804775 800028 786883 766270 743401 725644 719637 727171 
3206.352 744994 765341 780377 784095 775631 759366 744032 738057 746090 
3210.692 768029 798269 828345 849260 855401 845475 822768 793755 766137 
3215.031 746953 741244 751566 778153 818518 867586 918584 962947 991872 
3219.371 998946 981212 941064 885249 824428 770154 731818 715256 721297 
3223.711 746753 784626 826751 864930 891590 902746 896106 873363 838935 
3228.050 800161 764611 739451 729030 733643 749542 769324 784858 788908 
3232.390 777622 751201 714393 674270 637635 610691 596324 594267 602098 
3236.729 616199 633255 651273 669657 688341 707889 728399 749010 768660 
3241.069 786551 802817 819282 838005 861444 889698 920311 947274 963080 
3245.409 960523 934855 887075 823598 755649 695410 654227 639195 651273 
3249.748 685222 732581 782867 826519 856962 870507 866889 848064 818054 
3254.088 781539 743733 709647 682932 665377 657014 655421 657777 661162 
3258.427 664315 667832 673441 682998 697103 713896 730092 741277 744596 
3262.767 739684 729793 720002 715787 721728 738954 765142 795779 824959 
3267.107 847566 860448 861211 849957 827780 796709 760296 723056 690697 
3271.446 668861 661693 670753 693618 725213 758039 784991 801290 805008 
3275.786 797771 783166 765806 750438 740646 739518 748380 768096 797207 
3280.125 832196 867486 895840 911379 910084 892121 861577 825822 791497 
3284.465 763482 742173 724549 705930 682534 654160 624993 602131 592409 
3288.805 600505 625590 661826 699724 730490 747218 748313 736498 717546 
3293.144 697567 681040 670454 665808 667102 674403 689237 712900 745492 
3297.484 784693 824759 857593 875222 871603 845674 801887 749409 700355 
3301.823 665874 654459 668795 705565 756711 811514 858921 890262 901418 
3306.163 892287 867254 833158 798734 771249 756346 756412 770087 792958 
3310.503 818386 839400 849625 845176 824693 790734 748147 703176 662523 
3314.842 631728 614408 612417 625723 653298 693319 743069 798933 856099 
3319.182 908988 950893 976729 982906 969024 938175 895741 849260 804908 
3323.521 767432 739286 720467 709747 705930 708353 716584 730457 749010 
3327.861 769756 789572 805672 816062 821373 824328 829241 839532 856962 
3332.201 879903 903742 922204 929243 921672 900422 870275 838835 814037 
3336.540 800825 800526 809522 821506 829540 828644 817921 801024 784394 
3340.880 775133 778618 796178 824262 856231 884286 902115 906863 899924 
3345.219 886311 872300 863369 863369 872865 889997 911246 932862 951225 
3349.559 963545 967796 962250 946278 920610 887573 850787 814701 783564 
3353.899 759731 742837 729627 715821 697036 671084 639327 606179 577910 
3358.238 560525 557904 570346 594632 624727 654724 679381 695875 704238 
3362.578 706495 705067 701649 696439 688076 675133 656550 633122 608535 
3366.917 587963 576782 578773 595030 622736 655454 685852 706660 713730 
3371.257 706163 686715 660864 634151 611355 595528 587963 588461 597486 
3375.597 614939 640920 674137 712070 749608 780576 799530 802518 789240 
3379.936 762918 729494 695841 668231 650311 643575 646727 657080 671483 
3384.276 686450 699094 707523 710743 709316 705399 702877 705565 717380 
3388.615 739750 771216 807763 843251 872035 890163 896869 894744 889200 
3392.955 885481 887639 896571 910649 926089 938607 945514 945879 941795 
3397.295 935884 931966 932232 936581 942492 945846 941463 925258 896006 
3401.634 854804 806468 757275 714327 682965 666239 663717 672711 688938 
3405.974 708054 726906 743534 757342 768395 776826 782502 785190 784958 
3410.313 782369 778651 775730 775133 778120 785091 795979 809522 824428 
3414.653 839001 851152 859253 862539 861079 856895 853077 854007 863469 
3418.993 883257 912276 946543 979452 1004957 1019105 1021596 1015552 1006452 
3423.332 999975 999677 1006219 1017644 1031194 1043350 1052252 1058098 
3427.190 1061220 1062382 1060987 1054876 1041557 1018607 985695 944684 
3431.047 900123 857891 823365 800659 791365 794950 808692 829274 853675 
3435.387 879604 905668 931534 957037 981610 1004326 1023157 1035612 1039730 
3439.726 1034416 1020068 999511 976829 956837 943654 938939 941529 948004 
3444.066 954181 956406 953384 946742 940533 940035 949067 969257 998680 
3448.406 1033054 1066999 1096496 1119018 1133303 1139316 1137023 1125596 
3452.263 1104003 1071683 1029700 981710 934323 895375 872632 871039 891557 
3456.603 930007 978157 1026777 1067929 1096396 1112241 1119184 1122739 
3460.460 1128619 1140312 1158319 1180179 1202208 1221446 1236166 1247032 
3464.317 1256203 1265840 1277205 1289999 1302495 1312133 1316619 1314858 
3468.175 1306915 1294253 1279498 1265042 1252947 1245570 1243543 1246733 
3472.032 1254143 1262982 1269728 1271456 1265740 1252880 1235335 1217658 
3475.890 1204999 1201776 1209551 1227460 1252780 1280860 1307580 1329781 
3479.747 1345601 1353877 1354143 1345601 1327587 1300501 1265408 1224968 
3483.604 1183236 1144365 1111477 1086265 1068461 1056404 1047336 1038867 
3487.462 1028737 1015419 998182 976364 949864 919282 886477 854704 828710 
3491.802 813672 814236 832760 869013 919182 977194 1036010 1089121 1132372 
3496.141 1164265 1186459 1202141 1214568 1225001 1232876 1235867 1230849 
3499.999 1215166 1188851 1154265 1116560 1081083 1051953 1029866 1011632 
3503.856 991673 964940 929143 886544 842620 803945 775929 760495 755350 
3508.196 754985 753159 746322 735303 725877 725910 741609 774436 819714 
3512.535 868217 908756 931667 932198 911877 877944 839864 808095 790369 
3516.875 790269 807331 838337 878044 921440 963910 1002466 1035147 1060688 
3521.214 1078359 1086896 1085767 1073576 1050724 1018341 979618 939603 
3525.072 903178 875587 859684 855435 859551 866092 868316 861112 842819 
3529.411 815730 784892 756080 733975 720268 713730 710610 706860 698762 
3533.751 683927 662523 636739 610293 587996 574825 574526 588826 616896 
3538.091 654990 697866 738954 772179 793688 802618 800725 792394 783033 
3542.430 777224 777589 783929 793887 803149 807564 803945 791331 770917 
3546.770 746455 723155 705930 699260 706196 727503 761922 806203 855003 
3551.109 901518 939570 964010 973043 967065 949100 922569 890793 856331 
3555.449 821573 789605 763250 745160 736829 738290 747318 760794 774303 
3559.789 784527 789838 789970 786419 782137 780842 786551 804078 837507 
3564.128 889864 960822 1045543 1132904 1204866 1242812 1234239 1179847 
3567.986 1092809 992702 895110 808858 736697 677722 630899 595893 573962 
3572.325 565966 571440 587333 607340 624528 632525 628974 615702 597718 
3576.665 581261 570943 568322 572071 580299 591613 607274 630401 663983 
3581.004 708818 761789 815398 860780 890860 901783 895375 877778 857294 
3585.344 841657 835349 838072 844745 848629 845077 834486 821241 809688 
3589.684 802286 798369 795580 791298 783564 772345 759798 750006 746919 
3594.023 754222 773307 803016 840230 880069 917854 948303 967331 971382 
3598.363 958697 930040 889133 842620 797838 761955 738954 728897 728432 
3602.702 732515 736564 737626 735635 733013 734838 747417 777257 829507 
3607.042 904805 997352 1094270 1179947 1239123 1263115 1251950 1211877 
3610.899 1153269 1087859 1026877 978422 946012 927350 915397 901285 878276 
3615.239 844114 800261 751234 703010 662058 632989 618290 617029 625888 
3619.579 641285 661328 686748 719670 761623 812676 870939 932796 993832 
3623.918 1050126 1098854 1139681 1174465 1205696 1235302 1262284 1280561 
3627.776 1278734 1244839 1175096 1082246 987821 907826 846238 797937 753856 
3632.115 706295 651937 593670 540487 504758 497361 522705 576981 649249 
3636.455 725313 790999 835183 853542 849226 831266 811547 801024 806070 
3640.794 827714 861278 898762 931368 952554 959826 955409 944949 935851 
3645.134 936714 954978 995459 1057666 1133103 1205563 1254010 1260988 
3648.991 1221811 1147422 1059858 982507 930704 906432 904240 916227 935618 
3653.331 958132 981943 1005787 1028305 1046805 1056935 1054079 1035844 
3657.188 1002466 957203 904174 847799 791730 739219 693087 655554 628244 
3661.528 611786 606146 610625 623499 642380 663751 683031 696472 701019 
3665.868 695609 681571 662788 644769 633554 634250 647789 669757 690133 
3670.207 700222 697302 687312 679281 682401 701848 738622 788178 838337 
3674.547 869345 859950 804775 723321 648419 601467 589888 608767 647955 
3678.886 694846 737692 767664 780875 779083 767797 753790 743036 739485 
3683.226 744662 758570 779747 806667 838702 875322 917123 963645 1012330 
3687.566 1057500 1089985 1099519 1080153 1034283 972379 909487 859817 831731 
3691.905 827150 841524 866357 892619 912043 919547 913205 893682 863569 
3696.245 826154 783929 738157 690100 641551 596159 560227 540122 541150 
3700.584 563478 600472 638000 660631 659038 633288 592807 550804 521046 
3704.924 513284 531629 575322 639161 715057 793755 866922 926653 966733 
3709.264 982142 970320 932497 875322 810651 752164 710378 688806 684458 
3713.603 690830 701085 710378 715887 715953 710178 698297 680675 658607 
3717.943 635113 614175 600439 597453 605847 623831 646063 666372 680111 
3722.282 686051 687246 689569 698164 714991 736829 756412 765308 757242 
3726.622 732316 697368 663186 639560 633388 647159 679812 727735 785921 
3730.962 848695 910914 970353 1028438 1090849 1165461 1256702 1362519 
3734.819 1469792 1554379 1590759 1566150 1484952 1365311 1228457 1092310 
3738.677 969290 867586 792095 744430 723786 727735 753425 798269 858589 
3743.016 928413 994695 1039099 1047037 1018939 971249 924262 891325 877380 
3747.356 881995 901186 929243 959627 986459 1006485 1019902 1028305 1031527 
3751.695 1027475 1014024 991673 965006 939703 921506 913338 914666 921208 
3756.035 926520 922868 904772 871039 826253 779547 740879 717414 711008 
3760.375 718608 733444 748944 761258 767565 767067 758238 739551 709946 
3764.714 670852 627083 586470 557805 547785 558966 590319 636706 690233 
3769.054 739651 774203 786751 776726 749873 715455 682434 657877 646063 
3773.393 649415 668131 700952 744795 796344 851351 905901 956472 998780 
3777.733 1028537 1041291 1033984 1006950 965604 919547 878276 848396 832694 
3782.073 829473 834221 841558 845940 843184 832627 816593 799331 784991 
3786.412 775531 770751 768627 765806 759599 748313 731619 710875 688507 
3790.752 668065 653165 646993 652103 669425 698297 736298 780112 824793 
3795.091 864432 893317 906797 903344 884883 855899 821241 785157 750836 
3799.431 720998 698795 686848 686051 693817 703541 708353 705233 695012 
3803.771 680708 666372 655156 649448 650643 657943 667998 676062 677921 
3808.110 671317 656350 634184 606776 576616 547089 522075 505455 500313 
3812.450 508043 528511 559563 598647 642546 687379 729030 764677 793489 
3816.789 817489 840595 866258 897467 935917 981146 1030298 1075004 1103671 
3821.129 1107557 1086663 1050027 1010204 976131 951026 934523 923997 915994 
3825.469 907096 895940 883157 871902 865727 866656 874724 887639 902447 
3829.808 915895 925591 930737 931866 930106 926686 922204 916094 907826 
3834.148 897998 888602 883921 889299 909653 947772 1001337 1061552 1113504 
3838.487 1141973 1134565 1088158 1009673 912442 813041 727569 669890 648154 
3842.827 663485 709116 771614 834420 883257 911147 916991 906233 885913 
3847.167 864332 847400 839001 840595 852480 874060 905170 946610 999012 
3851.506 1062283 1132339 1198187 1243642 1254342 1230849 1184731 1129283 
3855.364 1071982 1015053 958597 903875 853741 812211 783929 770884 772975 
3859.703 786751 806070 823830 834022 833457 823797 809456 796941 790501 
3864.043 790468 792261 789273 777025 754952 727304 701118 685056 687511 
3868.382 715024 768660 840694 913106 966401 991142 990079 972810 949532 
3872.722 927516 909121 892653 873031 845342 808427 764810 719604 678651 
3877.062 646760 626287 618190 621276 632425 648718 668131 690598 718044 
3881.401 751965 792427 837043 881663 920278 945779 950594 928811 880966 
3885.741 815796 749342 696870 667866 665841 689735 735469 796643 864731 
3890.080 927018 969888 983437 965903 924960 874126 826818 791663 772378 
3894.420 768129 776095 792327 812709 833358 850256 859186 857194 843383 
3898.760 819548 791365 766270 750736 747882 756113 770253 783597 790435 
3903.099 788145 778087 764279 751599 743169 739518 739186 740148 740713 
3907.439 740381 739651 738954 739219 740846 743899 748612 755051 762984 
3911.778 772378 782402 792526 802219 812145 823664 839400 861975 892387 
3916.118 928944 966268 996057 1009906 1002798 973740 926786 870740 816394 
3920.458 773573 750106 749044 768992 803547 842919 875488 889200 876816 
3924.797 838503 783464 725777 680874 660067 668098 702977 756810 818917 
3929.137 877446 923233 951856 963446 961818 951026 934456 912541 885049 
3933.476 851982 814734 777025 742804 716119 698928 692058 694248 702612 
3937.816 714227 725844 734141 736630 731453 717911 697733 675399 657910 
3942.156 652601 664680 693585 733842 775465 809190 828810 833059 825490 
3946.495 812908 802651 799796 804875 813539 819149 814966 797672 768727 
3950.835 733676 699857 674204 661361 662788 676958 700222 727901 755649 
3955.174 779780 798369 810850 818253 822801 826486 830768 835681 839765 
3959.514 840064 833623 818353 794120 763150 729660 698430 674137 659437 
3963.854 655222 660366 673208 691958 714924 741609 771249 803149 836013 
3968.193 867254 893914 912342 919082 912209 891889 860680 823664 787348 
3972.533 758536 742040 740680 753126 776162 804410 832860 858257 878874 
3976.872 894844 906266 913006 913438 905668 887772 859551 823000 782734 
3981.212 744065 712668 692423 684126 686615 697003 711705 727901 743733 
3985.552 757707 769092 777158 781174 780709 776162 768959 761159 755118 
3989.891 752861 754753 760229 767200 773440 776527 775332 769988 761491 
3994.231 752296 744795 741244 743634 752130 766237 783929 802485 818884 
3998.570 831532 839765 844977 849658 856962 
##END=
