##TITLE=cetvrtomas_0 Sep 24 16:02:36 2026 (GMT+02:00)
##JCAMP-DX=5.01  $$ Nicolet v. 1
##DATATYPE=INFRARED SPECTRUM
##ORIGIN=Vojna akademija
##OWNER=Nicolet
##LONGDATE=2026/09/24
##TIME=16:03:12
##SPECTROMETER/DATA SYSTEM=Nicolet iS20
##DATA PROCESSING=
Ratio against background
%Transmittance->Absorbance
Truncated
ElementMultiply or ElementDivide
##COMMENTS=
Number of sample scans: 8
Collection length: 11,90 sec
Sample gain: 8,0
Background collected on: Thu Sep 24 16:01:06 2026 (GMT+02:00);
Number of background scans: 8
Background gain: 8,0
Sample spacing:  1,000
Number of scan points: 12415
Resolution points: 8286
Number of FFT points: 65536
Apodization: N-B strong;
Phase correction: Mertz;
Laser frequency: 15798,00 cm-1
Number of rejected sample scans: 0
Number of rejected background scans: 0
Bench serial number: BER2010005;
##RESOLUTION= 4,000
##XUNITS=1/CM
##YUNITS=ABSORBANCE
##FIRSTX=400.156891
##LASTX=4000.123047
##FIRSTY=0.006953
##MAXX=4000.123047
##MINX=400.156891
##MAXY=0.154675
##MINY=-0.001362
##XFACTOR=1.000000
##YFACTOR=1.000000E-009
##NPOINTS=7468
##DELTAX=0.482117
##ZPD=6100
##XYDATA=(X++(Y..Y))
400.157 6952974 10178914 12321784 13451312 13777340 13569919 13082398 
403.532 12550504 12171858 12106472 12482162 13333078 14556476 15886905 
406.907 16962322 17379550 16807342 15107233 12398965 9094733 5779151 3103796 
410.763 1558635 1368934 2502887 4709101 7597738 10712122 13670437 16201733 
414.620 18183114 19606274 20505178 20903678 20786526 20113324 18873674 
417.995 17173196 15335605 13833058 13076081 13191376 14018565 15263735 
421.370 16641228 17940980 18985604 19636676 19808342 19483822 18752676 
424.745 17801184 16870788 16160874 15793605 15792917 16097533 16590277 
428.120 17125318 17569890 17813612 17798354 17526626 17076724 16594717 
431.494 16280569 16359214 16998946 18270362 20107146 22316890 24587616 
434.869 26551604 27898186 28447422 28254236 27578758 26794640 26205888 
438.244 25950448 25973136 26075792 25991568 25483408 24439112 22908286 
441.619 21106282 19332514 17896092 16987334 16622672 16661955 16897862 
444.994 17140106 17279964 17323100 17365928 17544636 17958696 18621992 
448.369 19437352 20241890 20846246 21113310 21001074 20580144 20016162 
451.743 19527732 19308194 19437318 19861686 20416020 20911606 21190886 
455.118 21183476 20908302 20455370 19937580 19445184 19012812 18608952 
458.493 18171504 17659952 17093334 16546147 16126761 15939526 16069923 
461.868 16551619 17347410 18341108 19366464 20243244 20810336 20972142 
465.243 20700370 20049160 19137728 18136474 17213734 16475452 15946299 
468.617 15572993 15274099 14987347 14713842 14517966 14497170 14715144 
471.992 15138145 15601293 15865769 15693178 14967146 13742660 12222327 
475.367 10685292 9412020 8649724 8537486 9089082 10178134 11581998 13026912 
479.224 14256090 15094094 15447382 15321876 14809689 14075170 13302123 
482.599 12638948 12161022 11842675 11580773 11245984 10760349 10136720 
485.974 9486620 8958263 8684168 8711346 8985492 9365296 9685356 9819851 
489.831 9733470 9497728 9259135 9179533 9359033 9804059 10422798 11074166 
493.688 11614463 11959039 12093082 12054075 11897941 11669871 11391814 
497.062 11066076 10689130 10268607 9828121 9405519 9040025 8761752 8585912 
500.919 8509913 8518867 8590205 8702625 8841651 8995844 9155675 9308421 
504.776 9435723 9514526 9520081 9433826 9253246 9003353 8737715 8528667 
508.633 8457001 8576923 8903978 9401219 9987343 10546421 10958820 11141063 
512.490 11058700 10738951 10247404 9670923 9087526 8556545 8122315 7812412 
516.347 7644138 7623568 7741235 7967150 8252410 8542183 8785149 8953020 
520.204 9043408 9076158 9078763 9071489 9060087 9037386 8991413 8916695 
524.061 8821734 8728790 8663379 8642592 8666015 8717465 8775885 8825184 
527.918 8859675 8878309 8871038 8812605 8661351 8374437 7932290 7359715 
531.775 6733072 6157974 5750510 5590719 5700519 6036703 6506520 6995298 
535.632 7398371 7656076 7754795 7722887 7608731 7471311 7367062 7343303 
539.489 7440941 7685854 8082581 8606764 9205828 9804092 10319263 10690081 
543.346 10886616 10917841 10820132 10644305 10439496 10242891 10084729 
546.720 9988699 9974697 10056684 10233393 10481210 10751145 10984849 
550.095 11129096 11159488 11091297 10972955 10863854 10805491 10806714 
553.470 10837016 10843232 10770539 10592084 10318313 9994124 9675700 9416964 
557.327 9250234 9183593 9210025 9319254 9508092 9781929 10147844 10604749 
561.184 11135249 11706224 12272257 12785827 13208522 13508936 13665650 
564.559 13666061 13507673 13203057 12782824 12298128 11809170 11376372 
567.934 11050713 10861543 10819758 10921001 11153811 11502240 11946403 
571.308 12457337 12990073 13489215 13900005 14179365 14316356 14333855 
574.683 14285605 14233286 14232568 14312349 14472608 14692112 14946946 
578.058 15224853 15527422 15864154 16239395 16641296 17041332 17400830 
581.433 17684246 17872856 17965568 17973544 17910008 17786066 17609810 
584.808 17392380 17156236 16933864 16763087 16676484 16687021 16782716 
588.182 16927422 17075070 17178884 17208218 17153788 17026514 16850120 
591.557 16652038 16457660 16283941 16137937 16018214 15916463 15820304 
594.932 15716951 15600778 15476807 15363856 15287416 15270976 15320023 
598.307 15413461 15499950 15517875 15414560 15173210 14826830 14455993 
601.682 14160709 14020413 14072021 14289338 14596771 14887141 15068194 
605.057 15091417 14965020 14744451 14511731 14345019 14290639 14357314 
608.431 14519370 14733826 14954388 15145522 15287313 15369966 15389567 
611.806 15342402 15224475 15031558 14761969 14420197 14016786 13570604 
615.181 13108350 12660883 12263737 11948821 11738222 11639307 11641282 
618.556 11716095 11825377 11933018 12013775 12060070 12083271 12107562 
621.931 12159080 12253035 12384543 12526733 12636594 12663442 12570593 
625.305 12346157 12014320 11628247 11261320 10984680 10842484 10844931 
628.680 10962320 11139329 11308316 11416543 11442363 11400386 11335149 
632.055 11303794 11356304 11515100 11769575 12078876 12388873 12646317 
635.430 12816950 12894833 12898895 12865923 12838791 12860873 12963172 
638.805 13163881 13464914 13850846 14287866 14726901 15113786 15390906 
642.180 15512792 15455073 15218539 14831115 14344232 13830493 13365776 
645.554 13022508 12855514 12887290 13103672 13453158 13860561 14235786 
648.929 14503165 14620999 14588136 14442291 14243215 14054807 13923886 
652.304 13877255 13921730 14053575 14268348 14563980 14938681 15380710 
655.679 15861439 16337333 16753960 17068074 17259862 17340858 17347548 
659.054 17329650 17331512 17375618 17462188 17573926 17688318 17787756 
662.428 17864120 17917636 17949960 17960388 17945678 17903826 17841196 
665.803 17780992 17772532 17892258 18235426 18858310 19698906 20575386 
669.178 21317508 21870326 22278452 22613132 22932386 23267814 23626874 
672.553 24001810 24381628 24765498 25165998 25607002 26109958 26681492 
675.928 27304938 27941436 28540898 29062322 29483578 29808244 30060566 
679.302 30277258 30495694 30743544 31037016 31376414 31751438 32144022 
682.677 32535064 32910560 33263050 33593420 33907992 34213216 34508684 
686.052 34786544 35034380 35243472 35418008 35579452 35761568 36002720 
689.427 36326932 36735000 37202964 37690552 38152716 38553776 38876888 
692.802 39120616 39294828 39411024 39481416 39520100 39547680 39595480 
696.177 39698320 39885884 40172076 40548524 40986756 41449560 41906728 
699.551 42342428 42758636 43166824 43575512 43981608 44370912 44727176 
702.926 45047308 45348732 45669104 46048432 46513456 47059768 47653724 
706.301 48239388 48765036 49204448 49565552 49885668 50215764 50604336 
709.676 51080192 51655680 52330036 53099376 53959252 54903048 55914892 
713.051 56963628 58007132 59004264 59928408 60781456 61594180 62414744 
716.425 63285416 64231024 65250956 66326408 67431848 68546544 69656024 
719.800 70740416 71762720 72660976 73351400 73756688 73825208 73546968 
723.175 72950368 72085392 71001104 69730248 68294656 66716880 65036184 
726.550 63318156 61642028 60079856 58678724 57443672 56341340 55315408 
729.925 54313936 53302328 52272852 51236380 50208736 49197284 48196552 
733.300 47193796 46179604 45155240 44133944 43132460 42162096 41220224 
736.674 40291780 39355408 38396508 37415632 36431308 35473984 34573980 
740.049 33755364 33027060 32383818 31808730 31279762 30771570 30256902 
743.424 29710944 29111070 28445122 27717746 26955800 26204480 25515736 
746.799 24937978 24496460 24187158 23975900 23812236 23640168 23415990 
750.174 23120214 22755918 22343506 21910538 21484098 21085658 20729700 
753.548 20426820 20183260 20001522 19877396 19798980 19745124 19689788 
756.923 19610848 19494428 19340204 19160512 18975290 18803536 18656994 
760.298 18536988 18435788 18340868 18240368 18128802 18007804 17884940 
763.673 17769668 17671890 17597322 17548050 17523176 17519970 17532974 
767.048 17553848 17569582 17560782 17502512 17369376 17138796 16799456 
770.423 16357426 15841197 15299154 14790284 14377075 14104092 13990231 
773.797 14021816 14158278 14337964 14493539 14572272 14540201 14391632 
777.172 14144551 13833811 13499742 13178499 12899202 12677087 12515752 
780.547 12407659 12338215 12287595 12233574 12157342 12043513 11884728 
783.922 11682567 11446513 11191344 10933131 10688077 10468957 10286317 
787.297 10149574 10067637 10049970 10104229 10233087 10428466 10668177 
790.671 10916618 11125629 11247514 11245372 11102344 10829508 10465563 
794.046 10072860 9717680 9462305 9345998 9375792 9526583 9749633 9985818 
797.903 10175827 10277733 10272068 10164362 9980664 9760952 9550733 9390046 
801.760 9310790 9329715 9446152 9641618 9885166 10140281 10370840 10551480 
805.617 10671370 10733857 10753216 10746288 10724687 10690658 10637378 
808.992 10554976 10440378 10303417 10168500 10070011 10043629 10112979 
812.367 10282144 10532570 10828659 11125289 11380862 11569407 11682942 
815.742 11731516 11736349 11724299 11718682 11734817 11779108 11848633 
819.116 11933734 12022121 12101362 12161329 12196428 12206004 12194349 
822.491 12169643 12142248 12124972 12130458 12171620 12259749 12401522 
825.866 12596992 12836505 13101351 13363009 13589065 13751039 13828167 
829.241 13815100 13722449 13574535 13402135 13235952 13102033 13015884 
832.616 12983484 13002091 13063481 13156470 13270932 13399470 13538436 
835.990 13687329 13848657 14024486 14214867 14415197 14615551 14802625 
839.365 14961967 15083527 15165181 15214284 15246576 15279145 15328500 
842.740 15403505 15503624 15620699 15742065 15854703 15948979 16021170 
846.115 16073428 16112216 16146155 16184708 16234614 16298044 16371703 
849.490 16446717 16510662 16550623 16558986 16534720 16486190 16427824 
852.865 16377416 16350303 16355567 16395377 16465645 16559193 16664606 
856.239 16769769 16859868 16917430 16926250 16873302 16754340 16578125 
859.614 16366577 16150247 15959051 15818002 15738562 15720215 15752442 
862.989 15819961 15906256 15995763 16074186 16128892 16150592 16137112 
866.364 16098427 16057579 16044755 16091377 16215215 16412271 16653037 
869.739 16893628 17085684 17193602 17206184 17136864 17015486 16871338 
873.113 16723692 16574925 16414989 16231896 16023405 15802676 15597034 
876.488 15435778 15342264 15324038 15372266 15464927 15576393 15686514 
879.863 15781682 15856249 15908387 15936159 15937807 15911961 15862092 
883.238 15796663 15728872 15672980 15639830 15636224 15663086 15718086 
886.613 15797144 15894432 16001849 16106714 16192274 16240221 16235232 
889.987 16171364 16055137 15903987 15739076 15579621 15436395 15310480 
893.362 15198670 15099445 15018250 14969478 14969581 15031010 15152863 
896.737 15318615 15496826 15649861 15745604 15763780 15701560 15571414 
900.112 15397155 15207352 15029775 14889919 14805506 14785896 14829230 
903.487 14922495 15041506 15155746 15237412 15266275 15237893 15164358 
906.862 15071143 14988341 14942179 14949759 15014512 15128057 15273070 
910.236 15430524 15581202 15710149 15808517 15873501 15909107 15925091 
913.611 15935162 15951866 15983595 16031276 16088661 16144883 16189694 
916.986 16218035 16232446 16241286 16253669 16275650 16305303 16334580 
920.361 16350474 16342012 16302310 16230555 16130097 16005149 15859857 
923.736 15696786 15520278 15338317 15162711 15009195 14893519 14826488 
927.110 14813185 14852133 14936384 15056118 15201245 15359016 15514406 
930.485 15650136 15746498 15788211 15770789 15704790 15616062 15539921 
933.860 15512930 15559737 15687820 15885152 16128480 16389286 16644016 
937.235 16880018 17091922 17278068 17434146 17551122 17618196 17630170 
940.610 17593906 17530872 17475090 17465396 17529904 17680414 17904690 
943.985 18171470 18436134 18655782 18800316 18857272 18834988 18758350 
947.359 18663564 18586094 18556214 18592594 18698536 18864158 19067960 
950.734 19284016 19485034 19650924 19771756 19849338 19895538 19927520 
954.109 19963460 20015678 20087644 20173160 20259526 20329762 20370042 
957.484 20374764 20348824 20307160 20271780 20265740 20304866 20393654 
960.859 20522686 20672916 20818610 20936256 21012410 21045068 21044302 
964.233 21027086 21013212 21016654 21043260 21088890 21141070 21182570 
967.608 21194364 21162010 21076334 20936084 20748016 20526542 20290494 
970.983 20060056 19855164 19691554 19580484 19529084 19539238 19607140 
974.358 19722658 19870114 20027370 20170384 20278064 20335908 20341116 
977.733 20303166 20241472 20178366 20132274 20113916 20123006 20151640 
981.108 20189160 20227622 20264350 20301880 20343790 20392092 20443388 
984.482 20489444 20518726 20521296 20491074 20427480 20334624 20220540 
987.857 20096112 19974146 19871258 19806194 19796656 19856934 19991668 
991.232 20193430 20441998 20710064 20968804 21194364 21374830 21508712 
994.607 21602484 21663778 21698608 21708604 21693662 21656950 21608402 
997.982 21565362 21552130 21591652 21700942 21884474 22132964 22422942 
1001.356 22722364 22998270 23220134 23368050 23435470 23430362 23373750 
1004.731 23295292 23228314 23198988 23222966 23300500 23419314 23556872 
1008.106 23688908 23797046 23871044 23911828 23928598 23936370 23951356 
1011.481 23988364 24059416 24170870 24322018 24503996 24700994 24891062 
1014.856 25052008 25169262 25240088 25277312 25306464 25361538 25472728 
1018.231 25660708 25930434 26270756 26655666 27049766 27417154 27722232 
1021.605 27938150 28050744 28061592 27990166 27871194 27751298 27672436 
1024.980 27664242 27733146 27862148 28015010 28149048 28231038 28244510 
1028.356 28194690 28103444 28002678 27922778 27886526 27908434 27992604 
1031.731 28134340 28319198 28526000 28722708 28874420 28951342 28935298 
1035.106 28830228 28660516 28466314 28286272 28144946 28042824 27958610 
1038.481 27856496 27703408 27485488 27213492 26921182 26651648 26446160 
1041.857 26326974 26293672 26323806 26384434 26443132 26477748 26484016 
1045.232 26474896 26476832 26519694 26632414 26832774 27122416 27485524 
1048.607 27890942 28299252 28669080 28971530 29195582 29352000 29467796 
1051.982 29577774 29712400 29886608 30098632 30333962 30574610 30808810 
1055.358 31038654 31280048 31556424 31887028 32277092 32711446 33157538 
1058.733 33568648 33899496 34118296 34213216 34198696 34109944 34000248 
1062.108 33923072 33920992 34016944 34207588 34466136 34749752 35015848 
1065.483 35228556 35370880 35446728 35477904 35494404 35527164 35602248 
1068.859 35735232 35933288 36196148 36518880 36894440 37314048 37769128 
1072.234 38250912 38751276 39265304 39791168 40331152 40891216 41480216 
1075.609 42108280 42785032 43518072 44310072 45156636 46044488 46953804 
1078.984 47859588 48738980 49578592 50378340 51153172 51925508 52717772 
1082.359 53540044 54384868 55229532 56047232 56816468 57533500 58211900 
1085.735 58880128 59566904 60291164 61057812 61858644 62678284 63499860 
1089.110 64310088 65095232 65837988 66518024 67114544 67614544 68023264 
1092.485 68365384 68675848 68984688 69301568 69608216 69864104 70022872 
1095.860 70055768 69963040 69774208 69530288 69266440 68993232 68695480 
1099.236 68343792 67915160 67408512 66849804 66278696 65733976 65236324 
1102.611 64782976 64353928 63926652 63491352 63056372 62644868 62283396 
1105.986 61993112 61782276 61650088 61593992 61617284 61730972 61949696 
1109.361 62282172 62724644 63258820 63858056 64494596 65152088 65828004 
1112.737 66531196 67271696 68051248 68855728 69657656 70417888 71094024 
1116.112 71650400 72056408 72291704 72347240 72228032 71955072 71562448 
1119.487 71093120 70583216 70053160 69501816 68912376 68262544 67540064 
1122.862 66750728 65919660 65080448 64262716 63488284 62770316 62122956 
1126.238 61574708 61168464 60957264 60989824 61289168 61844620 62612796 
1129.613 63537792 64569676 65688068 66909448 68279184 69847440 71645512 
1132.988 73670464 75883728 78222936 80620656 83028184 85417352 87777720 
1136.363 90103152 92379368 94581688 96682320 98659784 100507992 102232888 
1139.739 103841000 105327208 106667904 107826184 108771184 109491416 
1142.632 110005344 110354016 110589760 110757000 110883760 110987064 
1145.525 111080768 111186128 111335368 111559568 111878528 112288648 
1148.418 112763752 113263512 113751992 114212928 114651624 115086824 
1151.311 115534432 115995704 116455616 116892584 117294136 117668560 
1154.204 118043264 118452152 118912568 119413528 119913832 120359448 
1157.097 120701312 120918760 121021808 121041512 121006312 120927072 
1159.990 120789216 120564528 120226056 119765416 119196480 118547824 
1162.883 117844848 117096848 116294392 115417288 114449104 113388328 
1165.776 112251320 111064632 109853240 108630664 107398536 106152408 
1168.669 104891672 103624288 102365280 101128768 99920128 98731352 97546072 
1172.045 96347016 95127128 93893056 92661664 91450272 90269584 89117464 
1175.420 87983912 86856656 85729744 84605704 83493200 82399320 81324888 
1178.795 80263400 79204848 78143640 77083240 76035128 75014232 74029048 
1182.170 73077888 72147864 71222400 70290336 69351592 68418840 67511032 
1185.546 66647068 65836408 65078528 64365076 63685908 63033536 62404376 
1188.921 61797172 61207752 60628088 60047520 59456932 58854628 58248496 
1192.296 57653392 57083548 56545740 56034224 55533480 55022068 54483084 
1195.671 53910708 53311168 52700224 52095892 51513704 50961804 50442344 
1199.047 49953952 49494252 49062528 48658876 48283860 47938836 47626292 
1202.422 47349660 47114644 46925416 46782280 46677492 46596220 46517400 
1205.797 46420860 46293820 46134756 45953432 45765444 45586040 45423520 
1209.172 45278308 45145236 45019524 44900864 44795572 44712488 44657288 
1212.547 44628976 44618032 44609956 44592000 44559216 44515932 44473936 
1215.923 44445784 44439504 44456024 44490232 44535788 44590200 44657508 
1219.298 44746424 44866144 45021948 45212704 45432492 45673704 45930964 
1222.673 46203116 46490516 46792284 47102308 47409008 47699504 47963996 
1226.048 48200772 48416784 48624596 48836184 49055960 49280120 49498004 
1229.424 49697720 49871360 50018080 50143092 50253112 50352628 50440892 
1232.799 50514028 50568296 50602248 50618928 50622984 50618256 50604484 
1236.174 50578124 50534424 50471448 50391140 50298908 50198656 50088764 
1239.549 49959936 49797852 49586800 49317904 48992196 48620892 48219652 
1242.925 47803100 47379484 46949408 46507188 46046036 45562008 45054732 
1246.300 44527092 43983296 43427396 42863068 42294944 41730044 41176944 
1249.675 40644424 40139188 39664344 39220332 38806848 38425104 38080120 
1253.050 37777876 37523268 37316580 37151748 37018296 36904184 36801564 
1256.426 36708244 36626836 36560364 36506444 36454336 36386056 36280644 
1259.801 36122972 35910072 35652388 35369696 35083372 34810776 34560668 
1263.176 34336520 34139584 33972800 33840392 33745484 33685036 33647944 
1266.551 33615936 33569184 33491798 33378464 33234470 33074896 32916598 
1269.927 32773684 32654930 32561708 32491788 32441262 32406914 32385462 
1273.302 32372360 32361080 32343124 32309964 32256250 32179918 32082730 
1276.677 31966660 31831726 31674128 31487588 31267512 31014310 30736752 
1280.052 30449312 30167354 29902688 29657408 29423794 29187220 28933386 
1283.428 28651630 28340456 28007200 27665656 27333166 27025330 26755700 
1286.803 26532374 26357288 26225948 26127728 26048032 25970146 25881266 
1290.178 25774366 25650480 25517070 25385074 25264320 25158730 25066400 
1293.553 24981388 24897236 24811384 24726772 24651684 24595332 24563808 
1296.929 24556412 24565246 24578220 24582076 24568016 24534008 24485206 
1300.304 24431190 24382470 24346932 24326642 24316830 24307056 24285330 
1303.679 24240726 24168102 24070274 23958602 23849130 23757078 23692374 
1307.054 23654094 23630896 23603782 23555156 23474394 23363258 23235200 
1310.430 23112246 23016402 22962776 22957012 22993414 23059936 23142126 
1313.805 23229188 23314732 23395638 23469602 23532524 23577544 23597276 
1317.180 23584856 23536968 23453934 23339344 23198464 23036876 22861412 
1320.555 22680014 22501764 22334576 22182724 22043752 21907404 21758556 
1323.931 21581242 21365120 21110910 20830776 20544152 20272716 20034274 
1327.306 19837892 19684586 19570188 19488812 19435482 19406932 19400486 
1330.681 19411504 19432952 19457276 19478034 19494774 19512828 19543640 
1334.056 19599272 19689892 19818956 19982820 20171216 20370978 20570486 
1337.432 20760806 20937892 21101622 21255220 21403928 21553732 21711494 
1340.807 21881546 22064738 22257142 22451970 22639380 22811788 22966480 
1344.182 23107494 23244674 23389694 23550258 23726212 23906822 24075176 
1347.557 24214940 24315640 24377214 24409248 24425896 24438690 24451696 
1350.932 24461018 24457968 24435674 24393370 24338908 24287852 24258910 
1354.308 24267038 24320336 24416398 24543474 24682018 24809874 24906536 
1357.683 24954998 24946752 24882886 24775810 24646072 24520544 24425792 
1361.058 24379316 24387202 24439390 24515708 24592174 24652876 24694996 
1364.433 24725474 24754238 24788756 24831450 24880990 24933838 24988724 
1367.809 25046884 25110736 25181130 25253960 25320266 25370144 25397966 
1371.184 25407522 25414968 25448662 25546028 25741634 26057848 26490568 
1374.559 27007172 27553480 28071984 28516164 28847472 29036212 29056760 
1377.934 28887772 28522428 27974722 27280840 26487258 25643204 24787386 
1381.310 23944144 23129264 22352366 21619026 20931458 20285250 19669678 
1384.685 19068894 18467698 17857802 17242246 16638370 16070850 15561831 
1388.060 15122397 14750484 14438557 14180187 13973190 13817153 13710583 
1391.435 13647084 13614569 13597919 13583115 13562706 13538880 13523327 
1394.811 13529822 13567732 13636792 13729255 13835521 13949102 14066375 
1398.186 14183952 14297385 14398277 14477541 14530608 14558532 14567269 
1401.561 14563808 14550274 14522386 14467503 14367007 14204596 13975517 
1404.936 13693929 13389832 13103058 12868484 12707349 12629226 12633661 
1408.312 12715401 12868449 13087383 13366289 13698136 14074657 14487612 
1411.687 14930725 15401514 15898660 16419291 16955328 17489508 17999102 
1415.062 18460818 18854158 19168026 19400244 19554972 19635670 19643262 
1418.437 19576498 19438704 19245846 19024410 18799278 18585920 18386388 
1421.813 18193618 17999030 17798388 17598424 17419798 17290652 17236246 
1425.188 17268344 17382378 17565820 17805880 18097400 18441942 18845230 
1428.563 19311796 19838030 20410046 21008308 21612826 22209538 22791708 
1431.938 23356826 23903844 24429998 24931696 25406784 25855522 26283676 
1435.314 26703266 27129540 27570636 28021372 28462810 28873180 29241266 
1438.689 29568444 29865454 30146080 30423156 30704532 30991642 31279728 
1442.064 31561126 31829052 32081016 32319992 32552138 32783442 33017978 
1445.439 33258044 33506472 33770264 34062924 34401324 34802160 35273260 
1448.815 35813380 36416968 37081696 37812432 38619248 39510372 40482684 
1452.190 41515796 42578492 43631192 44642124 45592368 46467768 47253376 
1455.565 47919968 48419264 48699092 48755176 48658472 48513692 48401816 
1458.940 48347816 48341484 48364592 48403520 48452452 48509840 48575424 
1462.316 48645648 48711028 48754584 48749692 48658988 48438672 48036824 
1465.691 47401468 46491184 45273780 43744376 41928368 39884172 37680764 
1469.066 35389968 33063062 30704994 28292462 25790786 23202624 20618466 
1472.441 18220706 16198017 14629703 13461428 12561417 11796096 11084499 
1475.817 10398804 9755665 9187079 8719223 8354575 8074716 7849455 7648926 
1479.674 7450614 7240331 7013852 6774802 6532856 6299854 6087036 5901862 
1483.531 5746078 5615523 5500947 5389554 5268865 5131346 4977983 4820118 
1487.389 4674903 4559737 4485945 4454511 4456854 4479618 4512159 4548085 
1491.246 4584349 4617132 4639637 4643488 4620715 4565831 4478179 4363333 
1495.104 4233293 4102790 3984834 3885195 3801156 3726189 3658387 3602354 
1498.961 3566941 3558422 3576195 3611308 3650935 3682044 3696347 3692771 
1502.818 3675161 3650568 3626076 3607867 3599113 3600016 3606297 3609304 
1506.676 3599080 3569246 3522946 3467799 3409788 3352419 3298530 3250723 
1510.533 3210999 3181825 3164036 3156927 3158796 3167974 3182193 3198949 
1514.391 3214670 3223149 3216273 3186298 3130560 3055876 2977402 2912785 
1518.248 2873825 2865787 2889169 2941773 3019273 3111538 3202086 3269751 
1522.106 3299464 3289916 3249788 3191906 3128591 3072327 3034455 3023577 
1525.963 3041996 3083573 3135133 3181558 3213135 3225753 3221547 3204523 
1529.820 3178454 3144878 3103028 3051438 2989146 2919823 2853880 2806222 
1533.678 2790148 2807889 2850545 2905213 2961789 3014702 3060348 3093951 
1537.535 3106198 3080369 2993082 2823597 2575576 2293187 2049729 1901344 
1541.393 1856652 1888399 1961484 2049530 2137593 2220978 2300048 2376302 
1545.250 2449936 2519250 2583076 2641277 2694751 2744064 2788047 2820696 
1549.108 2832769 2815426 2764871 2686950 2594142 2502221 2423979 2369105 
1552.965 2342721 2345652 2373237 2417082 2469596 2524849 2580576 2635810 
1556.822 2686249 2720124 2715756 2647711 2517317 2378167 2291455 2268438 
1560.680 2285625 2315904 2342454 2357046 2358845 2350916 2341222 2338123 
1564.537 2348417 2374070 2411351 2452535 2490323 2520150 2540413 2552145 
1568.395 2557144 2557244 2553145 2543946 2528182 2504387 2472495 2433709 
1572.252 2389328 2341721 2294586 2252251 2220645 2206291 2214250 2243991 
1576.109 2287191 2329429 2357812 2368239 2363375 2348984 2330761 2314039 
1579.967 2303679 2304479 2320901 2355180 2406520 2469329 2534181 2590109 
1583.824 2625909 2634510 2615042 2573543 2520117 2467030 2424046 2395859 
1587.682 2382898 2381699 2387762 2396558 2405254 2411318 2413550 2410252 
1591.539 2400023 2382998 2361310 2339623 2323699 2318236 2324599 2339423 
1595.397 2355746 2364808 2359677 2338423 2304479 2264841 2228771 2204493 
1599.254 2197133 2207223 2231802 2264675 2298050 2325465 2342987 2349650 
1603.111 2348251 2343354 2340589 2344053 2355546 2373703 2395392 2415483 
1606.969 2429644 2435375 2432176 2421847 2406920 2389961 2373003 2357712 
1610.826 2346918 2343587 2351715 2373536 2409152 2454434 2502320 2542380 
1614.684 2561811 2548512 2495855 2410418 2313239 2232701 2189840 2188641 
1618.541 2221078 2274067 2335991 2396392 2447037 2480759 2490823 2473662 
1622.399 2431976 2377201 2326131 2294286 2288190 2304079 2331694 2359711 
1626.256 2379433 2384597 2373936 2349583 2314605 2271636 2221977 2165996 
1630.113 2105795 2046334 1995003 1960453 1950834 1971670 2024995 2108125 
1633.971 2213751 2329329 2436374 2517351 2565210 2589442 2607609 2636976 
1637.828 2687016 2760537 2856715 2970496 3094752 3219410 3334956 3435236 
1641.686 3520073 3595505 3672020 3761014 3871054 4004496 4155843 4311091 
1645.543 4446778 4537672 4568678 4548587 4504961 4468002 4453607 4461942 
1649.401 4485912 4517516 4552672 4590744 4638230 4707292 4814389 4962935 
1653.258 5120517 5232679 5271850 5245121 5170207 5061547 4929254 4783165 
1657.115 4634144 4495989 4381941 4300684 4255075 4240286 4245405 4255744 
1660.973 4256514 4234732 4182372 4098241 3990284 3871522 3755666 3652907 
1664.830 3568779 3504641 3460953 3436505 3429592 3437206 3454006 3472041 
1668.688 3479924 3466029 3421911 3347377 3251424 3149684 3059981 2998721 
1672.545 2981005 3017538 3113273 3260471 3435103 3596040 3700390 3728529 
1676.402 3692170 3622935 3550806 3497493 3472342 3475014 3499029 3536642 
1680.260 3582108 3634529 3699221 3784845 3899705 4048574 4222452 4391581 
1684.117 4513499 4562115 4549123 4504794 4452536 4400919 4352054 4308347 
1687.975 4276089 4267188 4295062 4367784 4484204 4632303 4794388 4953048 
1691.832 5097820 5225603 5338128 5438805 5528497 5603776 5657314 5683230 
1695.690 5687325 5688400 5710926 5770690 5870694 6005861 6168124 6347157 
1699.547 6528349 6694812 6835486 6951897 7053285 7148196 7239927 7327432 
1703.404 7406763 7472794 7518911 7538094 7525889 7483245 7417616 7340203 
1707.262 7262130 7192190 7134487 7089354 7054094 7024526 6997049 6970886 
1711.119 6948429 6934390 6932672 6944928 6968799 6998261 7026345 7049076 
1714.977 7069551 7101647 7169182 7300507 7522586 7846384 8256294 8719088 
1718.834 9201733 9689489 10188547 10717080 11298590 11956315 12710965 
1722.209 13576928 14560177 15659789 16868170 18177654 19582598 21081482 
1725.585 22676244 24374094 26192304 28165842 30347784 32801914 35580888 
1728.960 38693204 42078928 45619456 49170976 52651336 56098464 59712260 
1732.335 63845232 68958512 75424896 83153080 91370728 98991296 105360280 
1735.710 110527616 114916008 118957408 122953120 127058912 131307720 
1738.603 135622704 139863776 143851392 147410176 150390000 152659856 
1741.496 154109312 154675424 154378192 153344992 151776912 149885440 
1744.390 147785984 145468384 142822512 139724656 136111312 132028624 
1747.283 127602208 122988128 118278176 113457120 108416384 103054240 
1750.176 97379032 91557280 85881984 80646424 76024392 72021712 68520432 
1753.551 65346964 62330436 59329248 56242704 53019292 49677696 46311000 
1756.926 43064624 40084312 37454060 35178900 33198058 31416412 29726308 
1760.301 28030172 26267942 24435992 22599030 20862376 19322812 18024416 
1763.677 16954536 16061980 15285769 14572169 13885705 13210196 12548696 
1767.052 11916740 11333041 10812013 10357505 9964966 9626373 9336045 9090775 
1770.909 8886256 8712529 8548671 8369505 8160735 7923112 7671724 7423683 
1774.767 7191953 6982435 6795803 6631052 6486777 6363868 6264052 6187382 
1778.624 6130552 6084280 6034922 5966993 5869922 5742251 5591223 5427699 
1782.482 5260448 5095909 4936526 4785912 4649651 4535161 4449289 4393656 
1786.339 4363868 4348841 4335454 4312129 4271236 4210307 4131624 4041383 
1790.196 3947182 3858551 3786014 3739724 3726256 3745038 3786950 3837992 
1794.054 3883758 3914015 3923510 3913513 3889608 3860122 3830772 3802460 
1797.911 3768802 3719105 3641412 3529560 3387147 3229024 3075831 2946376 
1801.769 2852546 2796184 2772975 2775576 2797718 2833802 2877694 2922492 
1805.626 2958319 2975867 2968027 2932799 2873959 2798952 2716990 2634943 
1809.484 2557378 2487857 2432109 2398724 2398257 2436807 2511852 2609742 
1813.341 2710955 2792049 2835837 2835336 2795717 2731460 2662579 2605942 
1817.198 2568910 2548979 2536980 2522583 2499921 2468230 2430310 2389328 
1821.056 2345652 2297417 2242959 2183879 2126738 2083654 2067174 2085984 
1824.913 2139291 2216448 2300382 2375036 2429277 2454734 2444471 2389861 
1828.771 2283061 2122842 1924008 1717914 1540313 1419659 1365477 1371527 
1832.628 1421454 1497088 1583210 1668817 1749816 1824808 1892326 1948371 
1836.485 1985283 1995469 1976862 1936322 1888798 1852127 1839516 1853691 
1840.343 1886502 1921645 1941548 1933460 1893058 1825940 1746623 1671411 
1844.200 1610047 1564554 1531003 1505467 1489142 1486748 1502341 1535225 
1848.058 1578421 1617298 1636554 1626244 1585438 1524186 1457856 1404235 
1851.915 1376945 1383160 1423083 1490305 1574530 1662763 1743163 1804046 
1855.773 1836255 1835057 1802150 1747288 1685215 1633228 1604760 1604294 
1859.630 1626809 1660601 1690537 1703643 1694429 1664260 1619958 1569808 
1863.487 1520662 1475144 1433588 1392866 1349523 1301099 1247497 1191841 
1867.345 1142305 1111245 1111112 1149448 1222709 1316187 1409155 1482558 
1871.202 1525117 1534760 1518933 1491070 1467531 1459951 1472285 1498484 
1875.060 1526879 1542873 1536788 1506098 1455463 1393631 1328351 1264843 
1878.917 1204899 1149913 1102907 1068693 1052949 1057865 1079555 1106694 
1882.775 1124167 1117889 1079090 1010370 922502 832494 755450 701052 673275 
1887.114 671549 693950 739418 808194 898629 1004060 1113005 1210082 1281857 
1891.454 1321937 1331077 1315489 1284483 1245636 1202606 1156591 1107557 
1895.311 1057467 1013293 985961 985596 1019504 1087593 1181675 1286975 
1899.169 1387814 1470058 1525716 1553082 1553514 1529772 1482060 1409720 
1903.026 1312797 1195396 1068129 946244 847799 788244 775066 804477 861543 
1907.366 926188 977858 1005356 1010802 1009275 1022925 1069657 1154930 
1911.223 1266637 1376945 1449944 1455430 1376479 1216728 999975 765772 
1915.080 556610 406313 334517 342210 414207 520781 628941 713132 762586 
1919.420 783332 794950 822934 890694 1017511 1208753 1450975 1708965 1934292 
1923.760 2080391 2113819 2025727 1830265 1563124 1269429 998282 791232 
1927.617 672976 651074 716617 848098 1014223 1181442 1317683 1396656 1403969 
1931.957 1341546 1228357 1096595 986426 933194 954314 1045443 1183734 
1935.814 1337026 1475377 1582944 1658971 1715751 1767282 1820550 1869763 
1939.672 1901178 1898948 1855621 1781122 1701614 1649459 1649126 1704674 
1943.529 1796161 1893324 1964680 1992040 1974765 1924574 1855588 1780091 
1947.386 1702013 1618861 1529407 1439904 1364480 1325593 1342311 1423981 
1951.244 1564787 1744826 1934359 2104696 2238196 2331261 2394859 2447104 
1955.101 2505686 2578776 2660645 2730827 2760336 2718390 2584509 2356379 
1958.959 2059051 1744394 1478137 1329548 1346199 1536921 1869597 2283027 
1962.816 2704520 3065487 3327076 3480792 3546429 3557220 3544158 3523380 
1966.673 3493852 3443586 3361969 3250856 3128158 3018039 2948111 2935801 
1970.531 2986643 3092616 3232663 3375693 3485068 3520474 3446892 3239372 
1974.388 2892571 2427611 1904473 1405066 1020467 822768 842686 1055341 
1978.246 1388346 1742098 2006920 2100234 1986248 1679195 1236631 742903 
1982.103 298739 -12590 -137418 -68449 155459 463759 779415 1045675 1232577 
1986.443 1344404 1406628 1449213 1490039 1523355 1522424 1457158 1304622 
1990.300 1065006 764246 447506 162552 -54767 -187001 -230750 -186173 -48107 
1994.640 191324 539127 985496 1500413 2029955 2505386 2863386 3061182 
1998.497 3090313 2976334 2771807 2535914 2314272 2138026 2016074 1941614 
2002.355 1897917 1863940 1818287 1742664 1629071 1481561 1322236 1188951 
2006.212 1128452 1178850 1354575 1638317 1986482 2337557 2629909 2818261 
2010.069 2877561 2806155 2614842 2323932 1957723 1543871 1123436 743468 
2013.927 452946 288295 265319 369270 562881 802219 1044314 1262982 1452570 
2018.266 1618129 1767049 1901012 2014809 2100068 2160802 2211053 2274400 
2022.124 2369939 2501321 2646177 2766739 2823597 2796918 2703653 2593542 
2025.981 2530415 2570776 2735362 3001824 3308479 3582977 3759710 3803295 
2029.839 3712822 3510687 3226587 2878328 2471662 2004789 1480198 915530 
2033.696 344067 -190180 -641200 -977083 -1181012 -1257833 -1229551 -1133360 
2037.554 -1005447 -873858 -749573 -622473 -470050 -261050 27170 395071 
2041.411 816029 1242346 1614171 1876153 1999962 1984784 1860413 1674771 
2045.268 1481295 1318181 1208487 1158684 1163933 1217459 1309341 1426341 
2049.126 1550156 1657009 1724899 1739104 1699186 1619892 1527644 1447584 
2052.983 1394961 1370696 1361688 1349224 1322136 1283918 1253445 1255838 
2056.841 1310870 1422751 1578188 1751879 1914889 2047599 2141955 2200396 
2060.698 2228338 2228305 2198498 2136394 2046400 1946174 1860146 1814494 
2064.555 1820317 1865970 1915954 1928634 1870462 1734414 1544968 1350254 
2068.413 1204002 1142007 1172937 1273948 1405232 1520994 1589229 1597743 
2072.270 1551087 1460051 1335663 1183136 1004957 809489 615370 448103 337601 
2076.610 304011 348942 453709 584314 702545 776560 793091 755715 682865 
2080.949 598182 523866 477326 467076 495205 557572 646528 750371 856862 
2085.289 955974 1042587 1117291 1185994 1254708 1323034 1380734 1410484 
2089.146 1394163 1323001 1207125 1075436 970419 931036 977293 1099718 
2093.004 1262650 1410085 1486049 1457391 1322569 1112939 878874 675797 
2096.861 541913 491423 512853 579038 658872 727005 772510 798269 818353 
2101.201 849160 907229 1001769 1130313 1279830 1427804 1546498 1608551 
2105.058 1595847 1503172 1341446 1133170 907826 693950 512521 377361 294462 
2109.398 264655 285112 348710 442797 545994 633089 677058 659337 576616 
2113.738 444521 294097 159702 70514 39431 59479 109853 166795 213601 248377 
2118.559 283090 336672 425384 554255 714792 887905 1055706 1204367 1329648 
2122.899 1435616 1526813 1602598 1655546 1673207 1644503 1568212 1455995 
2126.756 1328052 1212209 1131509 1097227 1109185 1158285 1233109 1325261 
2130.614 1434884 1565386 1719810 1893324 2069405 2221943 2323866 2352881 
2134.471 2301714 2179883 2012179 1828635 1656909 1514078 1404168 1321040 
2138.329 1255538 1201477 1160544 1142239 1158817 1221579 1333603 1487080 
2142.186 1662730 1835290 1976729 2062214 2077428 2017438 1886668 1698653 
2146.043 1473249 1235701 1014123 838736 732946 709316 763449 872400 999145 
2150.383 1097824 1129283 1072812 930704 727171 501441 292837 126093 12060 
2154.723 -55694 -92102 -111282 -119994 -122313 -119332 -118968 -134834 
2158.580 -178158 -238499 -279329 -238863 -56887 303149 826419 1439406 
2162.438 2019036 2436374 2592242 2453002 2061714 1528343 993466 574858 
2166.295 346620 313892 424190 593106 745359 836578 863037 856929 864631 
2170.635 926454 1061552 1260523 1495326 1732883 1943079 2106694 2220378 
2174.492 2287458 2315105 2309442 2274367 2211819 2126904 2026893 1920247 
2178.349 1812630 1703510 1583542 1440536 1264610 1055872 833125 633852 
2182.207 502702 484126 601268 846902 1179914 1534993 1834125 2010981 2034349 
2186.546 1911528 1687377 1428568 1205198 1064508 1024784 1072746 1176359 
2190.404 1298241 1414606 1520662 1629038 1759464 1924408 2122642 2335991 
2194.261 2535081 2686650 2765838 2758202 2659345 2476161 2221078 1914390 
2198.119 1583177 1265242 1003695 841126 808261 911346 1124599 1391304 
2201.976 1639148 1798457 1819751 1691402 1440370 1127256 820975 591314 
2205.833 483661 511227 658839 888204 1148186 1384423 1554478 1631066 1606522 
2210.173 1494860 1326025 1141973 984234 890395 883555 966766 1124665 1327454 
2214.513 1535757 1707136 1806409 1809503 1709930 1519564 1268997 1001404 
2218.370 760661 585873 499219 500247 569218 676029 788643 887075 968626 
2222.710 1045709 1137322 1257831 1406661 1564288 1700317 1778694 1773537 
2226.567 1677698 1505001 1284250 1054809 854439 708154 630766 622603 673208 
2230.907 764279 874027 979950 1062814 1111976 1127124 1119649 1107358 
2234.764 1109451 1138850 1195795 1268233 1336561 1383459 1399415 1387747 
2238.622 1362752 1341945 1337159 1350088 1370230 1384257 1380468 1359561 
2242.479 1333038 1321505 1344404 1409720 1510886 1630102 1744261 1834890 
2246.336 1894788 1929367 1949436 1964214 1973367 1964047 1918850 1820782 
2250.194 1664692 1462777 1242878 1039365 883688 795182 775033 808626 870375 
2254.533 934157 978422 991806 972644 927848 868217 805008 749243 708519 
2258.873 685288 677456 678784 679879 671815 651572 623300 599443 597818 
2263.213 636474 726308 866756 1044181 1235933 1416966 1566051 1673241 
2267.070 1739437 1775300 1792501 1800885 1804179 1799521 1780690 1742863 
2270.927 1685481 1612874 1534427 1460483 1400279 1360425 1343042 1347063 
2274.785 1368834 1401409 1434984 1458754 1461580 1435084 1378307 1299570 
2278.642 1214501 1145163 1112407 1128253 1193170 1293057 1404301 1499116 
2282.500 1554878 1559633 1514311 1432491 1333869 1241748 1174864 1145196 
2286.357 1156824 1205497 1280063 1364314 1441400 1494594 1512216 1491735 
2290.215 1439472 1370662 1304356 1259825 1248161 1270492 1316420 1369300 
2294.072 1409919 1424645 1408423 1365377 1305818 1240818 1178751 1122871 
2297.929 1071317 1020699 970187 921938 882493 859087 856231 873363 904240 
2302.269 937843 962848 971349 960988 935718 905801 884751 885049 917057 
2306.609 985795 1088690 1216130 1351152 1473416 1561329 1598275 1576459 
2310.466 1499548 1382828 1249756 1127722 1038767 997053 1004791 1053813 
2314.323 1128519 1210381 1282888 1332107 1349756 1331974 1281492 1205763 
2318.181 1118918 1039830 987522 977426 1015319 1093307 1189948 1276939 
2322.038 1327454 1324164 1266903 1170345 1060223 961486 891823 857294 853509 
2326.378 870242 897201 931202 975533 1037937 1125596 1238359 1365444 1487047 
2330.718 1580017 1627009 1623284 1578654 1511717 1445921 1398883 1377676 
2334.575 1378939 1391504 1401841 1398883 1377942 1341081 1294951 1247131 
2338.432 1204268 1170677 1147388 1133469 1125031 1118154 1106494 1085767 
2342.290 1055108 1020234 993201 991440 1032158 1122440 1256004 1410318 
2346.147 1555276 1661000 1709232 1696225 1630002 1527445 1409055 1296314 
2350.005 1207524 1155262 1142704 1163202 1198088 1222609 1215498 1164299 
2353.862 1071816 956472 847699 774436 758171 803149 896305 1011002 1115530 
2358.202 1186559 1214003 1204135 1172837 1139615 1115862 1100947 1086032 
2362.059 1059626 1015784 958996 903444 864897 854804 873197 908358 943787 
2366.399 965338 967829 956671 946012 950628 979319 1032457 1102409 1178319 
2370.738 1250521 1314027 1366807 1408124 1435449 1443395 1424778 1376346 
2374.596 1300601 1209119 1119284 1050525 1018740 1030431 1082544 1163102 
2378.453 1257433 1349390 1427637 1486648 1524785 1543339 1544503 1529872 
2382.311 1500512 1457823 1404733 1345003 1285014 1231315 1190280 1166890 
2386.168 1163534 1179748 1212209 1255007 1300867 1342011 1371626 1384789 
2390.025 1379105 1356037 1319478 1275477 1231082 1193602 1169481 1162804 
2393.883 1174764 1203769 1244008 1287108 1323765 1345967 1349689 1335697 
2397.740 1309806 1280329 1254409 1235335 1221213 1205198 1178352 1134665 
2401.598 1072646 997219 917621 844147 784792 743268 719438 711274 718243 
2405.937 742240 786983 856032 948137 1056304 1167289 1264511 1333503 1365544 
2410.277 1360624 1325693 1274048 1219419 1172571 1141076 1128884 1137223 
2414.134 1166691 1217359 1287175 1371294 1461580 1546199 1612708 1650989 
2417.992 1655546 1627475 1573333 1503505 1428468 1356436 1292425 1237329 
2421.849 1190446 1150644 1118221 1094868 1084072 1088357 1108853 1143634 
2425.707 1186625 1228723 1260124 1271622 1257831 1218688 1160345 1093207 
2429.564 1030065 982872 959328 961420 985097 1021629 1061253 1094702 1116859 
2433.904 1127389 1130578 1132439 1139714 1156724 1183734 1217126 1250521 
2437.761 1277006 1290897 1289933 1275145 1250654 1220383 1187157 1151209 
2441.618 1110913 1064143 1011300 956837 909287 878974 874691 899957 950760 
2445.958 1016349 1081448 1131907 1158019 1156956 1132107 1090915 1041789 
2449.815 989913 938873 890528 847400 814402 798966 808029 846039 911877 
2454.155 997717 1090218 1175295 1239688 1275510 1281525 1262184 1225566 
2458.012 1181110 1137987 1102209 1077330 1063844 1058928 1057599 1053680 
2461.870 1041756 1019072 987422 953218 927151 920842 942891 996223 1076466 
2466.209 1171143 1263215 1335697 1374352 1372324 1330711 1258961 1171707 
2470.067 1085368 1015385 971781 957435 968294 994496 1023157 1042055 1043915 
2474.406 1027375 998083 965405 940400 931036 939371 961686 989813 1014389 
2478.746 1027840 1028205 1019072 1008511 1006153 1019869 1052783 1102309 
2482.604 1159946 1214435 1255671 1276740 1277139 1263447 1247630 1242346 
2486.461 1258928 1302462 1370430 1453468 1537487 1608884 1656676 1676667 
2490.318 1670380 1645501 1610779 1574397 1541643 1513613 1487778 1459685 
2494.176 1425277 1381598 1328617 1269296 1208886 1153568 1108654 1077197 
2498.033 1058031 1046805 1036442 1020367 994994 961187 924661 894080 877911 
2502.373 880534 901186 934722 973010 1009275 1040561 1068062 1095466 1126492 
2506.712 1161940 1198918 1232976 1260224 1280129 1297377 1319810 1354376 
2510.570 1403437 1462245 1519531 1560929 1573965 1553448 1503438 1436181 
2514.427 1367272 1312498 1281060 1274912 1288770 1312797 1335996 1349290 
2518.285 1347928 1331874 1304655 1272619 1243177 1222908 1216196 1224038 
2522.142 1243210 1268266 1291495 1306184 1308278 1297011 1275178 1247630 
2526.000 1220216 1197589 1183070 1178983 1185562 1202307 1227427 1257499 
2529.857 1287440 1312033 1326623 1328651 1319843 1304655 1290298 1283652 
2533.714 1290066 1310936 1345235 1388811 1437045 1485418 1529506 1565419 
2537.572 1588963 1595947 1583177 1549491 1496888 1430031 1356536 1284017 
2541.429 1219220 1167554 1131642 1112673 1110713 1124400 1150478 1183203 
2545.287 1215365 1238193 1244174 1229520 1194699 1144664 1087162 1031128 
2549.144 983304 949034 931667 933327 956074 1000839 1066435 1147787 1236099 
2553.484 1320176 1388578 1434120 1454798 1454465 1440170 1418761 1393731 
2557.341 1364413 1327155 1278368 1217791 1150279 1085302 1034184 1007747 
2561.198 1012496 1050359 1118553 1210979 1319012 1431992 1539083 1628206 
2565.056 1689706 1717149 1710728 1676899 1627009 1574198 1528875 1494794 
2568.913 1469526 1446819 1419460 1384324 1344006 1305619 1278069 1267834 
2572.771 1276407 1299903 1331575 1363882 1392202 1415005 1433422 1449246 
2576.628 1463375 1475444 1484287 1489873 1493597 1498251 1506796 1521227 
2580.486 1541377 1565153 1589894 1613041 1632563 1646865 1653384 1648395 
2584.343 1628639 1592255 1542208 1486781 1438840 1410783 1411182 1439971 
2588.200 1487479 1537753 1573566 1583409 1564687 1524785 1476308 1433555 
2592.058 1405631 1394794 1396789 1405033 1413177 1418994 1424446 1433688 
2595.915 1451440 1480364 1521127 1572435 1632929 1700683 1773171 1845971 
2599.773 1911794 1961751 1987547 1983286 1949170 1891161 1820184 1747687 
2603.630 1683951 1634858 1602132 1584374 1580217 1588897 1610646 1645235 
2607.488 1689772 1737142 1777396 1798224 1789906 1747621 1674272 1578953 
2611.345 1475843 1381465 1309408 1269296 1265076 1294120 1349224 1418961 
2615.202 1491801 1556407 1604893 1633993 1644570 1642042 1633561 1626909 
2619.060 1628240 1641077 1666222 1702778 1747953 1798290 1849798 1897617 
2622.917 1936689 1962716 1972468 1965013 1942513 1909631 1871960 1835190 
2626.775 1803314 1778527 1761161 1750914 1747987 1752977 1766850 1789507 
2630.632 1818653 1850496 1878915 1898316 1905172 1899281 1883906 1865138 
2634.490 1849997 1844806 1853158 1876153 1911728 1956359 2004756 2051394 
2638.347 2091012 2118480 2130301 2124873 2103597 2070071 2031120 1994503 
2642.204 1966743 1952930 1954162 1968008 1989278 2011913 2030321 2041274 
2646.062 2044070 2040941 2035581 2031686 2032419 2038910 2050695 2064944 
2649.919 2079093 2090080 2096472 2098037 2095873 2092244 2089081 2087649 
2653.777 2088082 2089447 2090046 2088748 2085052 2080025 2075730 2074565 
2657.634 2078693 2089114 2105495 2126105 2149413 2174022 2199364 2225973 
2661.491 2254882 2286192 2319435 2352082 2380733 2402056 2413484 2414283 
2665.349 2405954 2391561 2374269 2357479 2342621 2330128 2319235 2309275 
2669.206 2300015 2292054 2286658 2284859 2286958 2292587 2300348 2308876 
2673.064 2317437 2325898 2334826 2345053 2356446 2368273 2378900 2386996 
2676.921 2391527 2393293 2394159 2396058 2400323 2406454 2412018 2413017 
2680.779 2405854 2387996 2359910 2324432 2285959 2249620 2219579 2198132 
2684.636 2185877 2181881 2184545 2191904 2202395 2213984 2224241 2230636 
2688.493 2230603 2222243 2205592 2182447 2156240 2131399 2112254 2101200 
2692.351 2098603 2103131 2111322 2119712 2125240 2126705 2124341 2119879 
2696.208 2115717 2114318 2116915 2123575 2132332 2140656 2145218 2143353 
2700.066 2133730 2116549 2093842 2068406 2043937 2023430 2009416 2003191 
2703.923 2005055 2014243 2029189 2047632 2066641 2083188 2094874 2100035 
2707.781 2099102 2093542 2086883 2082788 2084453 2093243 2108958 2129002 
2711.638 2149280 2166030 2175953 2177052 2169659 2155341 2136893 2117781 
2715.495 2101533 2090446 2086118 2088249 2095307 2104763 2113952 2121111 
2719.353 2126305 2131166 2138392 2151045 2170659 2196467 2225374 2253450 
2723.210 2276366 2291421 2298283 2298749 2295785 2292087 2289123 2287124 
2727.068 2285625 2283893 2282528 2282961 2287024 2295718 2308276 2321734 
2730.925 2332327 2336325 2331494 2318602 2300182 2280263 2262310 2248055 
2734.782 2237697 2229970 2223442 2217714 2213817 2213185 2217214 2225441 
2738.640 2235265 2243092 2244524 2237031 2220412 2197532 2172923 2152044 
2742.497 2139591 2138059 2148182 2169127 2198565 2233833 2271802 2309176 
2746.355 2342254 2367406 2381832 2383898 2373870 2353914 2327763 2299482 
2750.212 2272868 2250753 2234533 2224974 2222210 2226207 2236964 2253917 
2754.070 2276166 2302447 2330595 2358412 2383764 2404554 2419048 2425845 
2757.927 2424046 2413717 2396625 2376235 2357679 2346851 2348484 2364874 
2761.784 2394726 2433209 2472828 2506153 2527449 2534314 2528248 2513718 
2765.642 2496455 2481659 2472928 2471329 2475927 2484092 2492790 2499388 
2769.499 2501654 2498921 2491990 2483825 2478560 2481426 2496722 2526415 
2773.357 2569243 2620542 2673081 2719424 2753968 2774608 2782512 2781445 
2777.214 2775942 2769240 2762771 2756268 2748799 2740930 2734828 2733594 
2781.072 2740930 2758836 2786914 2822463 2861351 2899876 2935702 2968361 
2784.929 2998788 3028082 3056944 3085308 3112572 3138937 3165204 3193241 
2788.786 3224484 3258701 3293288 3324839 3348946 3363906 3371452 3377329 
2792.644 3388817 3412861 3452770 3506612 3567743 3626811 3675361 3708645 
2796.501 3727025 3735547 3742933 3757705 3785981 3830872 3891581 3964336 
2800.359 4043557 4123596 4199099 4266351 4323641 4371131 4411095 4446644 
2804.216 4480924 4515608 4550931 4585621 4618305 4649182 4681568 4721259 
2808.073 4775594 4851244 4950937 5072173 5207930 5348460 5483900 5608173 
2811.931 5719387 5819581 5912812 6002334 6089455 6173535 6253160 6328161 
2815.788 6401628 6479243 6567368 6671022 6791764 6926545 7069282 7213379 
2819.646 7354559 7493189 7633381 7781849 7945417 8128358 8331235 8551307 
2823.503 8784203 9025343 9272099 9523738 9780709 10045053 10318652 10603594 
2827.361 10902211 11217184 11551441 11906931 12283983 12680396 13092028 
2830.736 13514098 13942841 14377692 14821962 15282783 15768385 16286487 
2834.111 16842266 17437320 18070630 18741432 19450658 20204190 21012514 
2837.486 21889874 22852926 23916764 25093394 26391474 27815376 29367032 
2840.862 31047122 32856982 34798500 36873376 39082328 41421932 43883684 
2844.237 46452352 49103260 51807148 54528500 57228336 59869836 62415352 
2847.612 64828524 67074448 69115136 70910824 72420984 73604976 74428400 
2850.987 74866496 74907720 74555088 73826936 72754560 71376664 69737680 
2854.363 67883784 65857308 63699796 61448920 59139368 56805892 54480420 
2857.738 52192396 49967816 47825184 45777188 43830244 41986104 40244412 
2861.113 38605052 37068884 35638720 34318340 33111480 32021086 31048228 
2864.488 30191720 29448154 28811534 28273366 27823218 27450616 27144496 
2867.864 26894740 26692906 26530718 26399256 26287972 26182554 26066890 
2871.239 25923962 25738188 25499888 25207044 24866080 24489834 24096436 
2874.614 23704690 23330008 22984750 22676350 22407904 22181224 21996590 
2877.989 21854506 21755944 21702300 21694672 21733476 21818340 21948108 
2881.365 22120518 22333424 22583254 22866860 23180884 23522170 23888408 
2884.740 24278112 24690996 25127026 25587706 26074244 26587956 27129752 
2888.115 27699452 28295716 28915252 29553442 30204186 30860888 31517978 
2891.490 32171246 32818676 33461198 34101916 34744656 35393888 36053520 
2894.865 36726376 37414876 38120700 38845036 39588800 40351840 41133160 
2898.241 41930960 42742660 43566092 44399976 45244548 46100672 46970340 
2901.616 47855072 48755436 49671340 50602288 51547956 52508956 53487836 
2904.991 54488832 55517400 56580236 57684612 58838124 60047440 61317980 
2908.366 62651800 64048664 65503052 67007244 68550504 70120800 71707216 
2911.742 73298248 74883864 76453912 77997344 79503656 80962632 82364832 
2915.117 83702232 84966184 86144368 87219296 88165040 88948224 89534896 
2918.492 89891952 89996296 89838408 89422688 88764952 87887840 86817528 
2921.867 85577352 84188368 82668904 81034104 79299336 77479584 75589936 
2925.243 73647816 71671576 69679480 67690672 65721444 63785136 61891384 
2928.618 60045688 58251264 56509660 54821544 53186512 51601948 50063772 
2931.993 48564640 47097176 45655928 44239184 42850820 41499612 40197448 
2935.368 38954624 37778160 36669048 35622856 34630460 33681992 32769076 
2938.744 31886138 31031892 30208412 29420000 28672264 27970410 27319158 
2942.119 26721728 26179352 25690800 25252766 24859904 24505400 24183482 
2945.494 23890016 23623444 23385882 23181442 23015390 22892008 22813568 
2948.869 22778264 22781512 22815942 22873392 22945032 23022656 23098828 
2952.245 23166030 23216954 23244008 23240164 23199968 23119654 22998828 
2955.620 22840004 22647306 22425698 22179166 21909914 21618084 21302858 
2958.995 20963310 20599704 20213808 19808898 19388116 18953448 18504830 
2962.370 18040684 17558678 17058320 16541569 16013915 15483262 14957749 
2965.746 14444689 13948384 13470724 13011855 12571956 12152163 11754801 
2969.121 11382971 11038206 10719593 10423545 10143775 9873336 9606826 
2972.496 9340886 9075616 8813653 8559045 8314719 8083088 7864232 7657088 
2976.354 7459614 7270317 7088613 6914728 6749965 6595391 6452406 6321740 
2980.211 6202674 6093957 5993398 5898134 5805108 5712739 5619921 5527490 
2984.068 5437396 5352787 5276747 5211955 5159812 5120550 5093159 5076263 
2987.926 5068620 5068922 5076532 5091148 5112672 5141539 5177986 5223692 
2991.783 5281141 5353424 5444643 5558131 5696188 5858906 6044632 6249496 
2995.641 6468784 6698075 6933851 7173493 7415998 7660595 7906814 8154084 
2999.498 8401597 8648000 8892005 9131818 9365194 9588975 9798941 9990971 
3003.355 10161344 10308201 10431893 10535184 10621623 10694291 10753964 
3006.731 10798120 10821220 10815784 10774785 10692798 10568182 10401960 
3010.106 10198350 9962729 9700264 9416490 9116117 8804591 8487815 8171945 
3013.963 7862410 7563650 7277359 7003144 6739499 6484625 6237530 5999008 
3017.821 5770287 5552358 5345105 5146434 4953048 4761524 4569883 4377758 
3021.678 4187557 4002289 3825022 3657518 3500599 3353821 3217541 3092750 
3025.536 2981572 2886267 2808089 2746432 2698052 2657778 2620242 2580976 
3029.393 2536780 2486791 2431909 2373936 2314605 2256082 2201329 2152877 
3033.250 2114485 2089447 2079825 2084952 2101799 2123674 2142987 2152077 
3037.108 2145751 2122010 2083188 2035215 1985217 1940682 1907068 1886036 
3040.965 1875554 1870229 1863407 1848600 1822579 1785947 1744527 1706737 
3044.823 1682288 1678862 1699485 1741932 1798224 1858483 1911428 1948803 
3048.680 1966444 1964946 1948337 1922378 1892858 1863607 1836587 1811898 
3052.538 1788475 1765386 1742298 1719178 1697223 1677398 1660601 1646399 
3056.395 1634060 1621654 1606788 1588065 1565219 1540014 1515907 1497819 
3060.252 1490638 1497886 1521094 1558269 1605458 1656178 1703776 1741899 
3064.110 1765785 1773005 1763423 1739703 1706071 1668551 1633794 1607221 
3067.967 1593519 1594350 1609216 1635091 1668118 1704076 1738971 1770177 
3071.825 1794963 1810734 1815026 1804412 1776698 1731386 1670180 1597576 
3075.682 1519631 1443062 1373022 1312964 1263913 1225167 1195961 1176259 
3079.540 1166624 1168219 1181974 1206859 1240220 1277504 1313263 1342344 
3083.397 1361754 1370197 1369100 1360890 1349324 1337624 1328451 1323399 
3087.254 1322934 1326457 1332705 1339884 1345601 1347728 1344105 1333337 
3091.112 1314758 1289069 1258529 1227161 1199815 1182040 1178551 1191210 
3094.969 1218921 1256868 1297311 1331476 1351916 1354043 1337026 1304256 
3098.827 1261620 1216130 1174199 1140777 1119084 1110049 1113205 1126526 
3102.684 1147089 1170910 1193735 1211744 1222409 1225134 1221546 1214933 
3106.542 1208288 1204567 1204367 1206162 1207491 1205995 1200513 1191808 
3110.399 1182306 1174731 1171707 1174266 1181741 1192207 1203337 1212641 
3114.256 1218389 1219319 1214933 1204866 1189349 1169448 1146591 1123237 
3118.114 1101877 1085003 1074174 1070553 1073410 1081448 1092875 1104900 
3121.971 1114600 1119450 1117988 1109816 1097260 1084172 1075370 1075104 
3125.829 1085302 1104169 1126958 1146159 1154764 1148651 1128187 1098057 
3129.686 1066634 1043251 1034848 1044679 1071417 1109982 1152571 1191376 
3133.543 1219884 1233873 1231780 1214800 1186060 1150511 1114301 1083508 
3137.401 1062947 1055208 1059028 1070255 1082013 1087859 1083142 1067498 
3141.258 1044247 1020467 1004592 1002533 1016880 1044779 1079256 1110049 
3145.116 1127024 1123702 1097924 1053614 999975 949001 912541 899625 913969 
3149.455 954081 1013260 1081913 1150910 1212774 1263447 1302528 1331343 
3153.313 1351750 1364580 1369034 1362951 1344205 1312133 1268100 1216694 
3157.170 1163900 1115962 1078127 1053448 1041490 1039464 1043251 1047502 
3161.028 1048000 1041524 1026246 1002101 970386 933527 894910 858954 830337 
3165.367 813871 813506 830635 864498 910649 961785 1009573 1045742 1064973 
3169.707 1065405 1049894 1024153 995226 969290 950096 937777 930306 924628 
3174.046 918485 911612 906166 906133 915297 936050 967929 1007282 1048200 
3178.386 1083109 1105066 1109318 1094038 1061187 1015485 964707 916160 
3182.243 876915 851152 839632 839798 846703 854837 859153 856729 846736 
3186.583 830038 808759 784991 761823 741941 728665 725744 735236 757242 
3190.923 788244 822137 850422 866059 865096 848662 822436 795813 777987 
3195.262 775033 788709 816394 852513 891192 928214 961221 989647 1013227 
3199.602 1030663 1039365 1036841 1021264 993334 956671 916459 878409 846272 
3203.941 821871 804078 790468 777855 763449 745625 723056 695377 662423 
3208.281 625391 586702 550008 520018 501640 498091 510597 537932 577213 
3212.621 625092 677722 731519 783431 829042 863469 882559 882427 862207 
3216.960 824029 773639 718210 664879 619484 583949 558004 539293 525558 
3221.300 515606 510696 512455 523833 546392 580233 622736 670089 715854 
3225.639 753558 777323 782634 768494 736929 694414 649880 612483 590120 
3229.979 586802 601965 630998 667169 703176 733311 753558 761856 757109 
3234.319 738589 706329 661892 609099 554951 508009 476629 466446 478586 
3238.658 508507 547421 585807 614773 629771 629870 618589 600837 581792 
3242.998 565236 553525 547155 545961 549610 556710 566132 575687 582290 
3247.337 583385 575787 557738 528544 489101 442166 392650 346985 312831 
3251.677 296816 303713 333423 381540 438319 492286 533321 554852 556378 
3256.017 543108 523070 503266 488172 477923 468934 457258 440508 420143 
3260.356 401007 389565 389963 403461 426876 453643 476364 489997 492551 
3264.696 485552 472615 458319 445715 436826 432083 431453 435566 444820 
3269.035 459712 479316 501010 520814 533719 534947 521876 493812 452880 
3273.375 403594 352026 305271 269463 249803 248675 265285 295656 333721 
3277.715 372122 404390 426511 437622 438883 432913 422034 406844 386282 
3282.054 359023 324403 284051 242343 204253 174982 157017 149195 147073 
3286.394 144621 136964 122082 102230 83008 71774 74458 93249 125264 163911 
3291.216 198982 220795 223215 204485 168486 123209 79031 44567 25248 21835 
3296.037 30616 45528 59943 69752 74657 78004 84466 99015 123010 153702 
3300.859 184463 207104 214629 203126 174286 134611 93182 59347 39563 35918 
3305.681 45992 63853 82180 95171 99479 95105 84930 73298 63622 57623 54376 
3310.985 50963 43374 28595 5434 -24783 -58543 -91374 -119001 -138875 -150369 
3315.807 -153847 -150203 -139869 -122843 -98926 -69277 -36843 -6328 16169 
3320.146 25944 20775 2683 -22431 -45722 -59073 -56721 -37472 -4605 35454 
3324.968 74657 106273 125861 131562 124403 106505 81451 52852 24453 -894 
3329.790 -21337 -36744 -49168 -61923 -79216 -104293 -138213 -179416 -223862 
3334.129 -266547 -302805 -330287 -348496 -358958 -363692 -364222 -360746 
3337.987 -353263 -340683 -323102 -301348 -277673 -254527 -234426 -219291 
3341.844 -210747 -209687 -216675 -231048 -250719 -272342 -290753 -300852 
3345.702 -298832 -284130 -260487 -234194 -213363 -205647 -214953 -241413 
3349.559 -281183 -328631 -377199 -421790 -458928 -486334 -502154 -505662 
3353.417 -495799 -473161 -440260 -402027 -364785 -334591 -315851 -309626 
3357.274 -313533 -322738 -332141 -337272 -336114 -328995 -318268 -307673 
3361.131 -300885 -301481 -311547 -331876 -361010 -395970 -431886 -463165 
3364.989 -485539 -496064 -495336 -485804 -472267 -458134 -445722 -435428 
3368.846 -426589 -418777 -413580 -413680 -423180 -444596 -477530 -518337 
3372.704 -561159 -600305 -632796 -659760 -685962 -717487 -758206 -806826 
3376.561 -856663 -897270 -917307 -908975 -870651 -806958 -727047 -642986 
3380.418 -565925 -504007 -463165 -446814 -456082 -490471 -547360 -620720 
3384.276 -700981 -776762 -836491 -871444 -878819 -862020 -829215 -791281 
3388.133 -758835 -739650 -737235 -751392 -778581 -814598 -854216 -892508 
3391.991 -925474 -949642 -963032 -965346 -958338 -945510 -931326 -920250 
3395.848 -914893 -915753 -920547 -925870 -927490 -922531 -910066 -892144 
3399.706 -872106 -855373 -846412 -849123 -864864 -892244 -927953 -965809 
3403.563 -999298 -1022372 -1030999 -1023760 -1002505 -972025 -938071 -907288 
3407.420 -884903 -873759 -874388 -885366 -904511 -928813 -956684 -986934 
3411.278 -1019893 -1056055 -1095420 -1136004 -1174304 -1204605 -1220663 
3414.653 -1217921 -1195023 -1154940 -1105269 -1056617 -1019331 -1000587 
3418.028 -1002505 -1021083 -1047428 -1071028 -1083389 -1080282 -1063128 
3421.404 -1037247 -1010240 -987860 -973512 -967165 -967462 -972785 -982207 
3425.261 -996356 -1015628 -1038999 -1063690 -1084513 -1096081 -1093999 
3428.636 -1077341 -1047957 -1011133 -974140 -943592 -925374 -923986 -941542 
3432.494 -978736 -1034470 -1104740 -1182268 -1257106 -1318190 -1355285 
3435.869 -1362320 -1338868 -1291233 -1229353 -1165680 -1110689 -1070499 
3439.244 -1046668 -1036850 -1037511 -1045147 -1057873 -1074961 -1096015 
3442.619 -1119249 -1141457 -1158311 -1165151 -1159137 -1139243 -1106855 
3445.995 -1065673 -1020091 -974074 -931094 -893070 -860929 -834573 -813142 
3449.852 -795217 -779077 -763002 -746001 -728536 -712261 -700385 -695555 
3453.709 -698863 -709151 -722185 -732737 -735218 -726485 -706373 -677790 
3457.567 -645005 -612481 -583330 -558347 -537101 -518966 -503444 -492026 
3461.424 -486433 -487889 -495998 -508243 -520058 -526147 -522904 -508574 
3465.282 -484149 -453136 -419771 -387892 -360448 -338299 -321215 -308037 
3469.139 -297541 -288104 -278766 -268203 -255454 -239791 -221179 -200315 
3472.997 -179284 -160471 -146659 -140333 -142718 -153847 -171534 -192532 
3476.854 -212072 -223994 -222835 -203097 -161399 -97370 -14644 79528 174750 
3481.194 258754 321618 356403 361875 342077 304973 260345 216982 181247 
3485.533 155791 139980 129971 120525 106638 85427 56696 23095 -10669 -40156 
3490.355 -61923 -74942 -80508 -80806 -78056 -72723 -63678 -47842 -22563 
3494.695 13485 58949 108858 156652 196297 223049 236077 237569 231701 223215 
3499.516 215026 208695 204120 200805 198882 199645 205612 219137 241050 
3503.856 270159 302751 334285 359885 376267 382336 378854 368407 354612 
3508.196 340950 330704 325365 325000 327819 331135 332395 330206 324801 
3512.535 318137 312931 311936 316147 324536 333920 339590 337667 325597 
3516.875 303945 276193 247117 221292 202396 191855 188905 192452 201766 
3521.214 217015 239426 270126 308852 353584 400145 443327 478288 501773 
3525.554 512554 510464 497195 475004 447241 417358 390494 371193 364096 
3529.894 371889 395303 431951 477724 526587 572701 611222 639161 655089 
3534.233 660333 657180 648917 639460 631994 627946 627050 627183 625955 
3538.573 621641 615237 609630 610625 624727 655654 703408 762254 822203 
3542.912 870673 896869 895375 868947 827648 785688 756910 748878 761291 
3547.252 786983 816460 841060 856231 861809 859917 854206 846803 839200 
3551.592 831897 825689 821871 822568 829407 842421 859319 875919 887440 
3555.931 889698 881132 863569 840894 819714 806236 805340 818884 846139 
3560.271 882792 922569 958797 984666 995260 988917 967464 936050 902946 
3564.610 879073 873695 893782 938773 999743 1060589 1104501 1122240 1114633 
3568.950 1090184 1059360 1031859 1012895 1003529 1001503 1002466 1000972 
3572.807 992968 977028 954247 928811 905668 889432 882460 884253 891159 
3577.147 898330 901352 897865 888204 876384 867719 866523 874724 890793 
3581.487 909719 924960 931202 925823 910283 889499 870806 862008 869511 
3585.826 896272 940533 995791 1051787 1098356 1130612 1148750 1156857 
3589.684 1159980 1161940 1163900 1164996 1162804 1153601 1134000 1101877 
3593.541 1057367 1004293 949565 901020 866523 851119 856065 879306 916493 
3597.881 961287 1006584 1045808 1073310 1085833 1084072 1072513 1058795 
3601.738 1051654 1058496 1082677 1122971 1173867 1227992 1277139 1315622 
3605.595 1340217 1352548 1356902 1358630 1361389 1366142 1370529 1372225 
3609.453 1371261 1371227 1378108 1398019 1433887 1482824 1537287 1584773 
3613.310 1613473 1617896 1599705 1565984 1524120 1478270 1426972 1365078 
3617.168 1286344 1188120 1076101 965803 876749 826087 819846 851384 906498 
3621.507 970220 1031626 1084704 1128187 1162936 1189648 1208853 1219851 
3625.365 1221811 1215299 1202773 1188652 1178817 1178718 1189416 1206893 
3629.222 1221811 1227626 1224735 1218389 1214302 1216761 1227227 1244008 
3633.080 1263281 1280827 1293489 1301132 1305752 1310305 1316287 1322735 
3636.937 1325792 1320142 1302428 1272253 1234039 1195662 1167222 1156159 
3640.794 1166392 1195695 1236465 1278534 1311136 1327454 1325261 1307746 
3644.652 1279398 1246334 1213405 1182472 1152637 1121078 1083740 1039996 
3648.509 993666 952354 924262 912176 913139 918983 923698 924329 922868 
3652.849 924462 936449 966169 1019570 1098921 1199716 1308876 1407459 
3656.706 1479200 1517137 1524552 1511152 1488410 1465802 1450110 1444259 
3660.564 1447816 1456959 1464938 1464639 1449545 1416235 1366341 1305287 
3664.421 1242014 1185396 1142571 1115763 1103372 1099319 1095566 1085534 
3668.279 1065372 1037106 1009573 994861 1000673 1026611 1064807 1106594 
3672.136 1146292 1183004 1218622 1255306 1294220 1330645 1355539 1359627 
3675.993 1341446 1309740 1275111 1244573 1219618 1197623 1174332 1146392 
3679.851 1113969 1080983 1054643 1042454 1049894 1077894 1122739 1176624 
3683.708 1230716 1276972 1311900 1336228 1354010 1370496 1388811 1408955 
3687.566 1426873 1436314 1432391 1415703 1392567 1370662 1355473 1346931 
3691.423 1341446 1335032 1325626 1314193 1304888 1302462 1309640 1326656 
3695.281 1348958 1369034 1378041 1369366 1341480 1298208 1247597 1199284 
3699.138 1162604 1143734 1145395 1165328 1197390 1231547 1258064 1270725 
3702.995 1267335 1249491 1221379 1187721 1153534 1123635 1102575 1094071 
3706.853 1100349 1121676 1155661 1198021 1242812 1283818 1315922 1336461 
3710.710 1345468 1345767 1340682 1332539 1321405 1306948 1288737 1267269 
3714.568 1244639 1223606 1207158 1197855 1197456 1205696 1221080 1240087 
3718.425 1257865 1270359 1273849 1266438 1248394 1222310 1192174 1164631 
3722.282 1146691 1143502 1158817 1192904 1242812 1303492 1368535 1430363 
3726.140 1481195 1515608 1530105 1524452 1500446 1460283 1406628 1341446 
3729.997 1267634 1188984 1110746 1039597 981677 940965 919082 916426 933659 
3734.337 972578 1034250 1113371 1197423 1269229 1313894 1325593 1307846 
3738.194 1269695 1222742 1177953 1144797 1128253 1129482 1145395 1172538 
3742.052 1207192 1248062 1295516 1349290 1404168 1449878 1475011 1473981 
3745.909 1449711 1408822 1357467 1302262 1249657 1206494 1180545 1177721 
3749.767 1198320 1235834 1277371 1309009 1321571 1313562 1290664 1261919 
3753.624 1235834 1218356 1212009 1215997 1227128 1240618 1252548 1260124 
3757.481 1264776 1270957 1285048 1310936 1347196 1386218 1417066 1430297 
3761.339 1422518 1396855 1361389 1326490 1301332 1292891 1303293 1328318 
3765.196 1358796 1384324 1397587 1396124 1382429 1360790 1335298 1308544 
3769.054 1282655 1258961 1240253 1229155 1228058 1237528 1256103 1279764 
3772.911 1303658 1322768 1332971 1332439 1322037 1304522 1284582 1267368 
3776.769 1257433 1258363 1272553 1299537 1335796 1374784 1407559 1426474 
3780.626 1428003 1413243 1386717 1355207 1325759 1303824 1292857 1292591 
3784.483 1299537 1308211 1313030 1311236 1302296 1288404 1271323 1252249 
3788.341 1230949 1205995 1176026 1141807 1105764 1072912 1049296 1040394 
3792.198 1049229 1076366 1119251 1173069 1232843 1291661 1342743 1379637 
3796.056 1398085 1397287 1382063 1360857 1342211 1333968 1341081 1364613 
3799.913 1402041 1445090 1481927 1500712 1498152 1481062 1462178 1451673 
3803.771 1453601 1466866 1486781 1505500 1514211 1506264 1480597 1443661 
3807.628 1406628 1379105 1364713 1361289 1363383 1364912 1361189 1350188 
3811.485 1332439 1310936 1289102 1269562 1252847 1237362 1220715 1200513 
3815.343 1177953 1157787 1147721 1153468 1176824 1214468 1261387 1310338 
3819.200 1352149 1377676 1377576 1348626 1298673 1245304 1204234 1183435 
3823.058 1181741 1193569 1212873 1233973 1253545 1269628 1281990 1291129 
3826.915 1298241 1303725 1306616 1305353 1298241 1283187 1259593 1228125 
3830.772 1191409 1154000 1121211 1098688 1090118 1097957 1122041 1160312 
3834.630 1209252 1262849 1313861 1354675 1379138 1385022 1375881 1360724 
3838.487 1349955 1352481 1371261 1402573 1438940 1471554 1492998 1497620 
3842.345 1483722 1452570 1408589 1358730 1310704 1271522 1245304 1233574 
3846.202 1234737 1245071 1259293 1271788 1277903 1274746 1262251 1243543 
3850.060 1224569 1211611 1211411 1228291 1261752 1304522 1342377 1361289 
3853.917 1358564 1343407 1328351 1322203 1327321 1342277 1363782 1387914 
3857.774 1411149 1430264 1443661 1449279 1445988 1432524 1408157 1373188 
3861.632 1329581 1281857 1234405 1193303 1162737 1145628 1141641 1148252 
3865.489 1160677 1173800 1184332 1190512 1192473 1192473 1194466 1204035 
3869.347 1226197 1262517 1308178 1354741 1392966 1415637 1418895 1400711 
3873.204 1362585 1309806 1253146 1203869 1171043 1157754 1161043 1174664 
3877.062 1191243 1204035 1207258 1197689 1175063 1144465 1114567 1095067 
3880.919 1093240 1109883 1140910 1180080 1222443 1263846 1302129 1335564 
3884.776 1361056 1374717 1373521 1356503 1326723 1289999 1252780 1221612 
3888.634 1202274 1199649 1216229 1250687 1296845 1343972 1380634 1399448 
3892.491 1400113 1387515 1368768 1349756 1334434 1323931 1317749 1314260 
3896.349 1312498 1311335 1310305 1309640 1309906 1312232 1317882 1328052 
3900.206 1343175 1362818 1384889 1406263 1423715 1434353 1437311 1434120 
3904.063 1428103 1422684 1420091 1420357 1420756 1418529 1411348 1397653 
3907.921 1377543 1351850 1322037 1289733 1256502 1224303 1195762 1174099 
3911.778 1162604 1162936 1174797 1194931 1217891 1237395 1247364 1244473 
3915.636 1228656 1203570 1175428 1150744 1133901 1125828 1124865 1127987 
3919.493 1132937 1138053 1143734 1150445 1159382 1171242 1186492 1205231 
3923.351 1227360 1251916 1277271 1301299 1321505 1335730 1343939 1347063 
3927.208 1347063 1346133 1346631 1348326 1350420 1350587 1346066 1334899 
3931.065 1317982 1298141 1280927 1272154 1276042 1294619 1326224 1366873 
3934.923 1411016 1453036 1486881 1508592 1515608 1508991 1491768 1470058 
3938.780 1450310 1437145 1432524 1435117 1440436 1442298 1434951 1415338 
3942.638 1384290 1346532 1308344 1275942 1253378 1242645 1243875 1256602 
3946.495 1279332 1309474 1343873 1377044 1403171 1417532 1417365 1403304 
3950.353 1379238 1351019 1324097 1303193 1290863 1287440 1292425 1304389 
3954.210 1322203 1344205 1368402 1391836 1410650 1421720 1423416 1416933 
3958.067 1406130 1396523 1393498 1400246 1416002 1436380 1455430 1466999 
3961.925 1467065 1455529 1434884 1409321 1382928 1357899 1334766 1312930 
3965.782 1291561 1270891 1252182 1237495 1228656 1226430 1230849 1241050 
3969.640 1255705 1274148 1295881 1320342 1346698 1372856 1395958 1413410 
3973.497 1423116 1424679 1419859 1411980 1404567 1400578 1400911 1404800 
3977.354 1409819 1413842 1415238 1414207 1412346 1411914 1414939 1422185 
3981.212 1432291 1442796 1450443 1452870 1449645 1442497 1434884 1430696 
3985.069 1432757 1440935 1453169 1464805 1471088 1468495 1456427 1437345 
3988.927 1415637 1396988 1385653 1384091 1391171 1403703 1417598 1428967 
3992.784 1435017 1434519 1428369 1418363 1407326 1398451 1394994 1399149 
3996.642 1411216 1429665 1450509 1467597 1475477 1469326 1447550 1412113 
4000.499 1368568 
##END=
