##TITLE=mas_2a Sep 19 11:14:11 2026 (GMT+02:00)
##JCAMP-DX=5.01  $$ Nicolet v. 970
##DATATYPE=INFRARED SPECTRUM
##ORIGIN=Vojna akademija
##OWNER=Nicolet
##LONGDATE=2026/09/19
##TIME=11:14:39
##SPECTROMETER/DATA SYSTEM=Nicolet iS20
##DATA PROCESSING=
Ratio against background
%Transmittance->Absorbance
Truncated
ElementMultiply or ElementDivide
##COMMENTS=
Number of sample scans: 8
Collection length: 11,90 sec
Sample gain: 8,0
Background collected on: Sat Sep 19 11:13:02 2026 (GMT+02:00);
Number of background scans: 8
Background gain: 8,0
Sample spacing:  1,000
Number of scan points: 12415
Resolution points: 8286
Number of FFT points: 65536
Apodization: N-B strong;
Phase correction: Mertz;
Laser frequency: 15798,00 cm-1
Number of rejected sample scans: 0
Number of rejected background scans: 0
Bench serial number: BER2010005;
##RESOLUTION= 4,000
##XUNITS=1/CM
##YUNITS=ABSORBANCE
##FIRSTX=400.156891
##LASTX=4000.123047
##FIRSTY=0.016796
##MAXX=4000.123047
##MINX=400.156891
##MAXY=0.142538
##MINY=-0.001213
##XFACTOR=1.000000
##YFACTOR=1.000000E-009
##NPOINTS=7468
##DELTAX=0.482117
##ZPD=6100
##XYDATA=(X++(Y..Y))
400.157 16795530 19851350 22543746 24398488 25174916 24879060 23679846 
403.532 21819352 19548838 17100642 14725428 12665011 11125935 10234953 
406.907 9990259 10272475 10892359 11681852 12540784 13489420 14643788 
410.281 16159223 18125246 20492292 23028176 25369442 27110530 27920940 
413.656 27696698 26588274 24959594 23232614 21835344 21110528 21288450 
417.031 22485364 24637446 27412850 30126796 31963666 32351084 31265020 
420.406 29136442 26525294 23873250 21413814 19234728 17309650 15556062 
423.781 13884610 12254364 10706008 9364449 8390009 7933809 8092337 8872662 
427.638 10196247 11917046 13870927 15898624 17883108 19745368 21414440 
431.012 22814302 23855080 24449696 24551048 24174374 23401268 22354598 
434.387 21183024 20032540 19019112 18225510 17681312 17370688 17240762 
437.762 17228938 17280308 17354584 17430318 17496754 17544738 17557160 
441.137 17507034 17363652 17109430 16759539 16371600 16029764 15820853 
444.512 15788175 15912408 16111562 16275616 16299592 16136734 15825046 
447.886 15481615 15253714 15248978 15498199 15935607 16429236 16814608 
451.261 16967110 16837824 16473526 15982220 15485494 15060921 14719395 
454.636 14428110 14152629 13896721 13731580 13783496 14184021 14993143 
458.011 16130611 17379206 18469668 19205464 19492070 19341970 18839418 
461.386 18115330 17322686 16611896 16120296 15932171 16072294 16502503 
464.761 17139002 17864846 18545702 19062802 19325548 19296106 18990970 
468.135 18470292 17810262 17081514 16351473 15679507 15128367 14767693 
471.510 14649511 14782399 15101263 15474816 15728632 15717054 15377965 
474.885 14742429 13922723 13074817 12369646 11934007 11820781 11983188 
478.260 12293049 12574924 12670537 12497268 12065385 11484412 10921714 
481.635 10572494 10581661 10995044 11734239 12620767 13419256 13912903 
485.009 13993619 13688047 13149127 12576697 12154072 11970585 12004067 
488.384 12137682 12219328 12129845 11831473 11390284 10951344 10678705 
491.759 10672354 10929326 11322974 11657822 11721644 11376304 10595208 
495.134 9466877 8165057 6907962 5920806 5363891 5310590 5730869 6518023 
498.991 7513753 8549888 9486958 10214836 10682847 10906798 10970611 10996302 
502.848 11108735 11398788 11887589 12524652 13194689 13753399 14039748 
506.223 13925289 13352007 12355429 11071514 9700636 8471732 7563549 7077364 
510.079 7019711 7314828 7824354 8387949 8874725 9198721 9338889 9325516 
513.936 9217910 9078120 8959549 8905229 8945680 9102718 9381480 9761969 
517.793 10191227 10589130 10874929 10993379 10946723 10800227 10670826 
521.168 10676837 10894023 11325219 11892322 12455769 12854183 12970068 
524.543 12757813 12269292 11627872 10992598 10487761 10162497 9988937 
527.918 9893166 9800567 9668957 9502673 9342342 9242449 9242043 9353514 
531.775 9559810 9829002 10130038 10445300 10769656 11099999 11424266 
535.150 11715108 11931690 12037757 12010641 11852447 11588532 11258701 
538.524 10903672 10553719 10227082 9932591 9679190 9481777 9359946 9331746 
542.381 9401896 9555170 9757360 9966221 10149676 10296598 10422255 10557353 
546.238 10733755 10961606 11218816 11453351 11605956 11630016 11516326 
549.613 11299917 11055234 10869935 10808073 10893174 11095477 11348992 
552.988 11568693 11686175 11668169 11523641 11292877 11029336 10777944 
556.363 10558642 10369958 10197536 10030608 9872015 9743840 9678580 9711141 
560.220 9862761 10131869 10491156 10894736 11285226 11607419 11825752 
563.594 11928114 11931146 11874376 11814074 11804336 11882344 12058707 
566.969 12313058 12603506 12880088 13107395 13273016 13391200 13487403 
570.344 13585474 13690441 13787258 13852386 13875339 13873869 13902777 
573.719 14032767 14325294 14795769 15393584 15998445 16454736 16635753 
577.094 16482094 16036846 15423761 14817813 14377520 14206547 14331663 
580.469 14700338 15204950 15721211 16156679 16461309 16632518 16695283 
583.843 16685816 16634652 16560743 16475488 16386947 16304031 16238913 
587.218 16204517 16211947 16268151 16375214 16528627 16717251 16924872 
590.593 17127490 17298272 17413348 17458292 17433320 17355238 17250450 
593.968 17142966 17049086 16971416 16900516 16820396 16715083 16575268 
597.343 16399780 16195197 15973385 15750689 15545381 15376008 15258553 
600.717 15199768 15193043 15217132 15243487 15241600 15192871 15098999 
604.092 14983094 14881552 14829710 14848670 14934806 15062087 15190572 
607.467 15284155 15319096 15290882 15209823 15091829 14950616 14793370 
610.842 14624323 14452157 14291187 14161461 14078319 14043239 14038003 
614.217 14028934 13975243 13846980 13638809 13372133 13087554 12827221 
617.592 12619334 12466305 12350282 12243696 12127903 12003080 11889360 
620.966 11815776 11811043 11887759 12038370 12236233 12446494 12636629 
624.341 12782654 12875549 12917156 12919102 12896199 12865002 12840088 
627.716 12830771 12838791 12855241 12863876 12843466 12777979 12664943 
631.091 12521139 12378680 12279687 12263873 12353827 12550708 12831590 
634.466 13157904 13480739 13754698 13944962 14028113 13997896 13863127 
637.840 13650845 13401383 13166135 12997619 12934224 12991746 13154864 
641.215 13383511 13618911 13803847 13900587 13895079 13800187 13647665 
644.590 13477867 13325766 13217984 13168014 13177373 13239094 13337930 
647.965 13455105 13568757 13661923 13728605 13778878 13837950 13939727 
651.340 14116551 14383000 14729712 15121162 15507985 15837176 16070988 
654.715 16197260 16229179 16199600 16147910 16111974 16116101 16171811 
658.089 16278334 16426964 16604530 16796150 16986682 17162200 17312928 
661.464 17434976 17530456 17607706 17677930 17751894 17837398 17937354 
664.839 18051116 18177930 18316880 18469840 18642744 18842774 19074816 
668.214 19336080 19618302 19913332 20220400 20544536 20889076 21254280 
671.589 21633686 22016980 22390600 22742718 23067694 23370008 23662630 
674.963 23964764 24300362 24691314 25153076 25688830 26285190 26909230 
678.338 27512882 28048340 28475228 28779492 28980314 29128326 29286456 
681.713 29507514 29817932 30208236 30641308 31068940 31457700 31799282 
685.088 32115906 32444940 32824856 33277110 33799416 34368760 34953392 
688.463 35524324 36063168 36563572 37026160 37452256 37842072 38193708 
691.838 38505800 38778732 39010512 39193608 39314272 39354572 39303352 
695.212 39166336 38972672 38768552 38608600 38539436 38584956 38748412 
698.587 39015624 39368288 39790620 40273456 40808656 41379908 41958660 
701.962 42506212 42983476 43370496 43675192 43936108 44203928 44526428 
705.337 44925704 45392504 45891044 46378460 46825056 47224380 47594308 
708.712 47966512 48373296 48834404 49357176 49941536 50586616 51295924 
712.086 52075608 52927920 53845472 54810340 55799436 56792184 57781036 
715.461 58771580 59777200 60809624 61869492 62944824 64017832 65068900 
718.836 66082248 67043780 67928376 68693344 69279264 69618568 69664272 
722.211 69405040 68873120 68126936 67231896 66231692 65135188 63925616 
725.586 62581496 61102476 59524912 57916596 56356392 54912564 53617148 
728.961 52463228 51413176 50421320 49447244 48470052 47487584 46507556 
732.335 45537572 44579924 43632800 42693484 41762616 40844184 39941348 
735.710 39053432 38175436 37300908 36430336 35576536 34762316 34016764 
739.085 33361290 32798662 32308892 31854506 31390414 30877038 30295412 
742.460 29647122 28952370 28239172 27537982 26873980 26265300 25723000 
745.835 25249464 24836818 24464490 24101832 23713580 23268864 22754556 
749.209 22182096 21587406 21014984 20508548 20090178 19753414 19466842 
752.584 19187454 18879246 18526302 18140964 17757830 17423282 17176126 
755.959 17040470 17019518 17100228 17259484 17473262 17721588 17985562 
759.334 18247036 18486748 18683870 18822392 18893850 18899700 18848414 
762.709 18751292 18617496 18450204 18249112 18013674 17747370 17460636 
766.083 17168818 16888218 16631313 16402602 16197467 16004462 15811816 
769.458 15610017 15395541 15171494 14945437 14726318 14522831 14341835 
772.833 14187993 14063089 13966313 13893163 13835076 13779802 13714139 
776.208 13626843 13512731 13375105 13226080 13082637 12962182 12877699 
779.583 12830942 12810875 12793437 12748361 12643690 12454916 12173665 
782.958 11812030 11403346 10994399 10640299 10386214 10258124 10254934 
786.332 10348749 10489459 10617039 10681896 10653813 10532401 10343864 
789.707 10134007 9952592 9836663 9802635 9840527 9918522 9991954 10021453 
793.564 9979105 9858930 9677394 9468570 9277177 9143289 9098454 9155099 
797.421 9306762 9527261 9777320 10012535 10189158 10276139 10257649 10137703 
801.278 9936218 9689964 9444256 9242618 9122986 9106372 9191885 9357137 
805.135 9563129 9761088 9903844 9962356 9929607 9826020 9689083 9566347 
808.992 9497660 9503283 9581048 9709311 9859642 10008161 10147539 10287505 
812.849 10447743 10643253 10872483 11110332 11314472 11435118 11436920 
816.224 11312601 11089937 10824786 10584139 10429891 10396360 10486574 
819.598 10674731 10923107 11192194 11455189 11703126 11938502 12168042 
822.973 12393988 12608214 12793812 12929616 12996048 12982938 12891420 
826.348 12734644 12534099 12319875 12126199 11985742 11928965 11973650 
829.723 12120032 12347760 12620118 12890533 13114088 13263451 13333214 
833.098 13343567 13330515 13335709 13390721 13506920 13672831 13859330 
836.473 14029790 14149207 14196756 14170190 14086499 13974696 13872877 
839.847 13818145 13836103 13938051 14115524 14343204 14582654 14794706 
843.222 14949416 15032005 15048916 15022811 14986627 14969478 14991634 
846.597 15058760 15165044 15296271 15437734 15578832 15713070 15837589 
849.972 15951350 16052112 16136767 16201973 16244451 16261272 16248818 
853.347 16202489 16118163 15995970 15844358 15682047 15538754 15445562 
856.721 15426645 15490335 15624889 15800305 15977029 16120983 16209848 
860.096 16241148 16228594 16195094 16162284 16144093 16145330 16162731 
863.471 16190760 16225051 16263783 16306506 16351370 16393965 16426105 
866.846 16440110 16431335 16400401 16354604 16304959 16264815 16245311 
870.221 16253773 16291508 16354121 16430371 16505189 16564803 16598849 
873.596 16606458 16598333 16594099 16614685 16673384 16766496 16871992 
876.970 16951710 16963700 16877884 16686779 16410276 16087182 15767284 
880.345 15492328 15285563 15151834 15080955 15056564 15065243 15101538 
883.720 15165250 15257523 15376179 15511453 15648831 15773539 15873468 
887.095 15942929 15981497 15990196 15967919 15910517 15811266 15665010 
890.470 15471897 15239918 14984911 14730878 14506969 14342417 14265643 
893.844 14296186 14440270 14685635 15003879 15351533 15677616 15938152 
897.219 16101178 16153859 16104650 15976857 15800443 15603698 15411127 
900.594 15239884 15102259 15006314 14953805 14939607 14949518 14964505 
903.969 14965259 14940328 14892799 14841882 14815756 14840133 14928496 
907.344 15074505 15253474 15429975 15573886 15668858 15717536 15737806 
910.719 15753610 15784258 15836695 15905533 15977029 16036227 16070679 
914.093 16073635 16042726 15977820 15881130 15759245 15624614 15494319 
917.468 15387783 15319164 15290196 15288205 15290162 15271182 15213323 
920.843 15114781 14989061 14859471 14746577 14661540 14601638 14555586 
924.218 14510018 14458939 14407627 14369986 14360328 14386528 14445169 
927.593 14523345 14604619 14675592 14730672 14772560 14806979 14837184 
930.967 14862796 14880729 14890022 14897771 14919649 14975549 15084042 
934.342 15252342 15472583 15723513 15978919 16214801 16419016 16592963 
937.717 16747659 16895900 17044914 17192362 17326582 17432112 17495786 
941.092 17512586 17489786 17446424 17408658 17407382 17470156 17612364 
944.467 17833394 18113154 18415012 18690302 18895754 19002602 19008348 
947.841 18938670 18841838 18775752 18786512 18900980 19117680 19412752 
951.216 19746720 20079558 20382022 20637124 20841864 21001596 21124790 
954.591 21218686 21289180 21340826 21376604 21400168 21414998 21424882 
957.966 21435674 21454752 21489738 21547116 21626512 21718428 21802278 
961.341 21854018 21850708 21782316 21657788 21505510 21365364 21274392 
964.716 21258422 21320954 21445562 21601682 21758104 21890468 21985644 
968.090 22040196 22054208 22025940 21950514 21823498 21647756 21437866 
971.465 21222514 21036686 20913344 20873676 20919602 21032200 21176970 
974.840 21315944 21412666 21442706 21397454 21283300 21120336 20937648 
978.215 20771788 20656306 20618222 20671178 20810476 21013140 21240710 
981.590 21451548 21607254 21685790 21685546 21626094 21539702 21461678 
984.964 21422620 21437658 21504814 21606384 21716930 21808724 21859630 
988.339 21859804 21810746 21724036 21615578 21501436 21391850 21290260 
991.714 21195756 21105622 21021036 20948636 20899334 20886086 20918560 
995.089 20998222 21117414 21260474 21408626 21542626 21649532 21723896 
998.464 21768032 21790850 21806496 21832312 21886008 21983276 22133348 
1001.839 22334540 22572400 22820586 23047776 23221952 23322562 23344938 
1005.213 23302704 23221080 23132270 23066260 23042676 23072270 23156280 
1008.588 23289174 23461908 23662456 23876994 24088696 24281194 24439390 
1011.963 24554412 24624856 24657048 24662590 24653402 24640742 24634078 
1015.338 24642530 24677740 24752660 24879028 25062818 25299720 25574318 
1018.713 25862380 26140500 26391018 26608422 26797670 26969162 27130914 
1022.087 27283096 27419272 27531450 27617914 27687798 27759882 27855470 
1025.463 27988716 28158452 28346716 28523524 28660728 28738388 28753188 
1028.838 28716442 28648516 28568782 28490584 28419332 28353682 28290058 
1032.213 28224286 28152158 28068734 27967938 27844130 27696062 27530356 
1035.588 27360336 27205694 27082000 26995818 26939760 26896540 26843668 
1038.964 26764792 26657110 26532584 26413730 26322540 26273644 26266990 
1042.339 26289732 26320356 26339508 26335636 26309586 26272164 26242458 
1045.714 26241436 26286140 26388376 26551182 26768244 27023602 27295094 
1049.089 27557222 27784608 27960516 28079126 28147812 28184474 28214880 
1052.464 28266188 28362208 28522464 28759382 29077660 29472548 29929026 
1055.840 30423262 30923076 31396966 31818676 32173674 32460544 32688330 
1059.215 32868776 33008684 33108510 33164334 33175562 33152282 33116304 
1062.590 33096746 33119808 33196020 33316460 33455006 33582820 33678448 
1065.965 33740436 33787672 33850992 33958540 34124568 34345484 34605696 
1069.341 34887860 35183788 35497892 35844216 36235368 36672908 37143048 
1072.716 37621608 38085396 38521152 38933860 39342640 39774028 40249792 
1076.091 40781980 41373492 42024172 42737024 43520492 44384160 45330016 
1079.466 46343252 47390608 48421340 49384204 50239944 50970744 51582804 
1082.842 52102656 52569540 53023748 53507060 54056244 54697396 55443308 
1086.217 56286680 57198064 58128444 59024456 59842300 60561000 61189596 
1089.592 61759736 62310776 62870256 63446180 64026548 64591392 65123676 
1092.967 65618732 66080548 66511540 66900632 67218784 67424800 67484752 
1096.343 67386528 67150008 66817536 66441564 66060448 65685480 65301292 
1099.718 64878420 64390860 63829496 63208996 62561132 61926652 61341140 
1103.093 60832948 60420540 60113156 59911140 59804236 59771952 59781536 
1106.468 59798268 59798456 59779368 59766136 59807124 59958304 60257816 
1109.844 60713852 61296380 61949508 62607476 63221180 63772508 64275400 
1113.219 64762788 65269248 65814936 66398516 66997968 67579776 68110744 
1116.594 68557256 68887960 69073640 69082888 68892456 68494480 67903848 
1119.969 67156736 66303632 65399072 64484252 63586088 62714992 61871364 
1123.345 61054268 60267980 59523428 58840248 58241872 57753184 57400140 
1126.720 57204944 57185248 57351324 57704060 58234332 58925396 59761344 
1130.095 60730468 61833652 63084340 64504972 66115500 67924464 69918784 
1133.470 72065128 74313968 76607992 78898944 81149512 83337256 85450272 
1136.846 87483384 89435632 91308536 93107512 94837384 96495168 98063408 
1140.221 99509232 100787304 101855024 102691952 103308968 103748424 
1143.114 104066504 104319168 104541504 104745312 104929816 105095520 
1146.007 105256400 105442384 105685152 106004944 106398080 106838344 
1148.900 107288528 107720648 108130720 108539912 108980992 109477136 
1151.793 110027328 110604248 111165504 111674432 112119872 112518792 
1154.686 112903728 113300280 113707952 114092704 114401240 114577160 
1157.579 114588248 114436384 114152120 113777184 113346688 112880232 
1160.472 112380784 111846160 111276968 110679488 110060152 109416600 
1163.365 108733008 107984040 107149152 106225904 105239128 104231632 
1166.258 103249576 102322704 101450912 100604928 99740872 98823072 97835064 
1169.634 96786032 95700440 94603600 93507016 92405152 91281632 90122688 
1173.009 88927128 87710720 86497360 85311240 84165152 83057224 81975168 
1176.384 80905624 79841960 78787184 77751088 76743704 75769472 74825400 
1179.759 73903016 72993296 72091296 71196712 70310632 69432840 68559464 
1183.135 67684664 66805168 65925256 65057396 64221456 63438164 62721200 
1186.510 62073528 61486100 60942052 60420844 59905284 59383720 58849732 
1189.885 58300564 57734336 57148816 56542076 55912744 55261180 54590112 
1193.260 53903876 53209360 52515876 51836304 51186164 50580880 50033436 
1196.636 49549440 49125596 48749912 48405888 48076092 47747028 47411708 
1200.011 47068628 46719112 46363936 46002640 45634360 45260212 44886608 
1203.386 44525072 44190980 43900400 43664348 43486872 43363976 43285596 
1206.761 43237060 43202068 43166200 43116876 43045304 42950300 42837728 
1210.137 42720720 42617564 42546588 42517024 42526196 42556492 42581344 
1213.512 42572648 42511728 42397036 42245640 42088164 41957816 41883192 
1216.887 41877828 41939608 42053008 42197548 42352252 42502260 42642016 
1220.262 42773368 42904616 43046840 43212900 43411652 43646836 43913232 
1223.638 44197548 44479880 44738452 44957892 45133508 45273636 45394896 
1227.013 45518256 45659096 45822732 46005180 46195964 46384988 46565868 
1230.388 46738040 46903932 47064568 47216992 47353876 47466072 47548684 
1233.763 47601960 47630616 47641524 47637860 47617456 47574564 47503812 
1237.139 47405352 47287108 47161732 47039904 46924752 46807784 46671588 
1240.514 46495904 46267464 45984336 45657952 45305996 44945620 44587008 
1243.889 44229644 43864956 43481376 43069560 42625204 42149060 41645060 
1247.264 41119828 40581772 40042272 39517124 39023020 38574852 38180428 
1250.640 37837952 37535192 37255132 36982828 36711776 36446876 36201692 
1254.015 35993936 35836804 35733468 35675048 35644940 35621420 35583944 
1257.390 35517060 35411104 35261044 35066636 34833216 34571864 34299336 
1260.765 34036012 33799204 33598680 33434146 33295318 33168230 33039466 
1264.141 32902554 32757714 32608602 32458364 32305718 32145236 31971582 
1267.516 31783774 31588600 31400100 31235788 31107594 31018084 30958266 
1270.891 30911618 30859394 30789034 30698912 30597398 30498076 30413950 
1274.266 30352368 30313142 30289160 30269372 30242906 30199960 30133364 
1277.641 30038978 29915892 29767362 29600368 29425282 29251968 29085244 
1281.017 28920742 28746214 28543164 28294018 27990626 27637300 27251556 
1284.392 26857624 26480354 26136454 25831716 25561946 25318616 25094096 
1287.767 24886536 24700188 24542842 24421094 24336630 24284138 24252884 
1291.142 24230216 24203870 24165616 24111356 24041522 23959128 23869854 
1294.518 23780946 23699932 23633904 23587550 23561872 23554632 23560264 
1297.893 23573768 23591224 23611864 23637158 23668126 23703536 23737900 
1301.268 23762048 23765722 23741260 23685970 23602768 23499366 23385638 
1304.643 23269142 23155300 23046694 22944018 22848386 22762202 22688814 
1308.019 22631632 22592434 22571004 22565210 22572296 22589536 22614598 
1311.394 22645246 22677816 22707178 22727112 22730952 22714542 22678130 
1314.769 22626500 22567234 22510000 22463066 22430722 22412404 22402462 
1318.144 22390844 22365168 22314902 22233010 22118112 21973898 21807748 
1321.520 21628498 21442986 21255220 21066284 20875690 20683826 20492812 
1324.895 20307506 20134010 19976956 19838100 19714822 19601628 19492314 
1328.270 19382054 19269952 19158748 19053524 18959332 18880666 18820766 
1331.645 18782740 18770736 18789696 18845058 18938948 19069414 19228288 
1335.021 19402496 19579132 19747102 19903204 20052248 20205684 20374764 
1338.396 20564894 20771234 20978192 21166256 21319388 21433376 21516198 
1341.771 21584236 21654374 21740722 21850116 21982056 22129828 22283580 
1345.146 22432012 22565210 22676560 22763284 22827466 22875802 22919288 
1348.522 22970742 23040894 23135310 23251036 23377770 23499330 23599654 
1351.897 23665956 23691884 23678028 23629812 23556382 23467574 23374590 
1355.272 23288966 23220940 23178996 23166658 23180744 23210804 23243414 
1358.647 23264390 23264844 23244674 23213460 23188258 23186896 23223210 
1362.023 23299906 23407772 23528328 23642304 23738808 23815142 23875208 
1365.398 23925096 23969178 24009374 24046530 24081028 24113950 24147680 
1368.773 24183516 24221526 24260698 24301482 24348020 24411000 24506556 
1372.148 24654244 24872922 25171370 25542968 25962126 26392214 26794288 
1375.524 27139768 27412180 27598282 27682924 27644786 27459332 27110318 
1378.899 26597608 25943624 25184886 24365296 23525074 22694398 21897960 
1382.274 21154252 20475584 19867096 19324164 18831840 18368898 17915324 
1385.649 17457256 16994502 16541466 16121292 15753265 15442816 15178460 
1389.025 14940122 14709867 14476478 14238593 14002242 13777955 13575356 
1392.400 13404083 13271752 13185433 13150083 13165828 13225806 13315789 
1395.775 13419973 13526403 13630775 13735170 13844552 13960667 14078456 
1399.150 14184603 14262390 14300330 14295775 14255063 14188677 14106899 
1402.526 14015793 13915196 13800803 13666368 13508800 13332941 13150630 
1405.901 12979319 12835275 12729254 12667877 12654469 12691485 12782892 
1409.276 12933609 13147761 13426466 13766258 14159955 14597834 15070766 
1412.651 15569971 16085498 16605871 17114082 17591490 18020996 18388876 
1416.026 18688296 18917556 19074054 19148740 19124710 18983216 18722302 
1419.402 18371006 17982834 17610744 17291032 17035748 16840234 16692253 
1422.777 16577609 16485089 16410654 16357252 16333651 16349752 16412511 
1426.152 16527629 16701275 16941410 17257898 17657500 18138648 18684734 
1429.527 19266350 19846908 20394072 20889668 21331708 21732570 22111384 
1432.903 22488680 22881846 23304068 23763552 24264726 24803876 25363294 
1436.278 25910246 26405348 26820862 27151936 27412744 27623848 27802412 
1439.653 27962674 28115748 28272340 28443000 28636624 28858838 29109654 
1443.028 29383622 29670962 29958988 30236262 30493740 30727220 30939016 
1446.404 31140342 31350236 31592696 31893198 32268848 32726490 33265126 
1449.779 33881372 34572328 35335404 36165788 37049036 37962868 38882688 
1453.154 39786012 40661924 41510840 42336364 43136740 43890468 44545044 
1456.529 45026288 45283308 45338216 45270252 45163508 45058812 44962192 
1459.905 44867320 44770628 44675944 44591192 44524044 44478048 44450736 
1463.280 44432312 44405408 44343316 44210644 43956604 43522140 42851512 
1466.655 41896768 40638564 39091536 37306540 35350104 33295032 31195984 
1470.030 29061506 26867916 24572890 22162638 19707746 17378862 15374600 
1473.406 13804839 12647340 11790922 11104417 10494144 9909336 9340751 
1476.781 8802935 8315665 7889166 7520799 7200814 6918196 6665303 6438181 
1480.638 6234572 6050882 5881072 5719118 5561520 5409783 5269335 5148010 
1484.496 5052094 4983949 4941720 4920105 4911828 4909482 4905494 4890549 
1488.353 4850641 4770669 4639302 4459766 4254774 4059143 3903817 3803529 
1492.211 3757438 3753294 3776155 3811485 3849358 3884660 3915318 3940963 
1496.068 3959320 3964034 3947082 3903282 3834248 3749283 3661461 3582509 
1499.925 3519104 3471674 3436004 3405948 3377430 3350249 3328512 3319964 
1503.783 3333620 3379767 3466163 3594369 3748113 3885463 3947851 3903115 
1507.640 3776857 3626109 3493318 3393425 3325006 3278565 3242010 3203522 
1511.498 3155091 3094452 3026380 2960955 2909716 2882931 2885633 2917154 
1515.355 2969462 3030017 3083439 3120148 3141307 3157327 3180457 3218142 
1519.213 3270352 3328479 3376161 3391354 3357728 3275894 3166505 3055910 
1523.070 2962256 2891303 2840873 2807022 2785946 2773975 2766539 2757769 
1526.927 2741797 2715723 2681182 2644977 2617009 2606475 2620909 2663313 
1530.785 2732661 2822930 2924326 3021609 3093417 3119247 3088812 3010298 
1534.642 2904512 2793716 2693651 2613842 2562710 2549745 2586909 2685383 
1538.500 2848544 3056243 3252792 3367679 3356827 3239105 3072494 2914453 
1542.357 2794850 2717690 2670447 2633343 2587376 2520650 2433575 2336991 
1546.214 2246056 2173189 2126938 2110656 2122776 2157805 2205858 2255715 
1550.072 2296784 2324932 2341455 2350183 2354081 2352348 2342121 2320901 
1553.929 2289922 2258047 2238929 2248188 2297817 2394926 2539213 2719957 
1557.787 2904112 3024378 3006995 2851612 2650578 2486991 2385863 2333826 
1561.644 2312040 2306178 2308043 2314605 2325565 2342421 2366640 2399457 
1565.502 2441806 2493889 2555578 2624942 2695718 2754401 2780878 2751333 
1569.359 2652378 2494489 2310908 2138425 2002925 1914457 1870961 1866536 
1573.216 1894256 1948704 2025361 2117848 2215716 2300448 2351715 2358145 
1577.074 2325331 2270703 2212285 2161135 2120145 2085885 2051893 2012379 
1580.931 1964114 1910563 1860579 1827038 1820782 1847801 1906469 1988312 
1584.789 2079992 2166929 2238829 2289289 2316937 2322933 2309842 2280396 
1588.646 2237630 2186143 2131366 2078760 2032851 1996234 1968474 1947406 
1592.504 1930032 1913724 1896253 1876652 1854090 1827337 1795961 1760495 
1596.361 1723802 1691435 1670214 1666123 1682953 1720309 1773936 1835623 
1600.218 1895787 1946108 1980557 1996700 1994936 1977794 1949336 1914623 
1604.076 1880312 1853225 1839715 1844573 1869198 1911262 1964780 2021566 
1607.933 2072900 2112953 2139457 2153742 2158038 2154841 2145551 2130966 
1611.791 2112421 2091944 2072534 2058086 2052160 2056887 2073133 2099502 
1615.648 2130900 2159003 2174421 2171025 2149147 2113919 2072800 2033251 
1619.505 2000961 1981222 1977994 1994237 2030521 2083521 2146283 2208322 
1623.363 2260245 2297517 2321267 2334925 2341888 2344086 2341921 2336758 
1627.220 2331361 2329762 2335125 2347618 2362742 2373370 2372737 2357978 
1631.078 2331494 2300581 2277798 2277298 2313739 2400756 2547412 2752100 
1634.935 2991948 3220278 3381837 3443652 3411925 3316993 3191171 3057245 
1638.793 2931965 2826966 2750700 2709388 2704753 2733294 2787947 2861285 
1642.650 2948311 3047668 3162333 3297695 3458882 3647661 3857648 4071517 
1646.507 4263975 4412702 4512059 4574839 4621318 4666999 4721427 4789564 
1650.365 4875537 4982609 5112403 5257630 5386870 5438671 5360871 5173627 
1654.222 4952277 4752747 4590075 4457155 4341779 4233962 4128547 4025330 
1658.080 3929361 3848288 3790895 3762652 3763888 3787519 3820209 3842940 
1661.937 3835050 3783341 3687993 3564369 3435270 3321600 3236602 3184829 
1665.795 3166939 3181058 3224818 3293956 3382572 3480659 3574124 3649198 
1669.652 3696514 3715963 3715362 3706105 3697282 3695077 3702562 3720441 
1673.509 3748113 3781101 3812588 3832310 3833011 3814861 3786917 3761683 
1677.367 3750052 3759443 3792365 3846316 3913647 3984499 4050280 4108644 
1681.224 4166147 4236605 4337596 4482731 4668071 4854360 4974900 4981335 
1685.082 4888840 4752948 4625002 4531344 4481392 4474429 4504459 4561746 
1688.939 4635317 4715967 4797403 4877749 4957773 5040127 5127826 5223893 
1692.797 5333197 5462661 5621364 5816894 6050411 6306779 6552770 6754542 
1696.654 6898737 6999574 7084572 7182488 7312739 7481829 7674320 7852019 
1700.511 7974844 8034110 8054903 8072522 8110938 8179440 8277164 8394975 
1704.369 8516941 8622312 8694511 8729162 8738425 8743158 8764897 8818049 
1708.226 8906684 9027542 9171647 9328394 9487636 9643651 9795993 9948219 
1712.084 10106061 10273798 10452360 10638465 10826858 11012988 11198926 
1715.459 11396985 11630765 11927092 12307877 12772076 13290268 13820300 
1718.834 14332280 14823539 15314840 15833156 16404528 17047914 17773742 
1722.209 18583326 19472074 20435852 21476266 22603184 23831522 25176038 
1725.585 26644004 28237650 29960940 31831298 33884308 36169100 38729864 
1728.960 41574424 44651084 47856180 51064800 54210504 57338204 60643328 
1732.335 64459040 69211336 75227336 82388552 89939392 96855888 102549096 
1735.710 107099328 110925000 114434744 117898712 121437936 125049904 
1738.603 128631920 132041872 135133520 137796320 139949136 141513296 
1741.496 142399568 142537696 141918848 140631504 138840832 136735920 
1744.390 134433232 131944168 129191368 126078232 122554824 118661032 
1747.283 114504480 110219416 105887304 101500056 96969536 92209136 87217520 
1750.658 82116416 77130560 72489176 68331304 64669260 61419112 58452736 
1754.033 55639376 52869196 50059572 47162952 44185916 41195672 38305844 
1757.408 35635808 33258472 31182670 29363378 27725094 26184280 24667956 
1760.784 23135904 21593568 20095070 18716316 17515690 16507529 15664976 
1764.159 14938716 14281291 13658538 13055559 12472204 11920486 11412972 
1767.534 10954538 10537832 10146759 9765764 9385847 9007887 8639921 8292125 
1771.391 7971909 7678536 7404202 7141561 6886618 6642020 6412993 6203179 
1775.249 6012211 5837413 5675576 5525142 5388011 5268966 5171850 5098323 
1779.106 5044685 5002417 4960455 4909985 4848664 4779915 4708866 4638498 
1782.964 4567003 4489193 4399648 4298676 4193111 4095867 4019545 3969351 
1786.821 3941164 3922841 3900641 3862228 3803028 3726290 3643718 3569747 
1790.679 3518771 3499263 3509384 3537577 3567676 3588022 3595004 3591329 
1794.536 3581874 3571050 3560961 3551975 3542955 3532733 3518937 3499263 
1798.393 3471206 3432197 3380234 3314956 3237637 3150719 3057545 2961889 
1802.251 2868122 2781311 2707454 2650878 2613675 2593275 2583176 2574409 
1806.108 2560011 2537480 2511485 2491990 2489257 2508319 2545046 2584742 
1809.966 2606242 2592709 2537947 2452268 2357479 2279630 2236464 2233134 
1813.823 2261444 2305745 2348617 2375536 2379200 2358845 2318869 2265307 
1817.681 2204692 2143886 2089947 2052726 2041640 2063778 2120511 2206491 
1821.538 2310208 2416816 2513385 2590375 2642910 2670914 2677115 2666179 
1825.395 2643410 2615109 2587342 2564910 2549612 2538380 2522583 2489190 
1829.253 2426045 2329329 2209688 2087383 1982853 1906303 1854423 1814860 
1833.110 1772073 1713988 1636355 1545766 1455629 1381864 1333968 1311933 
1836.968 1307048 1307547 1304522 1297477 1294918 1309640 1353545 1432391 
1840.825 1545301 1685681 1843242 2004922 2157139 2283494 2366707 2392160 
1844.682 2353514 2255482 2112687 1944177 1767449 1595747 1439971 1307945 
1848.540 1207889 1148584 1138751 1184067 1284416 1431095 1603928 1774102 
1852.397 1909398 1980091 1971137 1886136 1747720 1586768 1435716 1319179 
1856.255 1248893 1223938 1234139 1264909 1301199 1331542 1348991 1349656 
1860.112 1332805 1300401 1256402 1206560 1156558 1110149 1069026 1032091 
1863.970 997053 962250 926852 891690 857427 822668 783663 734241 668927 
1868.309 586802 495769 411122 348809 323342 342807 409696 523535 680741 
1872.649 873429 1087859 1305220 1501443 1650656 1733748 1741433 1680292 
1876.506 1571471 1447218 1340117 1274513 1261752 1299105 1372756 1463974 
1880.364 1555576 1635191 1695194 1732650 1744627 1729657 1686911 1619426 
1884.221 1534427 1441301 1349988 1265906 1189250 1116028 1040660 959361 
1888.078 871304 779581 688607 601965 522075 450757 391323 350235 335446 
1892.418 352457 400808 470857 545762 605416 634416 630302 605947 582489 
1896.758 579237 605781 657379 718774 770386 800161 807630 805373 811979 
1901.097 844280 910350 1006850 1121211 1238027 1345069 1433588 1498385 
1904.955 1533729 1532998 1491436 1412745 1315157 1230617 1200580 1261852 
1908.812 1430131 1691535 2002858 2306377 2545679 2690050 2737729 2711855 
1912.670 2644510 2565010 2489457 2419081 2345053 2255582 2143420 2007186 
1916.527 1850596 1681190 1508027 1341613 1195430 1086165 1029168 1037737 
1920.384 1117590 1263148 1455430 1662331 1847302 1976629 2034549 2022865 
1924.242 1955726 1847801 1706637 1533197 1327221 1094968 854339 631231 
1928.099 455434 347284 310278 327189 366981 396132 390395 344830 273010 
1932.439 201435 156122 155625 203888 292141 404324 523767 638962 742638 
1936.778 830868 899692 946377 970320 974670 968493 963080 968991 991540 
1941.118 1027641 1065438 1089786 1091679 1074207 1053115 1053215 1099353 
1944.975 1205796 1374585 1593586 1839582 2085385 2303046 2471662 2576776 
1948.833 2614542 2589509 2515218 2409619 2291155 2175887 2070969 1974233 
1952.690 1874422 1757535 1612176 1438109 1248992 1071716 938673 877314 
1956.548 902713 1009706 1177256 1371759 1560165 1711427 1800420 1810102 
1960.405 1732152 1570606 1344571 1095698 882493 772179 827847 1081050 
1964.263 1517968 2070503 2636810 3097522 3354656 3363639 3145178 2779077 
1968.120 2372537 2027558 1800486 1701747 1705073 1771142 1865238 1968641 
1971.977 2076662 2191038 2311407 2427811 2523683 2583276 2596042 2561877 
1975.835 2485858 2374736 2231502 2059617 1867800 1679660 1531402 1463275 
1979.692 1499681 1636089 1833992 2033450 2172324 2201595 2104829 1901611 
1983.550 1636255 1356802 1099120 877446 686250 514412 356403 217645 108925 
1987.889 35819 -11663 -61094 -146295 -294892 -509038 -757942 -978306 
1991.747 -1094428 -1044321 -796143 -358726 226231 893715 1573433 2201362 
1995.604 2721658 3099524 3317827 3384642 3328779 3199817 3052006 2923159 
1999.462 2823097 2726959 2587842 2357778 2016307 1588265 1143070 768627 
2003.319 541250 496930 619086 848529 1113337 1362187 1580184 1790172 2026127 
2007.659 2301714 2587842 2816860 2905446 2802287 2512685 2109923 1699485 
2011.516 1392468 1253744 1282655 1415072 1551718 1595315 1478802 1186293 
2015.373 747982 227823 -301050 -760224 -1080547 -1212667 -1131179 -841451 
2019.231 -377265 198849 810817 1387282 1875321 2263975 2579742 2875059 
2023.088 3194176 3554814 3931167 4266117 4488590 4548353 4434660 4178926 
2026.946 3838527 3474647 3139471 2863352 2659945 2533148 2482859 2507019 
2030.803 2596042 2733994 2893238 3043664 3162367 3241876 3286444 3307744 
2034.661 3306743 3267848 3161098 2957485 2647277 2255249 1837453 1460317 
2038.518 1186824 1049827 1047303 1145395 1298308 1464672 1622985 1774568 
2042.375 1932994 2109790 2302713 2496622 2671814 2816394 2933200 3036924 
2046.233 3142909 3253093 3349547 3396063 3355658 3209730 2972097 2686616 
2050.090 2408219 2187642 2050195 1988578 1969373 1948570 1889497 1774668 
2053.948 1613473 1433355 1270127 1150046 1083043 1061087 1067066 1083242 
2057.805 1101777 1125463 1164797 1227693 1313695 1408157 1487812 1527611 
2061.662 1511119 1437743 1324463 1200613 1093872 1024519 993898 986692 
2065.520 977161 942824 874757 783663 695709 646063 664481 764943 941031 
2069.859 1167953 1412279 1639414 1825540 1962117 2052293 2106294 2135096 
2073.717 2146350 2142521 2123808 2089913 2042838 1986548 1925672 1865105 
2077.574 1809703 1764954 1737807 1735245 1762824 1820749 1900180 1987014 
2081.432 2061781 2107093 2116016 2092344 2051394 2012079 1991275 1995868 
2085.289 2020834 2052093 2073566 2072734 2045502 1995202 1930631 1859747 
2089.146 1787111 1713855 1639148 1563523 1491037 1428369 1383094 1360957 
2093.004 1364114 1392401 1444492 1519897 1617530 1734547 1863041 1987680 
2096.861 2089214 2150046 2161135 2127770 2070503 2018970 1999363 2027259 
2100.719 2100268 2200030 2297683 2366107 2387229 2355080 2271802 2142354 
2104.576 1968108 1747720 1478303 1165561 826950 494873 210518 11331 -77029 
2108.916 -51155 69951 250101 449463 635047 786352 897899 975201 1028803 
2113.255 1068826 1103239 1138219 1177654 1225034 1282123 1346798 1412479 
2117.113 1468828 1505766 1516672 1502707 1473316 1443096 1425942 1430762 
2120.970 1457291 1497919 1540213 1572003 1586768 1582345 1560098 1521559 
2124.828 1466800 1394296 1304655 1204135 1107059 1034682 1009042 1042122 
2128.685 1132306 1258729 1388180 1481295 1509589 1460283 1343141 1183402 
2132.542 1016315 872732 771282 714659 694381 697700 711606 727403 740082 
2136.882 743799 732216 699923 649747 597353 577313 635843 817323 1150345 
2141.222 1630934 2219779 2842073 3410590 3845380 4092957 4143399 4027070 
2145.079 3803997 3538112 3287813 3090313 2959320 2890836 2869323 2876127 
2148.937 2889702 2888668 2851045 2755001 2583642 2332027 2011447 1648262 
2152.794 1283752 964077 727437 597585 575720 637204 735900 818718 833756 
2157.134 747882 558103 297479 32373 -161498 -217271 -102869 175181 577280 
2161.473 1046240 1526381 1969007 2346119 2644844 2861851 2995384 3043130 
2165.331 2999989 2866954 2656578 2396192 2118247 1856852 1635124 1461048 
2169.188 1330478 1235534 1171574 1143169 1162505 1240984 1379504 1563889 
2173.045 1762625 1936389 2055689 2107027 2098736 2055056 2000928 1947139 
2176.903 1888998 1808704 1693165 1546598 1400279 1300534 1298972 1425344 
2180.760 1671611 1987913 2300515 2531715 2628676 2578976 2410518 2174488 
2184.618 1924308 1702479 1531668 1417066 1356603 1347928 1389443 1475144 
2188.475 1587466 1692799 1746190 1709564 1564488 1326490 1041889 778585 
2192.333 601135 545596 609928 753690 915297 1032457 1069358 1022127 918418 
2196.672 798136 699990 642745 623068 621011 614308 590584 552961 517497 
2201.012 505986 535079 607672 714427 836810 956439 1058994 1138286 1192672 
2205.351 1222409 1225300 1198652 1140977 1059858 973375 912442 911014 997618 
2209.691 1184432 1459851 1786279 2108825 2369439 2516651 2522650 2390361 
2213.548 2152743 1862975 1585804 1385454 1307613 1376246 1586402 1907368 
2217.406 2288157 2669280 2996919 3227689 3340432 3336192 3236969 3075931 
2221.263 2889836 2708621 2549512 2414417 2291988 2165097 2016074 1834724 
2225.121 1623849 1400977 1193702 1034881 954413 967264 1070055 1236066 
2228.978 1424612 1585405 1672875 1657375 1530338 1307114 1018972 708519 
2232.835 416031 172331 -2120 -100583 -125824 -88988 -3479 114460 249670 
2237.175 391555 533719 675697 822071 979219 1151541 1336960 1526148 1704142 
2241.515 1853591 1961484 2023730 2046633 2044137 2031553 2020900 2015841 
2245.372 2012013 2000395 1973067 1926105 1860146 1779825 1688807 1588198 
2249.229 1476674 1354675 1227327 1107026 1012629 962781 969888 1034416 
2253.087 1142937 1272021 1394961 1491602 1552683 1581048 1586502 1580250 
2256.944 1568112 1549358 1518334 1469094 1399747 1315456 1225300 1140445 
2260.802 1068859 1013459 971748 938076 907428 877446 848396 823398 805140 
2265.141 795182 792958 796344 803016 810817 817523 821141 819946 813273 
2269.481 803282 796012 801555 830137 890860 986559 1112308 1255306 1399781 
2273.821 1529639 1633528 1706836 1749883 1765985 1757435 1724800 1666522 
2277.678 1582046 1474313 1350287 1222709 1107557 1018640 967231 957734 
2281.535 988053 1049296 1128320 1210514 1280761 1327786 1345601 1335597 
2285.393 1305619 1269097 1241084 1233042 1248893 1284217 1327255 1361621 
2289.250 1373089 1353811 1304123 1231680 1149282 1070288 1005023 960523 
2293.108 940599 946510 979552 1039730 1125463 1231414 1347163 1458688 
2296.965 1549225 1605059 1617630 1585804 1516173 1421587 1318281 1222044 
2300.823 1147355 1104701 1098821 1129383 1189183 1265474 1339685 1392301 
2304.680 1406462 1372557 1291727 1177090 1052650 944219 877214 867254 917057 
2309.020 1016083 1145295 1281492 1403105 1496290 1554911 1580317 1577889 
2312.877 1554312 1514743 1462876 1402207 1337990 1278335 1234471 1217658 
2316.734 1235900 1290232 1373587 1470091 1559101 1621688 1645301 1628539 
2320.592 1581181 1521360 1469226 1438741 1435483 1454432 1484021 1511219 
2324.449 1527711 1532964 1534793 1544602 1574896 1632098 1713955 1807507 
2328.307 1892592 1947772 1956226 1913791 1831530 1735378 1656410 1624382 
2332.164 1656610 1752045 1891660 2044103 2175554 2256748 2272236 2222377 
2336.021 2121111 1989411 1848666 1715286 1597909 1499714 1421886 1367438 
2339.879 1341380 1349523 1392966 1465503 1552151 1632929 1686679 1699685 
2343.736 1668019 1598773 1506597 1408988 1321040 1251584 1204733 1180811 
2347.594 1179648 1201510 1247464 1317351 1408756 1516439 1631266 1741533 
2351.451 1835855 1906070 1949103 1966078 1960253 1932728 1880945 1801152 
2355.309 1691003 1555742 1409986 1274779 1173069 1122373 1127954 1181010 
2359.166 1260988 1342643 1400778 1419593 1394030 1330645 1243775 1151807 
2363.023 1073377 1021031 999643 1005023 1024153 1039298 1032755 993666 
2366.881 920909 825390 726773 649415 613246 629472 697136 804543 932530 
2371.220 1061519 1176691 1270492 1343972 1402440 1452836 1498750 1538650 
2375.078 1566350 1573566 1553581 1504735 1432524 1349191 1270625 1211511 
2378.935 1181641 1181841 1203470 1230351 1244373 1230318 1180545 1098489 
2382.793 997717 898629 820743 779282 779780 817157 877646 944717 1004459 
2387.132 1048731 1077595 1096828 1114467 1135329 1158684 1177455 1181375 
2390.990 1160810 1111278 1036044 946344 857061 783166 736033 719770 732249 
2395.329 766303 813506 865992 918319 967098 1010105 1045111 1069192 1079455 
2399.669 1073875 1052783 1018806 976829 932232 890495 855269 828810 812278 
2404.009 806568 812643 831333 863004 905934 956904 1011267 1063611 1110281 
2408.348 1149681 1182804 1211777 1238558 1262882 1281724 1289501 1280329 
2412.206 1250056 1198686 1131177 1055939 983271 921340 874259 841225 817921 
2416.545 799132 781539 766735 760395 770652 804244 863237 943389 1034084 
2420.885 1121543 1193602 1242712 1267767 1273417 1266970 1254974 1240585 
2424.742 1223439 1201909 1175993 1149980 1131741 1130944 1155063 1204866 
2428.600 1273118 1344970 1404501 1437245 1436646 1404567 1350487 1286543 
2432.457 1222974 1165893 1115630 1069125 1023323 977194 933427 897268 873163 
2436.797 864664 871337 890495 917323 947838 979053 1009075 1036508 1058895 
2441.136 1073144 1075868 1064707 1038601 999643 951823 900256 850289 807497 
2445.476 776361 761690 767332 796178 847766 918020 999112 1079422 1146525 
2449.815 1190413 1204932 1189217 1147920 1089121 1022260 956206 898662 
2453.673 854771 828278 820975 833358 864133 910549 968858 1033752 1100017 
2458.012 1162172 1214369 1251451 1268266 1261221 1229354 1175129 1105299 
2461.870 1029235 957867 901352 865660 853243 862274 888569 926321 971216 
2466.209 1018773 1065339 1107425 1141608 1165063 1177322 1180046 1177555 
2470.067 1175096 1177189 1185429 1198586 1212973 1224935 1232145 1235069 
2473.924 1235834 1236332 1236631 1233341 1220881 1193336 1147953 1086431 
2477.782 1015253 943754 881762 836179 810751 806170 821739 856663 910682 
2482.121 982806 1068926 1161441 1248593 1316420 1353246 1352381 1314692 
2485.979 1247896 1165229 1081581 1008444 953317 917655 898131 888370 881265 
2490.318 871072 855235 834719 814137 800958 802618 825125 869877 933825 
2494.658 1008444 1083010 1147322 1193802 1218555 1221878 1205863 1172804 
2498.515 1125662 1067664 1004359 944850 900920 883854 901285 952620 1028272 
2502.855 1110381 1179814 1220515 1225466 1197955 1149913 1097426 1053580 
2506.712 1026179 1015419 1016481 1021895 1025615 1024220 1016714 1003695 
2510.570 986094 964741 940998 917356 897600 885448 883622 891856 906897 
2514.909 923532 937013 944219 944551 939205 928579 911180 883954 844047 
2519.249 792526 736464 689204 667666 685321 748479 851517 978489 1105797 
2523.589 1211744 1280229 1304622 1287440 1237395 1164099 1074905 975301 
2527.446 869777 764478 669060 595329 554885 555814 599112 678883 783464 
2531.786 900787 1019138 1130512 1230849 1317251 1387548 1438807 1467897 
2535.643 1472684 1454366 1417764 1369432 1317716 1269429 1228689 1196759 
2539.500 1172538 1153568 1137422 1122041 1105930 1088391 1070055 1052518 
2543.358 1039863 1036741 1048432 1077396 1122572 1177455 1231746 1273616 
2547.215 1293156 1286078 1254974 1209584 1163003 1129283 1119051 1136824 
2551.073 1180645 1242945 1313529 1380202 1432724 1463608 1467365 1442132 
2554.930 1387880 1306915 1202839 1081116 949001 814767 688441 580432 500579 
2559.270 457291 455865 497096 577313 687877 817124 950495 1074473 1176624 
2563.609 1247730 1283585 1284715 1256967 1209484 1154996 1105764 1071849 
2567.467 1058496 1065305 1086331 1111843 1133170 1144498 1145661 1141840 
2571.324 1141541 1152272 1177023 1212441 1249225 1275776 1281857 1263547 
2575.182 1224569 1176060 1130678 1100349 1090616 1099552 1118420 1136857 
2579.039 1146392 1144398 1135196 1127256 1130711 1151740 1190379 1239688 
2582.896 1289135 1327554 1347795 1349589 1339253 1327653 1325693 1341081 
2586.754 1375083 1422485 1472584 1513380 1534328 1529074 1497154 1443894 
2590.611 1378739 1312930 1257964 1223373 1214535 1232777 1275111 1334434 
2594.469 1400877 1465403 1519797 1559367 1583642 1595182 1598175 1595814 
2598.326 1589861 1579286 1561362 1533230 1493663 1444126 1388479 1331941 
2602.184 1279398 1234637 1198785 1171143 1150744 1136093 1127057 1123935 
2606.041 1127821 1139249 1158418 1184997 1218223 1256901 1298507 1338887 
2609.898 1373122 1394296 1396623 1376978 1336694 1281891 1222642 1170677 
2613.756 1135927 1123901 1135429 1166757 1211976 1265142 1322003 1378640 
2617.613 1431826 1477139 1508791 1521393 1511584 1481029 1436447 1389310 
2621.471 1352415 1335464 1342510 1370795 1412745 1457790 1496656 1524086 
2625.328 1538351 1539980 1530238 1509623 1477738 1434751 1382894 1327554 
2629.186 1276773 1239489 1221712 1225799 1248992 1285147 1326590 1367571 
2633.043 1405166 1439572 1472684 1506364 1540745 1574397 1604893 1629936 
2636.900 1648627 1661666 1670746 1677166 1681257 1682288 1678263 1667619 
2640.758 1649359 1623583 1591856 1555576 1516738 1477039 1438674 1404667 
2644.615 1378739 1365078 1367206 1386717 1422518 1469925 1522457 1572103 
2648.473 1611710 1636887 1646399 1642641 1631000 1618395 1611178 1613972 
2652.330 1628007 1650889 1677398 1700816 1715352 1718047 1709830 1694828 
2656.188 1679660 1671012 1672875 1686413 1709597 1738306 1768813 1798723 
2660.045 1827138 1854756 1881510 1906137 1925706 1936090 1934026 1918384 
2663.902 1891394 1858449 1826040 1800486 1785681 1782653 1789141 1801684 
2667.760 1816124 1829434 1839649 1846171 1849132 1849531 1848533 1848234 
2671.617 1850995 1859281 1875287 1899181 1929367 1962350 1993671 2018770 
2675.475 2034582 2040042 2036014 2025195 2010515 1995136 1981622 1971969 
2679.332 1967276 1967942 1973167 1981356 1989577 1994337 1992207 1980923 
2683.189 1960453 1932362 1900379 1868898 1841945 1822513 1812098 1810468 
2687.047 1816124 1826772 1839549 1851228 1859015 1860512 1854423 1841013 
2690.904 1822113 1801218 1782220 1768846 1763290 1766550 1776930 1791702 
2694.762 1807507 1820550 1827770 1827171 1817821 1800253 1775966 1747621 
2698.619 1718313 1691069 1668052 1650557 1638417 1631133 1628572 1631333 
2702.477 1641177 1660036 1689207 1727661 1771674 1814693 1849265 1868699 
2706.334 1869464 1851761 1820450 1782620 1745758 1716018 1696125 1685980 
2710.191 1682986 1683718 1685348 1686246 1686413 1686047 1685781 1685714 
2714.049 1685481 1685082 1684916 1686080 1690105 1698387 1711128 1727528 
2717.906 1745092 1760795 1772306 1778394 1779991 1779659 1781222 1788608 
2721.764 1804279 1829234 1861943 1899414 1937188 1971037 1997133 2012645 
2725.621 2016739 2009915 1994337 1972801 1948970 1926205 1907401 1894921 
2729.479 1890329 1894489 1907534 1928834 1956459 1986914 2015807 2037013 
2733.336 2044869 2035281 2006720 1961218 1904473 1844607 1789706 1746789 
2737.193 1719876 1709631 1714121 1730056 1754108 1783218 1815059 1847069 
2741.051 1876252 1898815 1911129 1910995 1898649 1877617 1854257 1835623 
2744.908 1828169 1835523 1857750 1891660 1932295 1974365 2013877 2048364 
2748.766 2077195 2100268 2117615 2129102 2133930 2131932 2123475 2109424 
2752.623 2091478 2071968 2052759 2036347 2024895 2020401 2024895 2039210 
2756.480 2063146 2094574 2129502 2163166 2190239 2206691 2210154 2200296 
2760.338 2178750 2148614 2114185 2080158 2051228 2031553 2023597 2027958 
2764.195 2042173 2061648 2080491 2092710 2095340 2088448 2075597 2062214 
2768.053 2054323 2055356 2065576 2082289 2100867 2117282 2129402 2138059 
2771.910 2145951 2156639 2172324 2192903 2216016 2238130 2255915 2267872 
2775.768 2274967 2279730 2286092 2296884 2313173 2334492 2357912 2380333 
2779.625 2398591 2411185 2418049 2421347 2423946 2429111 2439473 2456467 
2783.482 2479760 2508319 2540547 2575276 2612475 2653311 2698919 2750233 
2787.340 2806322 2864353 2919356 2965759 2998821 3015903 3017638 3007429 
2791.197 2990647 2972865 2959053 2952048 2952915 2961322 2976635 2998254 
2795.055 3026213 3061215 3103962 3154590 3212467 3275861 3342268 3408753 
2798.912 3472142 3529894 3580338 3622601 3657618 3686656 3712053 3735982 
2802.770 3760680 3787987 3819473 3856044 3898401 3946480 3999848 4056835 
2806.627 4115969 4175915 4235267 4294660 4354999 4417722 4483903 4553241 
2810.484 4624098 4693760 4760016 4822396 4882741 4945072 5014182 5094232 
2814.342 5186570 5289928 5400155 5512893 5624519 5734159 5843223 5955236 
2818.199 6073561 6200624 6337003 6481631 6633239 6790990 6955466 7127750 
2822.057 7309302 7500066 7698300 7900369 8102161 8299927 8492072 8679739 
2825.914 8867251 9061305 9269798 9500979 9760749 10052479 10375524 10726215 
2829.771 11097721 11482745 11875500 12273245 12676815 13090799 13520900 
2833.147 13972335 14448423 14950238 15478249 16033959 16621949 17250588 
2836.522 17931726 18677956 19500352 20407788 21405390 22496460 23683940 
2839.897 24971808 26365842 27872254 29496132 31240202 33103720 35083448 
2843.272 37173040 39365128 41649876 44012336 46432956 48884388 51331200 
2846.648 53735592 56055488 58250392 60284732 62123952 63737280 65095572 
2850.023 66170096 66935808 67372720 67469536 67225704 66653364 65775336 
2853.398 64622156 63231492 61644392 59900524 58041064 56103708 54121128 
2856.773 52122416 50128884 48156048 46214392 44310840 42452060 40646752 
2860.149 38905444 37241808 35669688 34200668 32843870 31603992 30481300 
2863.524 29473932 28577558 27786658 27094624 26493984 25976690 25533938 
2866.899 25158098 24842082 24579796 24365296 24190802 24046074 23917498 
2870.274 23788366 23642408 23464810 23245792 22982094 22677048 22339110 
2873.650 21979196 21609760 21242832 20889110 20559022 20262302 20007418 
2877.025 19801232 19647664 19546794 19495190 19487184 19515844 19575390 
2880.400 19662226 19774634 19912604 20076816 20267440 20484338 20727754 
2883.775 20998778 21299760 21633860 22003666 22409056 22846570 23309032 
2887.151 23787248 24272400 24759218 25247146 25741106 26248618 26777548 
2890.526 27333484 27916982 28524372 29149020 29784006 30423688 31065630 
2893.901 31709414 32356332 33007540 33663196 34322176 34982732 35643144 
2897.276 36302472 36961180 37621176 38286340 38961512 39652652 40366204 
2900.652 41106752 41876664 42674768 43496720 44336120 45187736 46049648 
2904.027 46925120 47822632 48753880 49730004 50758228 51839740 52969764 
2907.402 54140348 55342620 56570724 57823012 59101176 60408316 61746176 
2910.777 63113496 64505896 65916232 67336464 68759136 70177648 71585032 
2914.153 72973456 74332408 75648576 76905568 78084032 79163736 80123040 
2917.528 80939472 81592328 82061976 82333240 82396832 82250536 81899904 
2920.903 81356776 80638800 79764720 78752784 77618944 76374296 75026760 
2924.278 73582960 72051320 70444816 68782816 67089020 65390296 63710308 
2927.654 62066456 60467532 58913520 57397684 55910408 54443344 52990052 
2931.029 51547880 50116724 48698020 47294272 45908608 44546108 43213416 
2934.404 41918920 40670512 39474412 38333024 37243864 36201584 35198268 
2937.779 34226516 33281400 32360862 31465930 30599852 29767256 28973124 
2941.155 28222094 27518848 26866964 26268362 25723000 25228534 24780126 
2944.530 24372448 24001286 23664240 23362002 23096906 22872240 22689372 
2947.905 22546852 22440736 22364924 22313508 22281834 22267502 22268514 
2951.280 22281834 22302484 22321110 22326692 22307264 22253132 22158976 
2954.656 22023604 21849942 21641870 21403406 21137104 20845030 20529042 
2958.031 20192528 19840632 19479802 19115844 18752954 18391780 18029424 
2961.406 17660502 17278688 16878744 16457729 16016288 15558192 15090080 
2964.781 14619971 14155540 13703196 13266320 12845309 12437526 12039119 
2968.156 11645944 11256015 10870207 10492921 10131429 9792943 9484487 
2971.532 9209348 8966820 8751644 8555430 8368188 8180419 7986082 7782995 
2975.389 7574237 7366287 7168238 6988227 6831245 6697335 6581968 6477327 
2979.247 6374257 6267144 6153336 6035628 5918992 5809373 5709953 5620491 
2983.104 5537323 5454977 5369358 5279229 5186805 5097350 5017031 4950635 
2986.961 4900635 4867528 4849602 4845381 4853456 4872588 4901640 4938704 
2990.819 4980597 5024808 5069391 5114683 5163266 5219030 5285535 5365031 
2994.676 5457527 5561420 5674736 5796545 5927524 6069697 6224388 6391271 
2998.534 6567772 6749023 6929575 7105218 7274091 7436626 7594636 7749803 
3002.391 7902629 8051696 8194128 8326203 8443690 8541811 8614910 8656213 
3006.249 8658275 8615654 8526842 8395685 8232318 8051358 7868416 7695534 
3010.106 7538903 7397225 7263579 7127380 6979809 6814449 6629302 6425772 
3013.963 6207178 5976937 5738558 5495712 5252667 5014417 4786884 4574839 
3017.821 4380870 4204486 4042587 3890611 3743835 3599782 3457746 3319964 
3021.678 3189102 3068657 2961422 2868856 2791449 2727926 2675848 2630876 
3025.536 2587975 2541580 2486858 2421680 2347384 2268105 2189673 2118247 
3029.393 2058185 2011081 1975963 1950834 1933860 1924541 1923609 1932428 
3033.250 1950667 1975797 2002626 2023896 2033484 2026893 2003291 1965578 
3037.108 1919116 1869264 1821049 1777662 1739936 1708167 1681889 1660901 
3040.965 1645301 1634991 1630169 1630268 1634825 1643572 1656311 1672908 
3044.823 1692333 1712126 1728193 1734780 1726097 1698288 1650723 1587034 
3048.680 1514909 1444525 1385753 1345235 1325360 1323333 1332306 1343773 
3052.538 1350686 1348559 1337358 1320475 1303492 1292193 1289667 1296347 
3056.395 1309707 1325626 1339618 1349157 1354043 1356037 1357965 1362585 
3060.252 1370795 1381897 1393664 1403736 1411116 1416335 1421421 1429366 
3064.110 1442165 1459818 1480098 1498418 1510288 1511751 1501743 1482027 
3067.967 1456360 1428635 1401576 1375416 1348260 1317517 1280827 1239057 
3071.825 1195596 1156425 1127688 1114400 1117889 1135595 1161541 1188486 
3075.682 1209285 1218356 1212641 1191443 1155495 1106694 1048067 983371 
3079.540 917588 856929 807497 774203 760362 765640 787116 819714 857792 
3083.879 896670 933062 965870 994861 1019935 1040760 1056138 1064143 1063578 
3088.219 1054112 1037206 1015684 994230 977393 969357 972810 988385 1014090 
3092.558 1046207 1080020 1110414 1133037 1145295 1146458 1136824 1118121 
3096.416 1091879 1060456 1025150 988252 952155 920045 894944 879040 873064 
3100.755 875886 884684 896272 907926 918120 926985 935087 943389 952089 
3105.095 960822 969058 976231 982540 988286 992869 995193 991905 979684 
3109.435 956273 921473 879040 835017 796377 768195 751898 744762 741708 
3113.774 736962 726939 712402 697567 687910 688242 700288 722193 749409 
3118.114 776726 800261 818153 830038 836511 837209 831067 816892 794850 
3122.453 767631 740613 720965 714393 723554 746455 777257 807531 829673 
3126.793 839366 836379 824527 809854 798269 793854 797904 809423 826121 
3131.133 845209 864199 881696 896438 907428 913637 914268 908690 897201 
3135.472 880567 860249 837541 813307 788178 761889 734539 706727 679845 
3139.812 656550 639958 632425 634682 645201 659237 671084 674469 665377 
3144.151 642911 610625 575322 544667 526056 523767 538198 566497 603657 
3148.491 643608 680874 711406 731984 740646 736498 720434 694912 665045 
3152.831 637602 619086 614673 625689 649249 678618 705233 721695 723321 
3157.170 710311 686715 660034 638199 627813 632923 653994 688175 730092 
3161.510 773739 812809 842321 860415 867486 867021 863170 859950 859784 
3165.849 862008 863735 861245 851318 833026 808095 780942 756976 740779 
3170.189 736000 744198 764943 796576 836478 880667 923465 959261 981810 
3174.529 986990 973607 944850 907229 868549 836545 816394 809290 814269 
3178.868 827913 847168 869279 891856 912674 928446 935784 932398 918153 
3183.208 896537 873263 854505 844247 841923 843284 841657 831631 812377 
3187.547 788211 767166 756844 762154 781307 807630 830735 842487 839200 
3191.887 822535 798269 773008 751633 734672 720434 705964 690498 676527 
3196.227 668828 672346 689470 718111 751732 780842 796477 793024 768859 
3200.566 727271 675266 622703 579171 554388 555350 584513 639062 710378 
3204.906 785456 849094 889166 899194 880700 841856 794485 749940 714493 
3209.245 688341 667467 646163 621442 594334 570545 556478 556644 569981 
3213.585 589987 607639 613943 604785 583152 557971 540288 539757 561222 
3217.925 602595 655886 709847 754122 781639 790336 783630 767598 749143 
3222.264 733046 721330 712999 705333 695808 683994 672976 668463 677356 
3226.604 705067 752861 817058 888071 953782 1003130 1027840 1026578 1003396 
3230.943 966866 926985 891325 864067 845409 831664 818386 801489 779415 
3235.283 752827 724549 699094 680244 671018 672279 681737 695178 706495 
3239.623 709780 700886 679447 648519 614905 585740 567028 561189 565966 
3243.962 576019 584579 586371 580564 569748 559729 556942 566033 587101 
3248.302 616764 648287 674270 688275 686615 669392 640124 604221 568289 
3252.641 538828 519952 513151 517032 527549 539425 547056 547221 537999 
3256.981 520350 496432 469630 442797 418784 400078 389433 389035 400709 
3261.321 423725 454372 486580 512620 525193 521113 501309 472317 442631 
3265.660 421503 414903 423891 445085 472251 498622 518990 531198 535112 
3270.000 532558 526023 518160 512654 513748 526653 555814 603060 666107 
3274.339 737361 806302 860680 891457 895043 874956 839068 798701 763582 
3278.679 738920 725246 717712 709714 694182 666936 626751 576284 520449 
3283.019 465948 419812 387775 373846 378887 400908 434173 471322 504460 
3287.358 527549 538098 537501 531364 526852 529871 544037 568023 596689 
3291.698 622404 638166 639095 624727 598514 567127 537766 515838 504460 
3296.037 502038 504294 504858 498124 480178 450823 413510 374907 342608 
3300.377 323243 322281 340519 376068 423560 476828 528278 571507 601799 
3304.717 616365 615138 599477 573431 541781 510663 485917 473179 475866 
3309.056 494973 528710 571772 616730 655289 679480 683728 666870 632193 
3313.396 587432 542842 508640 491855 493778 509967 531364 546757 546392 
3317.735 525658 486812 438120 392086 362637 360084 389731 449961 533454 
3322.075 628410 721230 800261 856132 884817 886909 867619 835051 797605 
3326.415 763416 737062 719272 707689 698330 687346 673972 660432 652534 
3330.754 656749 677722 716053 766801 820377 864233 887573 883489 851849 
3335.094 798867 735867 676560 632259 610028 611355 631828 663020 695509 
3339.433 720732 732581 729494 713066 688042 660333 635876 619053 611919 
3343.773 613976 623068 635312 646760 653032 651174 639161 616531 584380 
3348.113 545861 504991 467043 436926 418021 411321 415202 425550 436959 
3352.452 444919 446909 443062 437059 433974 439049 455898 484889 523535 
3356.792 567094 610061 647756 678286 702014 721098 738755 757707 778950 
3361.131 801323 822104 837839 845508 843051 830669 809622 782402 752064 
3365.471 720732 690266 661428 634947 611886 594168 584247 584712 597419 
3369.811 622637 658076 698762 738157 769125 784693 780178 754155 708585 
3374.150 648386 582290 520018 470692 442266 438916 460276 500944 552430 
3378.490 603989 645433 669691 674303 661063 635279 604354 574659 550937 
3382.829 535212 527681 526885 531264 539293 549477 560094 569151 574327 
3387.169 573730 566729 554288 538894 523866 511327 502901 497461 492817 
3391.509 486613 477690 466313 455002 447506 447142 456197 474738 500678 
3395.848 530368 558634 579934 588627 580299 552297 505521 444588 377196 
3400.188 314058 266711 243537 249836 284416 341381 410293 480411 542013 
3404.527 588196 616896 628178 625557 612682 594599 575488 558734 547122 
3408.867 541449 541681 546193 553127 561454 571109 583517 600505 623201 
3413.207 650676 679480 704138 719704 722857 713796 696439 677522 664116 
3417.546 661428 671947 694215 723255 752363 774436 783298 774801 748712 
3421.886 708486 660498 614341 580399 565999 574592 602960 642480 680343 
3426.225 704636 708054 691029 661295 630965 612483 613246 633023 663950 
3430.565 694182 711572 708254 683164 641351 592243 545098 507545 483661 
3434.905 474241 477724 491092 511692 536240 561454 584314 602363 614076 
3439.244 620181 622106 622073 621873 621542 619982 615270 605880 592144 
3443.584 576218 561587 551966 549610 554951 566431 580863 595329 607539 
3447.923 617129 625125 633388 643840 658242 677290 700886 727403 753956 
3452.263 776792 791730 795481 787049 768494 744994 722757 708320 706229 
3456.603 716916 737692 764113 791165 815166 835349 853277 871636 893217 
3460.942 919514 950063 982607 1013393 1038402 1053713 1055839 1042919 
3464.800 1015053 975102 928745 883854 848529 829507 829839 847799 877612 
3469.139 911213 940467 960357 968294 965903 956273 942824 928214 913039 
3473.479 897035 879405 860083 839566 819415 800925 784327 769324 754387 
3477.818 737493 717447 693784 666903 639560 614872 596524 588262 591978 
3482.158 608402 635677 670354 708884 747882 786053 822801 858622 893284 
3486.498 924661 948668 959959 953915 928446 885813 832528 776427 725246 
3490.837 684027 652534 627382 602795 574460 540785 504858 472848 453211 
3495.177 451719 470824 507943 556710 608170 653762 687877 707457 712867 
3499.516 707623 697202 688042 687146 700952 733046 783000 845342 910981 
3503.856 968194 1006917 1021629 1011832 982275 940134 894114 850986 814701 
3508.196 786518 764743 746886 730623 715455 702645 693917 690365 691925 
3512.535 695974 699525 699193 692689 680542 664912 649249 636474 628443 
3516.875 624594 623533 623698 624893 629339 640953 663717 699824 747517 
3521.214 801157 850853 887174 902248 893881 866324 828478 790667 760760 
3525.554 742771 735767 735668 737361 736398 731021 720932 707059 690200 
3529.894 670952 649249 625291 600804 577612 558302 544402 535676 530800 
3534.233 527549 524231 520582 518227 520317 528909 545165 566928 590518 
3538.573 611853 627813 637436 643110 649448 661793 685686 724682 779050 
3542.912 845940 918252 986326 1038402 1063545 1055208 1013127 944617 863303 
3547.252 785987 726906 695078 692489 715621 756645 806867 858389 904905 
3551.592 942193 967829 979585 976430 957701 924594 880866 833026 789771 
3555.931 758503 744165 747152 761988 779415 790070 786751 768295 738688 
3560.271 706395 680874 668131 671084 689038 720168 763781 821905 898463 
3564.610 996455 1114068 1240253 1352082 1421388 1424313 1354907 1229055 
3568.468 1077429 930970 810419 725678 676062 654426 650975 657213 666936 
3572.807 677655 689901 704968 723786 745592 768029 788809 806501 821739 
3577.147 836545 853343 873396 896073 918485 936648 946643 945979 934025 
3581.487 911944 881563 845940 807597 769855 735867 710311 697965 703806 
3585.826 730822 777788 837740 897600 942824 964641 962483 943289 917688 
3590.166 896205 886079 891026 910317 939570 970652 993898 1000872 986824 
3594.505 953317 907826 861510 825523 807199 809058 828810 860547 896670 
3598.845 930073 955044 967862 967198 953185 927251 891989 850787 808095 
3603.185 768992 738920 722392 722326 738887 768494 804211 836279 855601 
3607.524 855800 837142 806800 777025 759532 762055 786385 828843 881397 
3611.864 933693 976031 1000706 1006651 999012 988020 984367 996356 1027740 
3616.203 1078226 1142671 1211910 1273782 1314127 1320973 1288537 1220316 
3620.061 1127722 1026046 930206 851119 794086 760926 749674 756313 775797 
3624.400 804012 839333 882925 939968 1017179 1120679 1251385 1396988 1528875 
3628.740 1611045 1620357 1563390 1468096 1363416 1265607 1179581 1102774 
3632.597 1029999 957667 885813 818751 763217 724748 705101 702247 711207 
3636.937 726773 745293 765972 790037 819714 856065 896903 937578 972179 
3641.277 995226 1004492 1001902 992603 983005 978788 983736 999278 1026113 
3645.616 1064874 1117423 1186426 1273616 1377277 1488111 1589296 1659204 
3649.474 1678197 1639281 1550654 1433455 1311468 1203935 1121543 1066999 
3653.331 1038833 1031759 1037372 1043350 1035180 1000208 933626 842255 
3657.188 742771 653895 588892 555516 555051 583484 633985 698563 768992 
3661.528 838404 901518 954214 992835 1014289 1017212 1002599 975367 944020 
3665.868 919780 913737 935486 989880 1075802 1182040 1289102 1370396 1403038 
3670.207 1381565 1322436 1253744 1200247 1177721 1191775 1240918 1316221 
3674.065 1401143 1467664 1483489 1432956 1332140 1218854 1123935 1062316 
3677.922 1032390 1025050 1027309 1027740 1019105 1000208 975932 954911 
3681.780 945082 951723 974637 1009142 1047203 1080053 1101279 1108919 
3685.637 1106029 1099884 1100582 1119815 1166923 1243775 1340981 1439273 
3689.494 1514643 1548393 1533563 1474745 1384856 1280262 1177189 1087627 
3693.352 1019172 975068 955243 957701 979186 1015352 1061087 1110813 1159116 
3697.691 1201543 1234803 1257233 1267402 1264212 1246633 1213272 1163833 
3701.549 1100150 1027475 953483 887075 835947 805107 796377 808327 836644 
3705.888 874956 916957 957402 993134 1024485 1053215 1081216 1108089 1130047 
3710.228 1139947 1131642 1103239 1060921 1017013 984467 971183 978090 999743 
3714.568 1029633 1059592 1084172 1100249 1106029 1102442 1091646 1077363 
3718.425 1063877 1056204 1059028 1075901 1107923 1152737 1203470 1250089 
3722.282 1281758 1290863 1275676 1240851 1195363 1149780 1112939 1089022 
3726.140 1077462 1073277 1069989 1062083 1046904 1024751 997418 967929 
3729.997 940533 921407 918651 942359 1001238 1098721 1229321 1379338 1526514 
3734.337 1644836 1710928 1712192 1654781 1561694 1462212 1376346 1310538 
3738.194 1260623 1219519 1181243 1144465 1112673 1092177 1090184 1110913 
3742.052 1155196 1218887 1292791 1360558 1404966 1416036 1400977 1377875 
3745.909 1364015 1370496 1401409 1459253 1544469 1656111 1784949 1912493 
3749.767 2012013 2053292 2018238 1909065 1748818 1570839 1406263 1273815 
3753.624 1177555 1112507 1069557 1041125 1023091 1015684 1021928 1045509 
3757.481 1086597 1140080 1194632 1236432 1253179 1239755 1199982 1146060 
3761.339 1093207 1054212 1038036 1049329 1087461 1147056 1218024 1285181 
3765.196 1332107 1347396 1328883 1283253 1222642 1160777 1109717 1077130 
3769.054 1065737 1071782 1087726 1104368 1115563 1119483 1116593 1107823 
3772.911 1093473 1072414 1043749 1008810 971515 938042 915862 910549 923565 
3777.251 950794 984367 1013127 1027408 1023556 1006153 986293 975201 980515 
3781.590 1003961 1041358 1085135 1126193 1155129 1164066 1148950 1110315 
3785.448 1053115 985097 915264 852081 802319 770784 759233 765407 783431 
3789.787 805140 821373 824328 810717 781074 741277 699359 665144 646860 
3794.127 650908 679746 732116 802186 879073 951690 1011699 1056902 1090251 
3798.467 1118287 1147422 1181774 1221811 1262550 1294452 1307114 1296247 
3802.324 1267236 1230949 1197456 1172471 1157654 1151807 1151375 1150279 
3806.181 1142272 1121111 1084770 1036641 983769 933527 890727 858257 836445 
3810.521 824096 819581 820377 825755 837109 858290 895442 955841 1043649 
3814.861 1156225 1279897 1392202 1471920 1511950 1520728 1516439 1516406 
3818.718 1534494 1577091 1641643 1712325 1763290 1769811 1722837 1635224 
3822.575 1530271 1428834 1341978 1274646 1226762 1196526 1180545 1174697 
3826.433 1174531 1175528 1175295 1172604 1168551 1164398 1161740 1161342 
3830.290 1163202 1166192 1168551 1169880 1171010 1174133 1182671 1200181 
3834.148 1228789 1269130 1319311 1375249 1430463 1476740 1504935 1507661 
3838.005 1480697 1425742 1351052 1269229 1192506 1131708 1092742 1076267 
3841.863 1078359 1092011 1107126 1113935 1104900 1077197 1032589 976961 
3845.720 917854 863801 821772 798867 800228 829573 888004 973973 1084106 
3850.060 1213206 1356868 1510421 1668584 1821847 1952598 2036147 2053192 
3853.917 2004955 1912327 1798224 1678563 1560231 1446154 1338788 1241084 
3857.774 1157687 1092908 1049528 1029102 1030563 1050724 1084106 1124865 
3861.632 1166624 1204600 1235933 1259327 1273915 1278767 1272553 1255638 
3865.489 1231049 1205863 1189084 1190844 1221413 1289235 1397420 1537553 
3869.347 1686080 1807141 1870129 1865604 1803780 1703310 1580383 1447484 
3873.204 1313495 1186858 1076200 988850 928811 896106 888901 904805 942459 
3877.544 1000673 1077562 1167820 1262052 1345435 1402008 1420623 1400911 
3881.401 1352614 1291727 1232444 1183867 1149448 1128386 1116327 1106760 
3885.259 1093207 1071948 1043151 1009640 975367 943555 916592 897367 889067 
3889.598 895375 918485 956273 1001337 1041723 1066468 1070653 1056769 
3893.456 1033453 1011234 999610 1004725 1028936 1071085 1127954 1195131 
3897.313 1267335 1339386 1404667 1455662 1485185 1488709 1466434 1425410 
3901.170 1377643 1335131 1306716 1293555 1288371 1276773 1244473 1184598 
3905.028 1101047 1006717 917489 847201 802684 784693 788576 807398 833026 
3909.367 859020 881464 897733 906432 906830 898596 881995 858954 833225 
3913.707 808659 790468 782103 785655 801589 829241 866889 913537 967729 
3918.047 1027375 1088723 1146491 1194599 1227726 1243775 1244739 1235235 
3921.904 1221080 1207258 1195596 1185396 1173369 1156491 1133668 1106926 
3925.761 1080585 1058961 1045144 1039697 1041524 1048299 1058397 1071018 
3929.619 1086331 1105797 1129283 1156458 1184332 1208554 1225234 1231182 
3933.476 1225300 1209052 1184864 1156093 1126160 1097725 1073177 1053547 
3937.334 1038767 1027043 1016116 1003795 988219 970154 951690 936150 927284 
3941.673 927284 936216 950893 967231 981544 991905 999378 1006219 1015485 
3946.013 1028670 1045044 1062150 1076134 1083574 1083342 1076931 1068162 
3949.870 1060921 1058164 1059825 1063877 1066966 1065571 1058430 1046107 
3953.728 1032025 1019105 1010703 1007448 1008145 1009706 1008843 1003762 
3957.585 994994 985131 978256 977659 984732 997684 1012264 1023190 1025947 
3961.925 1018441 1002167 981444 961453 946875 939968 939902 943355 945746 
3966.264 942725 930903 909354 879604 845574 812742 786817 772743 774037 
3970.604 791066 821639 860913 902348 938939 965172 977692 976131 963313 
3974.944 943986 924063 908656 901617 904307 915629 932099 949266 961719 
3979.283 964874 956074 935951 907627 877015 850554 833656 828378 833822 
3983.623 845740 859319 870640 878907 886643 898895 920543 954778 1000739 
3987.962 1053547 1104701 1144897 1166657 1166325 1145030 1108022 1064076 
3991.820 1021530 987555 966401 959261 964442 978721 998680 1021430 1045675 
3996.159 1070653 1096263 1121310 1143369 1158019 1160245 1145727 1112275 
4000.017 1061884 1000806 
##END=
