##TITLE=mas_6 Sep 21 08:09:20 2026 (GMT+02:00)
##JCAMP-DX=5.01  $$ Nicolet v. 970
##DATATYPE=INFRARED SPECTRUM
##ORIGIN=Vojna akademija
##OWNER=Nicolet
##LONGDATE=2026/09/21
##TIME=08:10:35
##SPECTROMETER/DATA SYSTEM=Nicolet iS20
##DATA PROCESSING=
Ratio against background
%Transmittance->Absorbance
Truncated
ElementMultiply or ElementDivide
##COMMENTS=
Number of sample scans: 8
Collection length: 11,90 sec
Sample gain: 8,0
Background collected on: Mon Sep 21 08:08:20 2026 (GMT+02:00);
Number of background scans: 8
Background gain: 8,0
Sample spacing:  1,000
Number of scan points: 12415
Resolution points: 8286
Number of FFT points: 65536
Apodization: N-B strong;
Phase correction: Mertz;
Laser frequency: 15798,00 cm-1
Number of rejected sample scans: 0
Number of rejected background scans: 0
Bench serial number: BER2010005;
##RESOLUTION= 4,000
##XUNITS=1/CM
##YUNITS=ABSORBANCE
##FIRSTX=400.156891
##LASTX=4000.123047
##FIRSTY=0.029943
##MAXX=4000.123047
##MINX=400.156891
##MAXY=0.227272
##MINY=-0.000412
##XFACTOR=1.000000
##YFACTOR=1.000000E-009
##NPOINTS=7468
##DELTAX=0.482117
##ZPD=6100
##XYDATA=(X++(Y..Y))
400.157 29942834 31242768 31281900 30364448 28916314 27390262 26154542 
403.532 25488434 25523852 26246470 27490254 28963596 30303228 31153584 
406.907 31306256 30735790 29630378 28330834 27282038 26890336 27380100 
410.281 28741894 30730172 32980726 35083016 36710804 37668764 37912284 
413.656 37543968 36762364 35785276 34772832 33828252 33000354 32314320 
417.031 31809550 31549830 31606168 32013274 32703228 33504862 34218232 
420.406 34715152 34950484 34938992 34723984 34366500 33950408 33576344 
423.781 33361934 33394926 33694848 34198304 34779116 35293064 35621600 
427.155 35713684 35588764 35326024 35022672 34764756 34596332 34517864 
430.530 34510548 34567340 34711492 34995016 35471324 36161648 37029804 
433.905 37989988 38918164 39691168 40239684 40567220 40758432 40937088 
437.280 41219896 41661616 42247648 42901324 43515656 43969544 44147620 
440.655 43963824 43367640 42362848 41014720 39464252 37896808 36495200 
444.030 35398488 34655972 34234044 34048088 34014400 34077364 34229528 
447.404 34495876 34902292 35439468 36055280 36662560 37180984 37572144 
450.779 37857872 38116432 38449612 38928240 39541112 40182836 40691400 
454.154 40920780 40780628 40275636 39490088 38574708 37695072 36989428 
457.529 36533004 36321528 36292856 36383604 36574456 36894332 37399812 
460.904 38134484 39098788 40220492 41361028 42325152 42932452 43072928 
464.278 42739440 42036544 41169224 40406024 39992424 40096812 40720072 
467.653 41682660 42658136 43296504 43345016 42713300 41511172 40015092 
471.028 38612656 37658540 37395984 37865608 38911676 40248300 41584744 
474.403 42722072 43543164 43994368 44034700 43614852 42703796 41332528 
477.778 39640564 37855376 36260076 35107980 34540792 34571936 35082728 
481.152 35868792 36678316 37296612 37588768 37509144 37092196 36417328 
484.527 35576752 34647828 33687152 32730524 31800672 30920870 30122072 
487.902 29448648 28958424 28704690 28719378 28990728 29454642 29998644 
491.277 30482508 30784338 30827626 30612934 30214700 29766866 29414574 
494.652 29273198 29416702 29859350 30559324 31422182 32325954 33134044 
498.027 33729584 34046544 34078548 33888644 33589088 33333526 33263266 
501.401 33460266 33916908 34535376 35171496 35695916 36053088 36266272 
504.776 36410588 36555208 36720900 36852240 36842968 36579432 36017912 
508.151 35218676 34341864 33576092 33068962 32868206 32905768 33021376 
511.526 33028204 32800450 32308892 31635568 30926314 30343840 30002620 
514.901 29947272 30150944 30537496 31006624 31456880 31811830 32014132 
518.276 32030006 31850870 31498276 31026162 30507176 30021154 29622040 
521.650 29326226 29114402 28949678 28801302 28669470 28588564 28617938 
525.025 28810152 29176978 29672168 30204578 30679498 31033386 31264096 
528.400 31419120 31568538 31762454 32012242 32283406 32519638 32669078 
531.775 32717842 32696300 32668326 32697764 32818496 33019800 33251460 
535.150 33444020 33535250 33495520 33328552 33061094 32725736 32350726 
538.524 31954534 31551578 31161346 30810340 30529356 30348032 30281842 
541.899 30328880 30470672 30679248 30923290 31170778 31390518 31544592 
545.274 31591092 31493608 31235966 30839544 30366722 29919584 29604340 
548.649 29509962 29679156 30090644 30660652 31264808 31782028 32116550 
552.024 32227912 32132748 31895156 31602568 31342722 31185624 31161096 
555.398 31255942 31417660 31571600 31633034 31530734 31227564 30728394 
558.773 30084074 29378340 28718176 28203176 27910234 27879108 28102810 
562.148 28529540 29074296 29646482 30158864 30550152 30793302 30889668 
565.523 30862382 30743510 30564016 30345368 30103498 29855906 29628320 
568.898 29460848 29402130 29493330 29758136 30189304 30750480 31382472 
572.273 32022872 32621782 33149812 33603300 33995120 34344624 34665516 
575.647 34961832 35228092 35454496 35628180 35734836 35756132 35666956 
579.022 35443424 35073568 34575164 34001108 33438940 32989234 32727954 
582.397 32688796 32851052 33153032 33508800 33840896 34101128 34273124 
585.772 34366212 34397128 34374320 34294244 34149588 33944640 33704336 
589.147 33475802 33311952 33249066 33289772 33395174 33498238 33522938 
592.521 33418256 33172988 32815494 32395278 31967480 31577554 31253662 
595.896 31014630 30871738 30830402 30885328 31012922 31166116 31272996 
599.271 31258006 31060932 30662890 30097780 29447232 28816064 28292286 
602.646 27931258 27735652 27662408 27636276 27580630 27440942 27198252 
606.021 26873344 26518072 26200538 25980558 25899344 25965046 26151832 
609.396 26402460 26642630 26800174 26814728 26660492 26351302 25941760 
612.770 25508496 25135276 24890044 24804646 24869798 25036072 25234082 
616.145 25388236 25444480 25386444 25235488 25038108 24847484 24701764 
619.520 24608936 24547470 24478302 24366734 24198370 23990150 23783222 
622.895 23631036 23570864 23607036 23704270 23801072 23831522 23751862 
626.270 23561522 23304102 23054100 22884010 22848838 22967214 23222336 
629.644 23573592 23976286 24395192 24810506 25217648 25618038 26009790 
633.019 26383800 26722858 27005408 27210986 27319264 27311784 27171690 
636.394 26885682 26453554 25894664 25254590 24595960 23989800 23496918 
639.769 23150548 22953204 22880378 22898226 22973256 23087856 23236774 
643.144 23419206 23626944 23838910 24022472 24147856 24200646 24192520 
646.519 24155946 24136892 24175074 24288904 24472972 24703028 24948610 
649.893 25183904 25395332 25575688 25716848 25803936 25813994 25726904 
653.268 25536750 25261158 24940468 24625278 24364492 24186494 24093600 
656.643 24064460 24067788 24075282 24071114 24055214 24037634 24030106 
660.018 24038650 24060784 24088662 24113110 24125614 24122566 24101586 
663.393 24063024 24009270 23947118 23888758 23851964 23861068 23942496 
666.767 24114614 24367364 24637656 24824890 24847204 24704990 24462210 
670.142 24192064 23943476 23745948 23618162 23571494 23616134 23754838 
673.517 23977826 24258946 24557394 24826048 25018662 25107612 25093956 
676.892 25011466 24916712 24875482 24942856 25147072 25486116 25930048 
680.267 26434646 26947798 27425272 27834098 28151488 28366414 28480784 
683.642 28512910 28498756 28488460 28534634 28670850 28903850 29205754 
687.016 29524964 29799228 29982026 30058790 30051014 30004750 29972336 
690.391 29994382 30086382 30241520 30438578 30657096 30884440 31119768 
693.766 31369898 31641054 31931602 32230802 32520066 32779794 32994382 
697.141 33154820 33259690 33313562 33326406 33311096 33284408 33263694 
700.516 33263088 33294424 33366300 33487826 33674296 33948148 34338136 
703.890 34871668 35561576 36397940 37342648 38339068 39319384 40229760 
707.265 41043816 41767284 42428492 43060964 43685304 44298952 44879740 
710.640 45402328 45857860 46267832 46684316 47173184 47800212 48607144 
714.015 49603628 50769848 52070868 53472320 54951144 56502224 58129468 
717.390 59836332 61617896 63452384 65302132 67118184 68837560 70392176 
720.765 71713512 72737400 73420608 73746592 73729744 73404992 72818072 
724.139 72009584 71006960 69830792 68503208 67056352 65542588 64023288 
727.514 62558264 61195012 59953852 58827200 57783648 56781156 55773516 
730.889 54724640 53615840 52446968 51240444 50035960 48890504 47861252 
734.264 46994784 46313208 45805096 45425212 45103400 44767912 44356636 
737.639 43837868 43214660 42518376 41793004 41076196 40390092 39733832 
741.013 39090628 38438172 37764648 37076464 36401472 35779376 35254288 
744.388 34856012 34588436 34424888 34314216 34195828 34013972 33738356 
747.763 33370450 32943156 32504856 32107380 31786234 31550758 31387742 
751.138 31270434 31174588 31086274 31007052 30945562 30909164 30893796 
754.513 30881484 30847762 30773456 30655210 30510268 30367896 30258324 
757.888 30194384 30165968 30139864 30077646 29953378 29768604 29555216 
761.262 29365824 29254166 29249842 29349518 29515494 29692710 29824212 
764.637 29875816 29843910 29754694 29648682 29566068 29533972 29557626 
768.012 29622856 29700764 29759556 29767220 29697924 29536242 29276532 
771.387 28926408 28506682 28051308 27597930 27183648 26836404 26567948 
774.762 26374574 26238692 26137088 26046906 25952804 25849930 25744446 
778.136 25649496 25580714 25551648 25567710 25623274 25699378 25767932 
781.511 25793492 25742442 25593048 25342570 25013256 24647160 24303270 
784.886 24038264 23893588 23886832 24004752 24205902 24430558 24621666 
788.261 24733894 24749116 24677880 24555498 24427402 24332742 24293774 
791.636 24306844 24345954 24372658 24355694 24281544 24163758 24037528 
795.010 23950270 23942776 24034134 24215116 24453060 24704536 24926888 
798.385 25093920 25200092 25256592 25282018 25293292 25300070 25303160 
801.760 25301264 25295822 25294134 25309168 25352580 25428880 25531620 
805.135 25644082 25743180 25806048 25817684 25774084 25682362 25558292 
808.510 25424560 25307166 25232748 25227692 25312574 25498484 25784668 
811.885 26156866 26588696 27043632 27484676 27874798 28183412 28390398 
815.259 28484180 28464226 28339500 28132080 27873420 27603262 27365276 
818.634 27196628 27124744 27165024 27319544 27581900 27937796 28368114 
822.009 28846304 29339344 29809840 30216584 30526512 30719824 30797570 
825.384 30780782 30706026 30614144 30535932 30489260 30475718 30485564 
828.759 30504296 30518976 30522104 30509840 30482508 30443980 30403182 
832.133 30376140 30384454 30451552 30591816 30803120 31061538 31327054 
835.508 31550936 31696048 31749908 31730514 31678866 31645260 31671348 
838.883 31773650 31942408 32147270 32353368 32531996 32671828 32777294 
842.258 32861986 32938472 33012614 33081762 33139442 33179782 33202420 
845.633 33213616 33225026 33250388 33303044 33395640 33536754 33729724 
849.008 33968432 34235476 34504020 34741320 34920784 35031220 35082976 
852.382 35104604 35135068 35206028 35328824 35490664 35660912 35806144 
855.757 35904028 35955820 35983284 36019928 36091972 36208572 36356724 
859.132 36509544 36636712 36719708 36758904 36771236 36781656 36811920 
862.507 36874276 36968248 37084256 37209464 37333332 37448424 37550796 
865.882 37638196 37709708 37766524 37813336 37858052 37909140 37972996 
869.256 38050532 38138792 38232892 38331936 38441284 38571340 38731892 
872.631 38925084 39139684 39351380 39532040 39655884 39713208 39711720 
876.006 39674504 39628004 39593956 39581980 39588800 39604228 39616936 
879.381 39620380 39612796 39595264 39568512 39532980 39492012 39455216 
882.756 39442588 39479384 39590800 39792184 40081840 40439952 40832756 
886.131 41225256 41584308 41888268 42123428 42278692 42344032 42309628 
889.505 42173884 41950156 41672448 41391092 41156584 41008276 40957408 
892.880 40984860 41046076 41089452 41074776 40983660 40825912 40630960 
896.255 40437372 40277456 40173024 40131952 40151288 40220676 40325300 
899.630 40447224 40562380 40644276 40667160 40611532 40471408 40258004 
903.005 39998200 39726352 39479420 39288120 39169060 39125072 39144616 
906.379 39205428 39278652 39336728 39358380 39334368 39270528 39186136 
909.754 39109880 39067392 39072976 39121704 39190308 39240424 39232992 
913.129 39140992 38956216 38693024 38383116 38068400 37788392 37575180 
916.504 37448100 37411336 37453916 37553796 37682496 37809032 37908992 
919.879 37970608 37996824 38004456 38016460 38053168 38121064 38210712 
923.254 38298784 38360276 38376708 38346560 38284784 38218060 38172180 
926.628 38163500 38196348 38265276 38363136 38486864 38638624 38821812 
930.003 39031540 39250400 39446436 39584120 39639404 39611308 39527936 
933.378 39439540 39405940 39472452 39658424 39951228 40314392 40697476 
936.753 41053976 41353664 41581428 41736752 41827224 41864840 41864768 
940.128 41847764 41842256 41878960 41987380 42186888 42478916 42845700 
943.502 43254152 43667316 44051096 44386140 44669116 44910120 45127260 
946.877 45339616 45564068 45810656 46083944 46382772 46701436 47031004 
950.252 47361004 47682604 47990160 48283524 48568752 48855800 49155688 
953.627 49478656 49832784 50223728 50656716 51137444 51671096 52262016 
957.002 52911900 53618312 54376680 55181600 56028532 56914024 57833272 
960.377 58775944 59722944 60648620 61522444 62318160 63023084 63640132 
963.751 64187384 64689024 65168216 65637344 66096016 66532584 66929272 
967.126 67266592 67525856 67692016 67752744 67702200 67544792 67298704 
970.501 66996148 66676080 66378056 66127696 65931848 65777688 65640816 
973.876 65493688 65315416 65097348 64840452 64548724 64223720 63862084 
977.251 63457912 63010208 62526844 62025828 61531528 61066740 60643516 
980.625 60260060 59900948 59545320 59173312 58774844 58353128 57923868 
984.000 57510880 57139632 56833764 56607372 56463128 56390080 56366616 
987.375 56362576 56346884 56296752 56201480 56066760 55910256 55756068 
990.750 55622844 55517740 55434836 55359140 55274164 55170012 55047532 
994.125 54917412 54793312 54685184 54595824 54520084 54449916 54379236 
997.500 54307928 54241548 54188164 54152920 54136408 54135544 54148040 
1000.874 54176608 54231296 54326924 54478128 54690892 54959152 55262196 
1004.249 55570876 55854372 56085800 56250436 56345680 56381404 56375252 
1007.624 56353412 56344884 56375368 56464788 56619604 56830212 57073156 
1010.999 57319452 57544544 57737704 57906980 58075112 58269416 58507064 
1014.374 58787400 59090432 59386344 59645356 59852572 60011372 60139336 
1017.748 60255608 60372144 60486384 60585380 60655060 60691372 60705392 
1021.123 60722424 60770788 60870116 61023036 61214888 61420484 61612052 
1024.498 61772112 61895548 61987912 62060224 62123376 62183820 62244312 
1027.873 62305424 62367192 62429356 62490340 62544600 62584400 62599288 
1031.249 62580420 62522180 62423544 62286148 62114624 61916032 61701528 
1034.624 61488772 61300544 61160412 61087864 61088592 61152288 61253460 
1037.999 61362476 61452812 61512784 61547868 61577000 61621868 61696524 
1041.374 61802712 61930588 62066344 62199612 62329440 62462948 62609620 
1044.750 62772996 62948504 63124344 63290096 63443036 63592872 63758732 
1048.125 63961700 64213888 64513160 64843372 65183348 65514916 65831816 
1051.500 66140464 66455588 66791804 67156352 67547296 67955808 68373032 
1054.875 68793688 69217976 69649752 70091432 70541240 70992832 71438456 
1058.251 71869912 72280504 72662032 73001528 73280392 73477584 73578600 
1061.626 73585160 73519104 73421592 73344848 73333824 73418136 73605408 
1065.001 73883144 74225392 74603600 74994264 75378976 75745488 76084112 
1068.376 76387768 76654048 76887656 77101080 77311528 77535040 77782272 
1071.752 78056744 78359600 78696424 79080768 79534336 80077016 80715768 
1075.127 81435072 82198840 82958592 83670536 84315320 84903936 85472776 
1078.502 86065344 86715480 87432400 88201168 88992360 89779856 90553608 
1081.877 91321336 92100256 92905688 93741232 94598040 95463720 96333408 
1085.253 97216280 98133888 99108168 100146736 101236224 102346528 103442896 
1088.628 104501416 105519600 106513160 107502536 108495496 109477096 
1091.521 110411984 111260872 111993696 112605400 113113520 113547752 
1094.414 113931144 114272464 114564520 114794280 114953992 115048600 
1097.307 115092352 115100552 115079392 115022472 114915360 114745080 
1100.200 114506984 114204784 113842856 113417976 112915808 112319376 
1103.093 111623360 110851040 110055464 109315376 108708408 108284224 
1105.986 108053296 107983392 108017680 108092520 108165072 108217224 
1108.879 108253360 108286304 108325984 108374800 108430000 108493544 
1111.772 108575512 108690192 108847512 109040824 109243824 109415528 
1114.665 109518536 109531328 109457520 109317544 109133728 108911888 
1117.558 108634704 108266288 107773176 107145592 106407016 105608792 
1120.452 104812080 104067344 103394976 102787744 102221144 101675472 
1123.345 101147800 100657616 100237040 99919960 99728616 99669672 99741160 
1126.720 99940560 100272184 100746976 101375968 102161488 103092264 
1129.613 104147904 105307952 106565576 107933096 109440384 111119712 
1132.506 112990416 115047088 117259496 119581104 121962960 124371368 
1135.399 126788768 129209936 131632504 134049776 136450016 138824400 
1138.292 141174528 143514256 145861104 148222048 150580704 152893568 
1141.185 155100848 157152608 159024080 160726752 162296160 163773808 
1144.078 165182768 166520176 167764288 168894000 169905744 170819648 
1146.971 171667328 172474272 173243072 173952592 174571440 175083824 
1149.864 175505792 175888784 176298128 176783664 177359168 177995264 
1152.757 178635360 179222080 179727328 180159424 180554224 180947728 
1155.651 181357440 181769456 182151568 182469856 182710704 182886608 
1158.544 183025424 183148048 183253072 183310544 183277744 183116480 
1161.437 182813968 182384928 181863472 181281728 180655024 179981248 
1164.330 179248160 178449376 177592352 176694960 175772416 174822816 
1167.223 173823840 172739392 171541344 170228720 168834512 167414928 
1170.116 166023680 164692400 163415392 162156416 160866912 159513056 
1173.009 158087328 156609968 155111088 153616416 152132816 150651712 
1175.902 149159424 147652208 146142784 144656560 143215664 141826992 
1178.795 140473648 139123920 137742128 136307328 134822480 133311184 
1181.688 131806880 130337744 128921760 127564776 126268744 125037488 
1184.581 123877800 122794128 121780208 120814424 119861560 118884464 
1187.474 117860888 116791848 115703728 114635048 113622976 112685280 
1190.367 111815472 110987664 110171376 109344184 108499672 107646136 
1193.260 106798176 105966592 105151912 104345080 103534784 102714032 
1196.153 101883728 101051360 100226600 99417288 98626720 97858344 97118024 
1199.529 96416312 95765416 95173496 94637832 94142464 93662832 93176208 
1202.904 92669536 92147160 91627944 91136640 90691584 90297320 89942608 
1206.279 89608320 89275584 88934936 88589880 88251504 87931736 87635792 
1209.654 87361816 87102952 86854024 86616704 86398416 86209664 86056824 
1213.030 85938040 85843384 85760424 85680704 85604344 85538816 85494080 
1216.405 85476000 85481248 85497744 85509816 85506464 85484720 85451312 
1219.780 85416952 85391168 85377904 85376328 85384920 85407312 85453576 
1223.155 85539184 85676184 85867568 86101952 86358280 86610552 86838728 
1226.531 87036176 87208968 87371664 87538504 87718912 87914288 88121032 
1229.906 88334136 88551160 88771328 88992920 89210104 89413240 89591544 
1233.281 89739608 89861064 89968328 90076528 90195712 90323096 90442192 
1236.656 90526912 90554096 90511080 90402160 90244000 90059728 89867752 
1240.032 89674832 89477280 89264672 89027376 88760432 88464664 88143568 
1243.407 87799536 87431504 87035776 86609576 86154384 85676104 85184152 
1246.782 84686072 84186032 83683792 83177560 82667064 82155648 81649752 
1250.157 81155424 80675032 80206200 79742984 79281720 78824328 78380672 
1253.533 77964944 77589944 77258840 76961896 76676616 76376120 76037256 
1256.908 75648216 75212488 74745264 74267696 73797992 73349400 72928152 
1260.283 72536328 72174432 71843088 71542408 71269992 71019912 70783824 
1263.658 70553560 70323832 70093808 69864840 69637384 69406840 69163384 
1267.034 68895216 68592528 68255032 67894088 67531664 67193632 66902912 
1270.409 66672064 66499024 66367248 66251412 66126300 65971112 65777264 
1273.784 65547748 65295860 65039152 64794832 64575320 64383520 64213776 
1277.159 64053120 63887880 63705972 63502320 63278100 63038936 62789536 
1280.535 62529796 62252416 61946524 61600980 61210992 60781304 60325920 
1283.910 59863444 59408912 58971168 58549712 58138896 57732672 57330640 
1287.285 56940956 56578084 56257376 55990308 55780296 55622692 55507388 
1290.660 55422340 55357108 55303252 55253804 55202332 55142136 55068256 
1294.036 54979156 54877820 54771624 54669360 54577264 54496868 54423288 
1297.411 54348368 54264376 54167260 54058984 53944768 53831184 53720744 
1300.786 53611340 53495480 53364068 53208688 53024572 52811084 52571932 
1304.161 52313592 52044756 51777360 51525232 51302600 51121824 50989076 
1307.536 50901408 50846504 50806908 50763740 50703300 50621124 50521320 
1310.912 50413804 50308764 50213536 50130152 50055964 49986700 49919268 
1314.287 49852224 49786148 49720380 49653884 49584160 49509364 49430496 
1317.662 49350904 49274920 49205188 49138952 49068464 48982740 48873300 
1321.037 48737680 48581164 48413524 48245312 48082384 47922888 47757716 
1324.413 47574972 47365736 47127092 46864952 46590576 46318112 46059336 
1327.788 45822512 45612244 45430360 45277568 45153616 45057308 44986116 
1331.163 44936836 44907664 44899212 44916736 44968476 45062600 45202852 
1334.538 45384416 45593656 45811800 46019476 46203996 46364784 46512500 
1337.914 46664432 46836352 47035432 47255336 47479380 47688116 47868944 
1341.289 48019396 48146536 48260492 48371888 48487500 48610328 48740680 
1344.664 48877044 49016160 49153500 49282640 49396788 49490984 49565740 
1348.039 49628028 49691144 49769316 49873032 50003692 50153096 50306644 
1351.415 50450644 50577348 50687996 50789440 50890008 50993476 51095588 
1354.790 51186984 51258900 51310020 51349440 51393148 51457636 51552540 
1358.165 51675684 51815024 51952916 52075984 52179916 52271024 52363488 
1361.540 52471268 52600020 52744036 52888880 53020040 53132100 53229060 
1364.916 53319560 53411688 53508560 53608340 53707768 53805908 53907292 
1368.291 54021984 54159228 54322308 54505736 54698036 54887860 55072880 
1371.666 55263512 55483404 55764624 56132552 56593180 57122620 57671288 
1375.041 58177384 58588960 58874132 59013332 58993824 58802384 58426844 
1378.417 57864884 57130444 56254924 55275252 54226792 53132776 52005576 
1381.792 50857488 49707672 48584352 47521404 46544472 45662188 44863644 
1385.167 44122644 43404876 42680068 41935304 41176728 40426568 39709504 
1388.542 39041800 38427780 37864560 37346656 36869660 36430264 36025116 
1391.918 35649044 35296624 34965424 34659128 34390028 34175792 34028556 
1395.293 33946216 33910244 33891472 33859988 33794332 33685144 33537432 
1398.668 33368770 33206892 33080832 33010184 33004678 33063240 33178710 
1402.043 33338140 33523760 33711892 33871984 33975380 34004368 33960904 
1405.419 33868012 33763964 33687900 33668280 33722780 33858160 34074856 
1408.794 34370700 34741284 35180012 35674328 36208352 36763844 37323836 
1412.169 37878044 38421124 38951036 39464832 39953952 40404456 40799232 
1415.544 41118700 41344880 41459696 41441908 41266428 40911460 40376824 
1418.920 39703004 38973000 38278740 37681664 37201380 36823924 36520360 
1422.295 36260256 36020832 35791716 35577796 35395356 35264568 35199020 
1425.670 35201540 35267584 35391656 35572512 35813992 36123116 36504932 
1429.045 36957352 37469408 38023732 38602084 39189652 39776712 40356168 
1432.421 40922708 41470740 41997380 42505080 43002828 43509284 44049408 
1435.796 44646456 45301988 45986988 46649452 47242960 47747396 48168600 
1439.171 48527588 48850904 49162960 49482664 49819332 50171432 50527500 
1442.546 50871236 51189556 51476920 51739060 51990336 52251700 52544596 
1445.922 52886188 53288844 53756704 54286452 54870416 55502640 56184740 
1449.297 56931516 57765140 58711568 59788300 60996572 62310284 63680536 
1452.672 65051040 66368176 67602656 68750056 69821056 70829808 71778360 
1456.047 72645976 73386904 73961472 74370440 74650344 74850480 74999744 
1459.422 75110448 75192152 75259768 75332160 75426784 75550544 75693456 
1462.798 75824272 75897232 75856112 75651888 75256176 74651368 73815040 
1466.173 72707704 71269680 69455392 67253056 64700060 61863036 58823328 
1469.548 55641636 52314976 48792100 44996628 40906472 36650628 32539710 
1472.923 28940470 26068580 23906190 22273220 20954060 19797522 18729774 
1476.299 17745058 16868860 16124010 15507573 14993040 14543662 14128908 
1479.674 13731067 13346061 12977271 12628680 12300241 11987990 11687911 
1483.049 11400727 11131204 10885971 10668280 10474524 10294969 10119253 
1486.424 9942320 9769389 9615567 9497593 9422009 9377857 9335198 9260726 
1490.282 9139330 8982178 8817170 8670545 8554754 8466022 8391462 8315935 
1494.139 8230224 8134738 8041975 7969985 7933606 7930907 7941570 7936508 
1497.997 7896185 7820812 7727541 7638877 7572551 7535329 7522349 7523226 
1501.854 7528991 7536105 7547298 7568370 7605662 7660898 7729127 7795747 
1505.712 7834138 7813222 7715366 7554277 7364804 7173157 6987722 6810747 
1509.569 6648883 6516005 6427857 6397593 6426982 6503728 6603801 6703594 
1513.426 6786278 6846493 6887527 6914661 6927521 6915637 6860765 6749393 
1517.284 6585298 6392313 6202372 6044229 5939179 5897765 5921914 6001830 
1521.141 6115127 6230774 6323084 6381721 6408117 6406503 6378662 6325001 
1524.999 6247715 6153101 6052360 5956277 5871433 5797250 5729660 5665270 
1528.856 5606159 5557661 5527088 5518665 5531652 5559708 5594546 5628883 
1532.714 5662383 5703003 5763068 5849099 5954799 6066035 6167687 6249496 
1536.571 6304863 6331490 6329338 6300929 6250169 6181836 6102123 6017116 
1540.428 5933435 5856488 5787982 5725363 5662215 5593908 5518934 5442193 
1544.286 5375229 5331151 5317130 5330849 5360972 5393949 5418507 5429276 
1548.143 5427364 5418708 5411796 5412099 5419446 5428706 5434342 5435315 
1552.001 5436993 5448971 5481149 5537323 5610254 5682861 5737416 5762598 
1555.858 5760684 5745071 5739330 5771294 5865488 6019669 6179349 6259009 
1559.715 6228421 6127964 6007810 5894104 5792918 5703272 5623982 5556788 
1563.573 5507624 5483431 5487994 5517356 5561151 5607132 5647982 5684774 
1567.430 5726202 5783382 5861996 5952885 6029379 6059617 6025918 5937500 
1571.288 5821596 5709013 5621028 5569340 5554674 5571085 5607669 5654092 
1575.145 5704547 5759509 5822939 5894675 5967833 6032369 6080685 6111901 
1579.003 6129813 6140667 6149942 6160226 6170207 6176224 6174342 6163083 
1582.860 6144297 6121882 6100006 6080685 6064825 6052796 6047454 6054410 
1586.717 6080047 6127863 6194709 6269632 6337003 6381453 6396550 6387068 
1590.575 6368339 6357748 6369415 6406605 6462596 6524347 6579647 6623516 
1594.432 6658539 6691245 6725534 6758816 6782610 6787221 6769013 6734216 
1598.290 6697604 6676743 6682328 6714193 6758850 6796745 6810141 6792875 
1602.147 6752927 6709180 6681184 6680343 6705647 6746802 6789812 6826701 
1606.005 6859082 6896145 6949136 7023449 7114783 7210516 7295858 7362209 
1609.862 7410976 7452502 7500437 7564763 7648657 7749128 7861736 7984058 
1613.719 8119006 8273111 8452170 8655943 8872154 9076226 9244344 9368783 
1617.577 9465251 9557236 9664520 9792740 9936896 10087103 10234105 10375320 
1621.434 10514239 10660877 10826077 11014993 11220210 11426409 11618650 
1624.809 11789900 11940954 12075298 12194724 12296082 12373566 12422729 
1628.185 12447210 12459281 12475444 12509886 12566090 12637106 12706530 
1631.560 12756891 12771120 12738978 12657335 12531576 12375441 12212035 
1634.935 12075298 11998448 11995961 12050532 12125858 12185523 12206481 
1638.310 12180411 12107187 11995143 11858304 11716436 11588124 11486794 
1641.686 11417360 11375080 11350795 11335116 11324504 11321648 11335625 
1645.061 11378957 11462366 11588803 11749456 11924879 12096455 12254398 
1648.436 12397772 12527449 12642632 12740957 12821010 12886437 12952897 
1651.811 13052554 13235780 13533719 13897781 14211752 14404065 14490078 
1655.187 14521221 14540476 14573848 14630971 14708667 14796009 14879907 
1658.562 14952365 15013002 15070870 15139002 15230344 15350537 15496654 
1661.937 15658243 15823774 15987204 16151899 16325016 16512968 16717494 
1665.312 16936758 17168336 17413280 17676722 17964428 18278864 18610266 
1668.688 18930744 19202068 19392620 19499000 19547072 19578092 19625374 
1672.063 19704350 19815384 19949828 20098818 20258310 20431128 20623538 
1675.438 20834496 21050180 21248850 21411516 21530890 21610702 21664266 
1678.813 21709196 21764444 21841720 21942846 22061844 22193254 22341762 
1682.189 22529298 22792966 23170398 23657698 24171920 24585934 24836432 
1685.564 24959244 25037230 25141034 25316438 25586056 25952418 26405418 
1688.939 26929360 27512634 28148410 28832176 29552200 30284790 31001036 
1692.314 31677548 32307036 32910414 33538326 34265956 35165896 36259644 
1695.690 37465364 38622252 39588732 40332936 40922748 41481312 42141060 
1699.065 43021088 44182140 45555164 46940476 48143312 49106564 49895628 
1702.440 50605748 51309240 52053532 52870584 53787864 54826168 55989104 
1705.815 57248904 58548768 59823060 61022348 62128920 63157872 64147324 
1709.191 65143348 66180864 67271112 68399600 69538336 70661504 71766000 
1712.566 72874656 74027600 75262840 76594400 78000232 79437008 80867536 
1715.941 82303720 83814456 85508320 87440256 89541120 91636120 93549752 
1719.316 95207160 96647792 97973760 99301240 100725328 102304008 104051848 
1722.692 105945616 107944224 110007736 112118456 114279096 116498416 
1725.585 118776656 121105528 123482880 125937176 128538448 131389944 
1728.478 134588512 138172512 142074720 146132656 150136256 153948176 
1731.371 157577952 161222176 165230624 170035808 175937584 182766208 
1734.264 189759952 195983120 200973600 204882240 208120848 211049072 
1737.157 213873200 216651760 219331520 221786048 223885776 225532816 
1740.050 226674736 227271776 227259568 226549216 225075168 222841040 
1742.943 219951488 216580048 212910256 209040832 204962464 200583456 
1745.836 195800752 190566736 184926480 178989312 172890768 166709328 
1748.729 160431536 153957488 147188208 140117968 132881600 125749560 
1751.622 119018720 112896168 107433960 102552544 98093808 93873520 89718872 
1754.997 85486576 81086528 76521048 71901896 67424264 63292436 59626348 
1758.373 56433168 53628020 51082392 48661548 46259172 43825736 41384136 
1761.748 39026068 36868544 34998428 33436648 32144878 31051714 30083646 
1765.123 29178572 28292286 27400816 26500112 25605348 24744486 23949884 
1768.498 23243730 22630026 22094544 21612792 21156688 20701100 20233280 
1771.874 19757158 19294096 18872048 18509258 18207920 17958730 17748232 
1775.249 17563162 17392070 17224524 17052394 16868962 16671250 16458556 
1778.624 16234236 16004084 15774947 15553864 15345182 15147751 14956309 
1781.999 14763408 14562027 14346971 14115353 13867334 13605748 13335913 
1785.375 13064369 12798760 12545763 12311080 12098704 11909315 11741252 
1788.750 11589552 11448010 11310731 11174107 11037390 10902211 10770097 
1792.125 10639959 10507619 10369449 10224539 10077065 9933709 9801313 
1795.500 9682849 9576543 9476122 9373219 9261809 9140853 9015058 8893494 
1799.358 8784609 8693295 8617749 8552185 8490146 8427507 8363425 8297630 
1803.215 8226881 8144563 8042447 7914811 7763464 7599424 7440367 7304012 
1807.073 7201285 7130849 7077802 7019139 6934591 6813945 6663048 6500331 
1810.930 6350217 6232186 6152396 6105282 6079274 6064456 6056661 6057467 
1814.787 6070403 6096209 6130619 6163923 6184794 6185332 6162713 6119630 
1818.645 6060625 5989433 5908109 5818540 5725228 5636737 5563501 5514101 
1822.502 5490242 5483296 5475009 5444643 5376839 5271180 5143316 5018808 
1826.360 4918027 4849469 4808157 4781155 4754857 4720791 4680563 4643455 
1830.217 4620280 4613482 4616731 4618874 4611272 4592017 4565563 4539279 
1834.075 4519726 4507707 4497295 4477442 4438878 4377557 4298040 4210675 
1837.932 4128011 4059343 4007372 3970254 3944474 3928258 3923175 3934075 
1841.789 3966509 4025163 4112591 4228006 4368119 4526020 4690813 4847625 
1845.647 4979559 5068586 5100267 5066139 4966521 4811340 4621452 4423279 
1849.504 4240921 4092121 3985034 3920300 3895492 3907628 3952532 4021552 
1853.362 4100783 4172135 4217267 4224293 4191472 4127510 4046400 3964135 
1857.219 3891280 3829936 3776255 3724886 3674058 3627479 3592632 3575393 
1861.077 3577297 3592565 3611976 3627980 3638806 3649632 3669781 3707575 
1864.934 3765793 3841034 3924847 4006804 4079009 4133732 4161563 4150223 
1868.791 4084729 3955408 3765860 3535873 3296360 3079101 2911784 2807923 
1872.649 2764705 2765938 2790982 2823731 2860851 2912585 2995852 3122317 
1876.506 3288413 3472643 3642782 3770606 3841402 3861058 3853470 3849592 
1880.364 3872090 3927088 4000952 4069243 4103192 4082488 3998711 3856813 
1884.221 3670550 3457245 3235667 3022577 2834436 2688950 2602108 2584909 
1888.078 2639043 2752867 2900910 3051839 3178922 3264710 3305174 3303838 
1891.936 3266079 3195711 3095253 2970029 2832135 2702020 2605142 2561811 
1895.793 2580643 2653978 2763338 2884732 2999422 3097155 3176051 3239906 
1899.651 3292620 3334822 3363204 3372554 3359431 3326041 3280368 3234132 
1903.508 3197714 3177954 3174916 3183828 3197146 3207460 3210198 3203388 
1907.366 3186565 3160998 3127991 3089713 3050638 3018873 3003091 3014902 
1911.223 3062350 3149083 3271788 3420608 3578133 3722981 3834816 3897833 
1915.080 3905322 3860891 3777157 3671920 3563734 3469470 3399836 3358730 
1918.938 3344606 3354523 3384409 3429258 3480859 3523046 3534504 3494821 
1922.795 3392223 3234265 3046267 2866321 2728526 2655211 2650844 2702586 
1926.653 2785413 2871257 2940472 2983941 3005527 3018206 3039727 3086609 
1930.510 3170377 3296126 3458281 3640778 3813925 3940228 3980921 3909234 
1934.368 3721644 3443753 3122317 2809557 2553211 2377834 2284193 2254216 
1938.225 2266773 2308842 2383731 2504520 2679982 2899242 3126088 3299965 
1942.082 3365408 3300099 3133030 2935468 2794183 2780544 2922191 3200351 
1945.940 3558389 3929428 4249487 4477141 4597140 4611908 4534257 4380971 
1949.797 4173573 3936449 3700892 3499931 3359899 3293121 3292787 3341868 
1953.655 3420274 3520107 3649097 3822415 4046768 4307477 4562952 4759246 
1957.512 4853288 4835932 4738075 4626509 4572160 4615860 4750905 4923356 
1961.370 5062888 5116292 5077403 4985759 4909147 4897821 4957639 5036908 
1965.227 5048138 4901976 4556088 4040046 3456544 2944108 2615875 2523249 
1969.084 2635343 2862752 3089112 3218376 3187600 2983307 2636643 2215749 
1972.942 1804312 1482558 1320641 1362419 1615768 2040708 2561211 3078100 
1976.799 3496825 3763654 3867744 3839263 3725588 3574692 3415900 3262307 
1980.657 3120248 3001090 2926461 2923392 3009197 3179422 3403744 3635799 
1984.514 3831975 3967512 4043590 4082421 4109815 4136374 4153435 4134702 
1988.371 4055597 3911106 3724017 3543022 3427555 3418705 3522311 3702429 
1992.229 3895961 4033391 4070681 3997775 3838260 3634296 3432497 3273524 
1996.086 3183361 3175884 3251157 3397365 3585716 3774751 3921337 3986806 
1999.944 3957113 3846149 3696480 3563834 3499831 3533502 3664368 3864134 
2003.801 4091418 4312129 4501212 4646502 4741424 4777068 4740956 4625973 
2007.659 4437271 4196992 3942869 3711452 3519505 3355858 3182426 2957118 
2011.516 2657578 2302314 1948471 1683851 1584972 1689140 1980324 2397958 
2015.373 2859217 3290383 3650367 3928525 4133732 4273880 4339035 4304633 
2019.231 4146911 3859220 3469269 3035322 2632976 2323632 2133197 2043837 
2023.088 2008118 1968940 1887234 1758932 1611744 1493996 1450343 1507794 
2026.946 1666555 1901045 2167495 2418482 2612242 2721658 2744398 2703620 
2030.803 2639010 2596775 2616875 2715990 2883932 3084808 3275727 3428356 
2034.661 3538178 3626544 3727593 3865070 4030949 4183977 4262738 4210843 
2038.518 4002356 3657317 3238571 2839506 2547279 2421380 2475461 2682082 
2042.375 2983941 3317694 3627680 3864903 3993895 3990652 3845346 3571284 
2046.233 3207627 2821296 2488191 2274967 2212852 2282195 2416782 2528915 
2050.090 2549612 2444405 2229570 1957757 1700782 1518201 1440802 1464705 
2053.948 1560397 1686146 1804978 1899714 1970005 2027026 2083854 2147582 
2057.805 2217781 2290622 2362975 2435475 2513051 2599509 2693784 2789281 
2061.662 2874693 2941539 2988111 3025412 3072594 3155324 3294223 3496023 
2065.520 3752090 4037671 4315609 4544770 4690444 4728930 4653536 4475367 
2069.377 4222720 3937252 3662029 3437307 3287579 3214737 3198748 3206526 
2073.235 3199850 3150318 3049336 2911751 2772141 2672247 2649511 2723791 
2077.092 2891370 3123485 3375693 3600049 3753895 3815462 3785179 3684417 
2080.949 3547198 3412259 3311517 3261906 3263575 3299899 3346743 3377095 
2084.807 3371719 3323437 3239239 3136368 3039226 2972031 2951247 2984308 
2088.664 3066654 3182627 3308045 3414564 3477152 3478053 3413362 3293789 
2092.522 3146914 3007462 2912718 2890736 2950513 3076532 3232262 3371385 
2096.379 3446491 3426686 3305073 3100458 2849845 2599642 2394892 2268405 
2100.237 2240561 2317870 2495356 2756935 3075297 3414430 3725956 3959119 
2104.094 4070781 4033758 3850896 3558389 3220011 2905780 2679148 2575576 
2107.951 2594475 2703920 2854581 3001623 3116310 3197179 3265678 3353988 
2111.809 3486637 3670917 3890143 4110049 4288737 4389773 4393656 4299981 
2115.666 4126205 3900842 3659255 3432798 3244981 3109435 3026313 2985009 
2119.524 2966393 2951080 2923626 2880796 2832969 2802220 2813392 2883465 
2123.381 3011699 3176418 3337894 3448695 3472208 3391655 3218175 2985376 
2127.239 2741197 2532214 2389695 2324865 2328130 2377135 2445271 2511785 
2131.096 2566543 2608575 2643910 2680448 2724025 2777376 2841907 2917121 
2134.953 3005761 3110136 3232496 3371686 3520808 3665638 3788187 3869081 
2138.811 3894122 3859654 3775653 3660892 3541586 3437641 3356960 3291953 
2142.668 3222982 3127757 2991648 2817761 2626176 2452268 2330528 2285725 
2146.526 2324965 2435141 2590109 2762604 2931532 3085508 3223283 3346442 
2150.383 3458615 3562665 3666172 3784310 3937386 4144235 4409756 4714661 
2154.240 5007445 5214604 5260716 5083370 4658994 4007874 3190537 2291121 
2158.098 1407692 632790 39298 -319162 -411694 -228763 217612 884253 1698753 
2162.438 2558544 3357862 4005801 4444870 4664722 4690511 4569147 4347569 
2166.295 4067236 3755265 3426119 3094218 2773908 2481459 2235798 2049862 
2170.152 1930864 1881011 1897551 1976263 2111821 2294252 2503254 2712855 
2174.010 2893772 3022443 3095319 3127524 3150251 3194576 3276795 3387113 
2177.867 3491781 3540417 3487406 3310983 3019340 2652945 2270703 1937754 
2181.725 1704209 1595681 1609582 1722005 1895254 2087117 2263909 2401556 
2185.582 2492856 2549012 2596275 2667713 2788514 2966059 3180591 3386746 
2189.439 3522612 3533335 3385878 3083673 2663812 2194502 1753077 1407925 
2193.297 1210414 1182206 1318181 1592355 1966444 2393127 2821996 3208128 
2197.154 3513793 3719739 3828131 3863231 3862496 3864067 3896228 3966275 
2201.012 4058808 4139820 4172905 4126774 3986439 3758207 3466196 3147815 
2204.869 2842740 2587142 2405321 2306077 2281662 2311274 2365607 2412884 
2208.727 2431143 2412084 2364941 2312240 2285092 2311008 2404888 2565577 
2212.584 2773175 2996319 3196512 3337493 3391187 3342168 3191305 2960821 
2216.441 2692651 2440140 2263975 2213817 2312806 2551512 2886133 3248219 
2220.299 3560928 3765760 3834181 3776422 3632124 3459683 3316459 3240875 
2224.156 3247918 3329680 3461988 3613413 3756034 3868012 3935547 3953000 
2228.014 3921370 3847920 3744637 3627078 3512491 3414964 3343404 3298129 
2231.871 3271554 3248453 3211933 3147815 3049370 2920924 2779044 2648877 
2235.729 2557378 2527015 2566643 2669747 2813959 2969495 3110737 3222682 
2239.586 3306843 3379233 3459617 3558289 3670182 3771341 3830571 3820443 
2243.443 3733341 3586284 3418004 3273791 3187733 3171779 3210198 3266546 
2247.301 3299097 3279099 3199149 3076098 2940772 2829467 2769873 2773942 
2251.158 2838038 2947344 3080269 3212367 3322101 3390086 3402842 3357528 
2255.016 3263475 3144244 3030718 2956685 2946577 3008797 3132830 3293655 
2258.873 3460518 3603323 3703665 3754129 3756936 3720441 3655413 3573222 
2262.730 3485635 3405580 3344873 3312552 3311117 3335056 3372120 3406315 
2266.588 3425184 3421944 3397198 3355892 3303070 3240441 3166172 3079068 
2270.445 2982640 2887934 2814359 2782145 2805889 2887934 3015970 3165237 
2274.303 3307578 3420976 3493986 3528658 3535907 3531130 3526587 3528691 
2278.160 3537844 3550305 3561028 3565170 3559859 3543223 3514662 3474914 
2282.018 3426520 3373623 3321767 3276195 3241375 3219210 3210264 3214403 
2285.875 3231628 3261005 3300633 3344772 3384041 3407317 3404745 3372755 
2289.732 3316726 3251991 3198047 3173047 3187567 3239306 3315423 3396130 
2293.590 3463424 3506144 3522913 3520608 3511054 3503639 3502904 3507580 
2297.447 3512491 3511956 3502403 3483665 3458114 3429626 3401206 3375660 
2301.305 3355391 3342302 3338929 3346743 3365308 3391922 3422612 3452770 
2305.162 3479690 3503271 3525585 3549135 3575059 3601519 3624773 3640944 
2309.020 3647894 3646692 3640978 3634763 3630219 3625842 3618057 3602555 
2312.877 3578868 3550639 3525251 3511255 3513960 3533836 3566540 3605662 
2316.734 3646992 3690065 3738588 3797613 3869081 3947884 4021986 4075029 
2320.592 4093224 4070380 4011452 3931300 3851130 3790059 3761181 3768200 
2324.449 3806772 3867276 3938322 4009814 4072755 4120586 4149186 4157148 
2328.307 4146844 4123328 4094428 4067671 4047035 4031852 4016468 3991990 
2332.164 3951328 3891347 3815863 3735146 3663299 3616086 3606397 3641914 
2336.021 3723115 3843007 3987776 4136307 4267924 4361391 4400585 4378929 
2339.879 4299111 4172905 4018341 3856412 3705938 3581607 3493485 3446391 
2343.736 3440613 3472576 3533802 3611342 3689363 3753628 3793970 3807106 
2347.594 3795574 3765526 3723817 3676097 3626744 3577966 3531497 3489944 
2351.451 3456744 3436038 3430460 3438709 3453538 3464226 3458782 3428256 
2355.309 3371786 3295057 3208729 3123719 3047101 2982473 2932366 2903111 
2359.166 2905780 2954283 3059513 3221347 3425384 3641513 3835786 3977377 
2363.023 4046902 4042487 3975103 3862496 3721444 3566173 3408419 3262273 
2366.881 3147848 3087677 3100458 3191839 3347911 3534637 3705002 3817133 
2370.738 3843909 3783875 3660057 3513760 3387548 3311317 3296994 3335357 
2374.596 3403443 3473578 3525084 3548601 3548367 3536742 3530061 3541586 
2378.453 3576663 3631756 3696447 3756569 3797646 3809847 3790059 3742398 
2382.311 3677467 3609371 3552944 3518704 3511555 3528758 3562231 3600149 
2386.168 3630954 3647894 3649331 3640009 3628682 3625174 3636668 3665003 
2390.025 3705670 3749283 3783775 3797847 3785446 3746910 3689730 3626544 
2393.883 3572520 3540049 3536408 3561897 3610105 3670249 3730066 3780366 
2397.740 3815429 3834014 3837858 3829769 3811150 3781502 3739056 3681777 
2401.598 3609905 3526721 3438442 3353955 3282304 3230727 3203722 3201452 
2405.455 3220879 3255430 3297361 3338796 3372688 3394827 3403744 3401339 
2409.313 3392289 3382739 3379466 3388249 3413228 3456811 3518804 3596975 
2413.170 3686589 3780800 3869783 3943237 3990518 4003660 3980219 3924513 
2417.027 3847152 3763186 3689430 3638806 3618425 3627112 3657785 3699321 
2420.885 3739524 3769036 3782505 3778628 3758875 3727627 3689730 3650501 
2424.742 3616353 3592532 3583344 3590026 3610339 3637937 3663800 3679438 
2428.600 3678135 3658654 3624172 3582041 3541352 3510019 3494353 3498161 
2432.457 3523146 3569747 3637202 3721912 3816064 3908231 3982694 4023525 
2436.314 4019779 3967780 3874363 3755031 3629952 3517802 3431362 3374959 
2440.172 3346208 3339230 3349380 3376094 3423013 3494487 3592164 3710315 
2444.029 3836120 3952399 4040915 4089378 4094729 4063658 4009245 3947985 
2447.887 3894991 3859755 3846984 3856712 3885396 3927288 3975236 4019879 
2451.744 4050313 4055798 4027672 3962697 3864635 3745072 3621499 3511856 
2455.602 3431696 3389885 3386379 3413695 3460084 3513793 3565104 3609671 
2459.459 3647494 3681109 3712955 3743267 3768802 3784243 3783407 3762919 
2463.316 3723850 3673690 3624138 3588556 3579302 3602555 3657585 3735982 
2467.174 3824655 3908699 3974835 4014730 4025097 4007138 3964904 3903951 
2471.031 3829869 3748280 3665671 3588222 3522578 3474112 3445556 3436372 
2474.889 3443051 3460218 3481961 3504073 3524282 3543022 3562364 3585148 
2478.746 3614582 3652907 3701126 3758741 3822549 3886432 3941933 3980118 
2482.604 3993160 3978012 3937285 3879579 3816666 3760011 3716999 3689196 
2486.461 3671853 3657484 3640143 3618091 3596073 3582442 3586986 3614917 
2490.318 3664969 3727393 3787953 3830906 3843876 3822147 3768668 3693740 
2494.176 3610273 3532166 3470071 3429325 3410890 3411324 3425751 3449129 
2498.033 3478588 3513793 3556719 3610239 3676965 3757438 3848890 3945945 
2501.891 4041283 4127510 4198598 4251127 4284119 4298777 4297672 4283852 
2505.748 4260964 4232122 4201107 4171533 4146376 4127877 4117475 4116036 
2509.605 4123328 4139586 4164206 4195854 4232022 4267757 4296501 4312430 
2513.463 4310589 4289841 4252967 4206259 4156646 4110383 4070915 4039142 
2517.320 4013459 3992424 3975337 3962798 3955809 3954605 3957849 3962597 
2521.178 3966543 3969017 3972227 3981055 4001821 4038206 4090181 4152899 
2525.035 4217802 4274951 4316044 4336993 4338232 4323875 4300349 4274616 
2528.893 4253134 4240888 4241223 4254807 4279268 4308515 4334116 4346197 
2532.750 4337027 4303796 4250357 4187490 4129149 4090314 4081150 4104831 
2536.607 4156044 4223891 4292887 4348239 4379632 4381975 4357375 4312932 
2540.465 4260797 4214155 4183944 4177956 4198130 4240587 4297103 4358245 
2544.322 4415045 4461373 4495554 4518721 4533654 4543130 4549324 4552505 
2548.180 4552873 4550060 4543464 4532014 4513365 4484941 4444669 4392217 
2552.037 4331003 4267522 4210140 4165210 4136240 4121623 4116872 4117575 
2555.895 4122626 4136842 4169091 4227706 4316345 4429304 4551936 4662511 
2559.752 4740587 4773081 4758006 4704478 4629289 4551936 4487418 4444836 
2563.609 4427296 4433488 4460135 4503388 4558766 4619677 4677315 4722432 
2567.467 4746818 4747019 4725949 4692554 4657789 4632671 4622926 4628954 
2571.324 4645967 4667334 4688133 4706287 4723035 4741157 4763065 4788693 
2575.182 4815930 4840757 4859252 4868735 4868634 4859386 4843739 4825579 
2579.039 4809732 4802663 4809765 4834726 4876844 4930125 4983312 5022662 
2582.896 5036640 5019210 4973425 4910454 4848128 4804506 4792780 4817739 
2586.754 4874331 4949495 5025679 5087159 5122930 5129770 5112034 5079984 
2590.611 5046026 5020383 5009121 5012339 5025545 5041065 5051691 5053468 
2594.469 5045993 5031981 5016092 5001780 4990384 4980765 4971045 4959818 
2598.326 4947921 4937431 4931767 4932907 4941017 4954422 4971582 4992898 
2602.184 5021456 5062217 5119511 5194014 5281141 5371136 5452561 5515947 
2606.041 5557460 5579778 5589612 5594042 5596224 5594143 5581288 5551183 
2609.898 5501383 5436423 5367312 5307873 5270207 5260548 5277384 5313373 
2613.756 5359160 5405925 5447964 5482357 5507524 5521182 5521081 5505074 
2617.613 5473767 5432363 5389721 5357014 5343227 5352854 5384085 5429679 
2621.471 5479169 5523396 5555345 5572260 5574140 5563601 5543733 5518799 
2625.328 5493833 5474572 5466251 5472895 5494806 5527960 5564877 5597298 
2629.186 5618443 5625459 5620659 5609717 5599446 5595150 5599849 5613577 
2633.043 5635260 5663759 5698840 5740538 5787277 5835801 5879494 5910629 
2636.900 5922552 5911435 5878721 5829823 5774014 5720327 5676650 5647848 
2640.758 5635697 5639489 5656978 5684975 5719924 5757729 5794598 5827170 
2644.615 5853297 5872911 5887958 5901023 5915398 5932663 5953220 5975996 
2648.473 5999008 6021181 6042146 6062910 6085423 6111700 6142717 6178341 
2652.330 6216724 6254539 6288356 6314074 6329338 6333406 6327724 6315822 
2656.188 6302745 6293231 6290642 6296055 6308460 6325169 6343694 6362791 
2660.045 6383638 6408656 6440367 6479345 6523068 6566696 6602960 6626274 
2663.902 6633709 6626846 6610731 6592632 6579983 6577124 6585534 6603465 
2667.760 6627586 6653997 6679300 6701878 6720453 6734418 6742966 6745490 
2671.617 6741653 6731894 6717592 6701373 6686063 6674858 6670316 6673916 
2675.475 6686197 6705949 6730952 6757874 6783182 6803612 6816940 6822662 
2679.332 6821652 6815930 6807684 6798731 6789880 6781230 6772446 6763292 
2683.189 6754105 6745759 6738994 6734553 6732836 6733610 6737076 6743167 
2687.047 6751884 6762956 6774600 6784091 6787759 6781970 6764436 6735158 
2690.904 6696696 6653324 6610260 6571876 6541198 6519604 6507697 6504939 
2694.762 6510994 6524582 6543721 6565148 6584659 6598721 6605012 6603465 
2698.619 6597039 6589504 6584962 6585298 6590143 6596669 6601581 6602152 
2702.477 6597813 6590177 6582102 6575879 6572818 6572145 6572011 6570396 
2706.334 6566158 6559564 6551962 6544898 6539382 6535581 6532924 6531107 
2710.191 6530468 6532554 6539483 6553341 6575038 6603935 6637579 6672570 
2714.049 6705108 6732096 6752186 6765278 6773388 6779244 6786043 6796409 
2717.906 6811353 6829831 6849624 6866892 6878203 6881501 6877226 6867228 
2721.764 6854975 6843363 6834207 6826936 6820339 6813002 6804924 6798428 
2725.621 6797048 6804790 6824210 6855649 6896583 6942638 6989675 7034427 
2729.479 7075243 7112088 7145097 7174066 7197782 7214356 7222341 7221027 
2733.336 7211459 7194716 7172382 7144558 7110371 7068608 7018566 6961897 
2737.193 6903080 6847907 6803915 6776754 6769047 6779648 6803544 6833433 
2741.051 6860967 6879515 6885507 6879145 6864468 6848344 6838751 6841814 
2744.908 6860900 6894462 6937184 6980382 7015165 7035370 7038468 7026749 
2748.766 7005736 6982839 6964186 6953883 6953042 6960853 6975365 6994826 
2752.623 7018095 7044799 7074333 7105925 7138091 7169552 7198961 7225878 
2756.480 7250001 7271429 7289995 7305057 7316278 7323927 7329487 7335283 
2760.338 7343876 7356817 7373903 7393215 7411381 7425503 7433997 7437469 
2764.195 7439120 7442221 7450143 7464401 7484458 7508157 7532160 7553333 
2768.053 7569281 7578485 7580407 7575822 7566415 7555558 7547433 7546995 
2771.910 7558559 7584959 7626029 7678536 7736884 7794060 7843179 7879517 
2775.768 7900504 7907253 7903372 7895172 7890247 7895409 7916228 7954698 
2779.625 8008593 8071949 8136528 8194363 8240050 8272773 8296752 8319042 
2783.482 8347009 8385651 8436055 8495856 8560026 8624813 8687852 8749987 
2787.340 8813180 8878782 8945918 9010897 9068613 9114832 9148230 9171342 
2791.197 9190159 9211277 9240215 9279242 9327852 9382902 9441378 9501657 
2795.055 9564112 9629862 9699790 9773287 9848119 9921369 9990836 10056718 
2798.912 10121492 10189395 10264196 10347901 10439666 10536169 10632998 
2802.287 10726759 10816055 10901702 10986378 11072602 11161936 11253838 
2805.663 11346169 11436784 11524050 11608338 11691587 11777099 11868076 
2809.038 11966259 12071925 12183989 12300616 12420478 12543546 12671083 
2812.413 12805381 12948629 13102170 13265706 13437607 13615013 13795399 
2815.788 13976373 14156498 14335191 14512210 14687588 14861974 15036292 
2819.164 15212911 15395473 15587932 15794361 16017113 16256491 16510833 
2822.539 16777550 17054668 17342238 17642006 17957522 18291512 18644922 
2825.914 19015546 19399308 19791662 20189856 20594840 21011228 21445944 
2829.289 21905800 22395448 22916738 23468834 24050208 24660484 25301720 
2832.665 25978552 26696502 27461522 28278918 29153060 30089614 31096274 
2836.040 32182842 33362004 34646928 36049632 37581756 39253556 41075868 
2839.415 43061660 45224876 47580444 50141124 52914184 55900156 59092444 
2842.790 62479552 66045596 69773544 73645096 77637048 81722688 85867768 
2846.166 90029968 94165512 98226016 102164256 105937288 109501312 112814144 
2849.541 115834616 118519968 120830912 122732240 124194560 125197872 
2852.434 125730392 125790240 125385072 124533192 123262696 121608928 
2855.327 119615968 117330256 114798416 112067800 109181528 106180760 
2858.220 103106592 99996536 96888768 93820552 90823192 87926176 85151736 
2861.595 82514216 80022632 77679760 75484544 73434456 71526736 69759504 
2864.970 68132480 66645988 65300980 64096704 63030472 62095660 61280700 
2868.346 60569992 59941836 59371792 58834064 58301432 57751216 57163820 
2871.721 56525548 55829428 55074836 54267752 53419444 52546500 51668968 
2875.096 50807988 49985364 49221292 48531552 47928624 47419504 47007040 
2878.471 46690516 46467172 46332932 46283500 46314132 46420124 46595560 
2881.847 46834504 47130228 47477640 47873092 48316224 48809936 49358956 
2885.222 49968596 50641492 51376624 52167776 53005104 53876944 54773316 
2888.597 55688228 56621076 57575000 58554720 59563484 60601152 61663032 
2891.972 62741488 63829192 64920744 66015124 67115552 68228240 69360336 
2895.348 70516912 71700616 72910472 74143128 75393440 76656576 77928584 
2898.723 79208832 80500072 81808088 83141840 84510296 85920792 87376152 
2902.098 88874104 90407752 91968744 93550328 95151384 96776792 98437608 
2905.473 100147440 101918240 103758024 105668624 107647112 109687536 
2908.366 111784320 113933944 116135560 118391136 120703800 123077200 
2911.260 125514152 128016952 130585952 133219496 135912512 138656160 
2914.153 141439056 144245008 147057184 149856240 152619632 155322736 
2917.046 157934912 160421280 162746192 164873216 166771152 168416016 
2919.939 169789680 170878720 171672352 172160864 172337472 172200560 
2922.832 171757824 171025824 170029680 168798384 167358576 165733616 
2925.725 163941344 161994880 159907232 157692080 155364096 152938768 
2928.618 150429584 147847856 145203072 142503200 139757968 136979312 
2931.511 134180128 131374520 128574848 125790192 123026656 120287240 
2934.404 117572992 114885736 112227168 109602280 107018184 104483680 
2937.297 102009720 99607656 97286616 95053800 92911640 90858528 88889672 
2940.672 86999344 85182256 83435616 81759608 80157504 78634472 77195664 
2944.048 75846488 74591368 73433400 72374752 71416464 70557680 69794832 
2947.423 69122704 68533544 68017800 67565648 67166800 66810468 66486052 
2950.798 66181904 65885536 65584624 65266632 64921016 64539684 64116096 
2954.173 63646540 63127600 62556348 61930472 61248648 60511144 59720624 
2957.549 58881988 58001340 57084420 56136584 55161732 54162868 53143336 
2960.924 52106504 51056156 49995996 48928444 47854664 46774644 45688284 
2964.299 44596628 43502728 42411140 41328336 40260588 39213480 38191936 
2967.674 37198672 36235224 35301976 34397416 33518784 32662292 31824772 
2971.050 31004738 30203262 29425070 28676832 27965428 27294424 26663100 
2974.425 26066292 25495180 24940610 24396630 23861976 23339902 22836442 
2977.800 22358366 21909426 21489912 21096300 20723444 20366258 20020882 
2981.175 19685558 19359430 19042030 18732196 18428424 18128666 17832184 
2984.551 17539564 17252106 16972348 16702412 16443172 16195061 15958330 
2987.926 15733579 15522820 15328810 15154167 15000964 14869037 14755455 
2991.301 14655269 14561753 14468051 14368273 14259377 14141231 14017436 
2994.676 13893813 13778195 13677618 13596551 13535633 13491574 13458011 
2998.052 13427082 13392190 13349444 13297614 13237830 13171190 13097081 
3001.427 13013392 12915825 12801491 12669548 12523800 12371077 12219737 
3004.802 12076661 11944837 11822517 11703671 11581283 11449711 11306480 
3008.177 11153199 10994875 10837627 10686956 10547168 10420354 10306810 
3011.552 10206118 10117320 10038340 9966560 9898758 9831477 9761596 9687524 
3015.410 9608622 9525770 9440260 9352837 9263976 9173576 9081503 8988368 
3019.267 8895320 8804558 8717702 8636001 8559755 8488592 8421933 8359473 
3023.125 8301615 8248695 8201116 8158575 8120728 8087443 8059392 8038228 
3026.982 8025807 8022837 8027731 8035899 8039781 8031950 8006737 7962763 
3030.840 7903945 7838422 7776282 7725619 7690745 7671555 7664338 7663866 
3034.697 7665451 7666732 7667104 7666631 7664675 7659043 7646296 7623028 
3038.554 7587151 7539341 7483110 7424223 7368679 7321467 7285379 7260445 
3042.412 7244408 7233897 7225204 7214794 7200140 7179557 7152743 7120745 
3046.269 7085852 7051096 7019778 6994221 6975230 6961358 6949338 6935063 
3050.127 6915233 6888133 6854874 6819330 6786783 6762383 6749561 6749225 
3053.984 6759052 6774196 6788870 6798260 6799438 6792471 6779951 6765816 
3057.842 6753633 6745355 6740677 6737076 6730952 6718703 6698950 6672200 
3061.699 6641179 6609688 6581833 6560069 6545437 6537599 6534740 6535480 
3065.556 6538575 6543788 6551323 6561885 6575173 6590479 6605584 6618335 
3069.414 6625770 6625837 6616989 6599293 6573760 6542914 6510422 6479983 
3073.271 6455097 6438450 6431085 6432060 6438853 6448068 6455399 6457619 
3077.129 6452238 6438416 6416894 6389590 6359866 6331086 6306913 6290743 
3080.986 6284860 6290239 6306006 6329371 6354823 6376275 6386967 6381553 
3084.844 6357815 6317369 6265598 6210237 6160495 6123663 6103937 6101753 
3088.701 6113783 6134652 6158546 6180559 6197397 6207245 6209228 6203077 
3092.558 6189197 6168359 6143759 6119966 6102727 6097553 6107331 6131358 
3096.416 6164360 6198876 6226303 6240858 6240858 6228958 6211447 6195347 
3100.273 6186508 6187919 6198406 6214774 6232522 6247379 6256589 6258808 
3104.131 6254001 6242942 6227211 6208691 6189600 6171854 6156462 6142919 
3107.988 6129375 6113078 6092075 6066169 6037644 6010397 5988829 5975593 
3111.845 5970285 5969681 5969244 5965414 5957890 5950029 5947947 5958125 
3115.703 5983555 6022693 6068555 6111666 6142314 6154076 6146279 6122722 
3119.560 6090429 6056896 6028606 6008851 5998437 5996690 6002132 6012883 
3123.418 6026993 6042146 6055686 6064960 6068454 6066236 6060491 6054308 
3127.275 6051520 6054577 6064086 6078635 6095772 6112943 6128805 6143893 
3131.133 6159856 6179013 6202943 6231816 6263547 6294643 6320395 6336129 
3134.990 6338382 6326009 6299685 6263816 6223850 6186172 6156059 6136231 
3138.847 6125881 6120907 6115295 6103433 6081726 6050646 6014025 5978683 
3142.705 5951137 5936291 5936190 5948887 5970487 5996119 6021954 6045640 
3146.562 6066404 6084583 6100577 6113750 6123226 6127527 6125814 6118286 
3150.420 6106558 6093353 6081827 6074636 6073696 6078937 6089220 6102627 
3154.277 6116908 6130182 6141138 6149371 6155252 6159218 6161907 6164057 
3158.135 6166510 6170880 6178811 6192289 6212421 6239110 6269800 6300425 
3161.992 6325102 6338247 6336465 6319353 6290037 6254236 6219749 6192726 
3165.849 6177602 6175350 6184222 6200154 6218673 6235412 6247446 6252656 
3169.707 6250303 6240723 6224992 6205296 6185062 6167889 6157235 6155992 
3173.564 6164797 6182340 6205934 6232118 6257799 6281835 6304392 6327321 
3177.422 6352772 6381890 6413767 6445647 6472820 6490107 6493807 6482472 
3181.279 6458089 6425267 6390598 6361043 6341374 6334045 6338146 6350822 
3185.136 6367902 6386631 6405259 6424192 6444772 6467943 6493470 6519705 
3188.994 6543822 6563063 6576518 6584794 6590244 6595727 6602657 6610395 
3192.851 6616047 6614970 6603532 6579815 6545571 6505309 6466161 6435289 
3196.709 6418273 6417869 6434078 6463672 6501811 6543082 6581598 6612178 
3200.566 6630715 6634080 6621463 6593810 6555057 6511666 6470870 6439997 
3204.424 6424864 6427689 6447664 6480656 6520983 6562962 6602624 6638420 
3208.281 6671090 6702214 6733745 6766119 6797520 6824681 6844070 6852956 
3212.138 6850667 6838785 6820979 6801592 6784158 6771537 6764739 6763999 
3215.996 6769485 6780961 6798899 6822258 6848512 6873994 6893856 6903316 
3219.853 6900084 6885036 6862213 6837640 6818387 6809030 6812531 6828418 
3223.711 6854370 6886483 6920956 6953311 6979472 6994894 6996645 6982940 
3227.568 6955163 6918533 6881064 6851542 6837573 6842487 6864266 6895808 
3231.426 6927488 6949978 6956947 6947015 6923582 6893149 6863290 6840434 
3235.283 6828754 6829966 6843127 6866218 6896415 6930350 6964422 6995668 
3239.140 7020856 7038165 7046785 7047156 7041498 7032642 7023752 7017690 
3242.998 7016714 7021900 7033551 7051164 7073492 7099694 7128963 7160760 
3246.855 7194615 7229854 7264792 7296970 7323354 7341922 7352301 7356817 
3250.713 7359580 7365849 7379026 7398337 7418728 7431638 7427660 7400899 
3254.570 7351897 7288310 7222880 7169283 7138428 7134420 7154394 7190034 
3258.427 7232751 7274799 7312705 7346471 7377509 7406393 7431840 7450311 
3262.285 7459142 7457154 7447109 7434300 7425200 7424357 7433289 7449603 
3266.142 7469255 7488469 7506100 7524238 7546522 7577137 7617667 7666159 
3270.000 7717828 7766601 7806845 7835150 7851176 7857147 7856809 7853638 
3273.857 7850939 7850399 7852052 7855359 7858193 7858429 7854110 7843618 
3277.715 7827289 7806373 7783805 7762385 7745519 7735198 7733005 7740224 
3281.572 7758539 7788932 7831978 7886366 7948084 8010653 8066683 8109318 
3285.429 8135752 8147298 8149391 8148919 8151923 8160195 8171269 8179102 
3289.287 8177178 8161917 8134300 8100203 8069147 8050042 8049164 8067797 
3293.144 8102229 8145643 8190109 8229076 8258962 8279325 8292733 8303878 
3297.002 8318604 8341368 8375518 8421022 8474368 8529173 8577430 8612038 
3300.859 8628057 8624847 8605007 8573915 8537216 8499033 8461867 8426697 
3304.717 8394232 8366870 8348157 8342584 8353798 8382747 8426562 8479976 
3308.574 8536370 8589799 8637488 8678928 8715504 8747993 8775514 8795327 
3312.431 8804152 8799789 8782783 8757391 8730007 8706850 8692212 8687007 
3316.289 8688968 8694511 8700089 8704754 8710264 8719730 8736734 8762700 
3320.146 8796375 8834111 8871173 8903166 8928633 8948217 8965130 8982888 
3324.004 9003759 9027237 9049599 9064993 9067090 9051493 9017697 8969730 
3327.861 8916222 8867622 8833976 8822445 8835058 8868298 8914665 8964825 
3331.719 9009477 9042765 9062896 9071522 9072876 9072267 9073621 9079270 
3335.576 9089049 9101195 9113749 9124205 9131547 9136217 9139432 9143459 
3339.433 9150734 9163423 9182950 9209381 9241129 9275653 9309674 9339600 
3343.291 9362757 9377958 9384933 9384798 9379821 9371898 9363231 9355342 
3347.148 9349486 9346777 9348368 9354902 9367362 9386119 9410666 9439786 
3351.006 9470941 9501284 9526889 9544399 9550936 9544771 9525669 9495290 
3354.863 9457158 9415474 9375487 9342342 9320033 9311366 9316714 9335097 
3358.720 9362723 9395226 9427935 9456853 9480016 9497559 9511749 9525873 
3362.578 9542773 9564722 9591278 9620884 9651002 9679223 9704059 9725304 
3366.435 9742924 9756445 9764747 9765391 9756004 9735199 9703991 9665943 
3370.293 9626034 9589686 9560691 9540301 9527363 9519437 9514289 9511614 
3374.150 9512833 9521401 9540131 9570785 9612416 9661640 9713784 9763663 
3378.008 9807448 9842390 9867269 9881234 9884353 9877235 9861710 9841238 
3381.865 9821242 9807345 9805651 9819445 9849169 9891301 9940286 9989377 
3385.722 10032541 10066586 10090562 10105755 10114166 10118066 10119490 
3389.098 10119253 10118100 10116370 10114064 10110944 10105993 10098226 
3392.473 10086425 10070452 10052276 10035966 10026946 10032066 10056752 
3395.848 10103754 10171656 10254799 10344271 10429145 10499880 10549918 
3399.223 10577112 10583562 10575007 10558982 10542585 10531518 10529107 
3402.599 10535523 10548458 10564346 10579047 10589402 10593612 10591540 
3405.974 10585429 10577960 10572358 10571306 10575550 10584071 10594460 
3409.349 10603051 10606955 10604273 10595547 10582815 10569065 10557250 
3412.724 10549239 10545368 10544452 10544995 10545470 10545164 10544689 
3416.100 10544995 10546998 10551208 10557522 10565433 10573920 10582747 
3419.475 10591778 10601421 10612184 10624408 10638363 10654527 10672796 
3422.850 10692798 10713921 10734298 10751586 10762183 10763304 10752401 
3426.225 10729102 10695073 10653983 10610826 10570728 10538715 10517939 
3429.601 10510064 10514782 10530024 10551852 10575278 10595920 10610350 
3432.976 10617889 10620843 10623898 10633066 10652795 10685123 10728355 
3436.351 10777705 10826484 10868847 10900852 10921102 10930616 10930752 
3439.726 10922223 10905303 10879685 10845644 10805661 10764765 10728355 
3443.102 10701661 10686855 10682983 10686752 10693443 10699487 10703427 
3446.477 10705940 10709438 10716231 10727269 10741567 10757429 10772238 
3449.852 10784329 10792142 10794723 10791055 10780253 10761878 10737763 
3453.227 10711679 10689028 10676022 10677482 10694563 10724586 10761470 
3456.603 10797136 10824412 10839224 10840991 10832294 10817278 10800023 
3459.978 10783106 10767414 10751518 10733619 10711171 10682474 10647361 
3463.353 10606921 10564482 10524491 10492446 10472691 10467091 10473743 
3466.728 10486913 10498963 10501578 10489968 10463255 10425275 10382175 
3470.104 10340368 10304062 10274307 10249643 10227931 10207917 10190548 
3473.479 10177285 10170129 10168196 10167890 10163718 10150388 10125392 
3476.854 10090053 10049631 10009958 9976731 9951982 9933743 9917268 9897030 
3480.711 9868862 9832222 9788672 9742179 9695995 9651239 9607030 9560725 
3484.569 9509819 9453027 9391671 9329274 9272099 9227218 9200988 9197367 
3488.426 9216692 9253753 9299316 9341834 9369528 9373625 9351483 9306323 
3492.284 9247459 9185691 9131683 9091383 9065399 9049870 9038536 9026154 
3496.141 9010694 8993070 8976799 8965163 8959109 8957654 8957215 8954644 
3499.999 8948251 8937596 8924576 8911013 8897890 8884802 8869956 8851525 
3503.856 8828971 8803205 8775852 8748568 8721421 8692720 8659627 8619101 
3507.713 8568677 8508358 8439939 8367209 8295739 8229852 8174004 8131127 
3511.571 8102364 8087780 8085485 8092000 8102600 8112559 8118669 8120120 
3515.428 8119648 8122011 8132781 8155401 8190042 8232453 8275712 8311342 
3519.286 8333060 8338025 8326675 8302426 8270275 8234884 8199901 8167150 
3523.143 8137406 8110195 8085046 8060674 8035460 8007514 7974338 7934585 
3527.000 7887952 7836398 7784075 7736446 7698333 7672567 7659178 7655064 
3530.858 7655199 7653479 7645048 7626130 7595614 7554783 7506910 7456412 
3534.715 7408516 7367871 7337844 7319142 7309842 7305192 7298722 7284503 
3538.573 7258323 7219275 7169923 7115760 7064062 7021395 6991796 6975600 
3542.430 6969641 6967182 6960920 6945062 6916580 6876519 6829865 6783451 
3546.288 6743672 6714934 6698748 6694004 6697403 6705142 6713218 6717727 
3550.145 6715439 6703425 6680107 6645653 6602657 6555293 6508135 6464816 
3554.002 6426915 6393288 6361245 6326984 6286608 6237060 6176829 6105954 
3557.860 6027228 5945662 5868310 5803362 5757662 5734931 5733588 5747623 
3561.717 5767030 5781837 5785162 5774719 5753095 5726169 5700049 5677422 
3565.575 5655501 5625828 5578771 5509302 5423036 5334002 5258670 5208199 
3569.432 5185229 5185497 5200519 5221545 5241432 5257362 5269570 5280269 
3573.290 5290800 5300124 5303210 5293852 5265445 5214671 5142846 5055982 
3577.147 4962131 4871013 4790971 4728294 4686659 4667267 4668004 4684147 
3581.004 4708196 4732046 4747287 4748660 4734826 4709469 4679559 4653736 
3584.862 4639336 4639034 4649215 4658961 4653636 4619677 4553275 4461373 
3588.719 4359584 4263909 4185450 4130052 4098108 4086033 4087906 4096469 
3592.577 4103292 4100650 4083525 4050781 4006503 3958250 3915051 3883658 
3596.434 3866608 3862262 3866574 3874096 3880849 3884761 3886633 3888070 
3600.292 3890912 3895559 3900808 3904352 3903851 3898434 3888371 3875300 
3604.149 3861158 3848422 3839597 3836421 3840733 3852868 3871087 3890444 
3608.006 3903349 3902045 3881050 3840433 3785279 3724886 3669046 3626544 
3611.864 3603390 3601519 3617589 3644553 3674125 3698920 3714693 3719272 
3615.721 3711518 3690399 3655078 3606364 3548434 3490011 3442450 3415165 
3619.579 3410957 3424315 3444554 3459750 3462656 3451267 3427521 3395729 
3623.436 3360199 3323537 3286210 3247651 3206426 3163168 3121516 3088445 
3627.293 3074062 3089079 3137369 3209930 3285075 3342569 3374090 3384442 
3631.151 3383307 3381103 3384208 3394727 3410322 3424750 3430394 3421443 
3635.008 3396464 3359298 3318161 3282638 3261505 3260504 3279199 3311450 
3638.866 3346008 3372053 3380435 3368246 3339363 3302970 3270352 3250289 
3642.723 3246383 3256197 3271855 3283806 3284508 3269651 3240541 3202854 
3646.581 3167206 3145445 3146013 3170277 3211533 3256765 3292387 3310182 
3650.438 3309347 3293956 3270352 3243979 3218342 3195143 3175384 3159964 
3654.295 3149083 3143009 3141007 3141908 3144478 3148249 3154090 3164236 
3658.153 3180257 3203655 3233831 3268449 3303838 3335624 3359465 3372454 
3662.010 3373456 3363171 3343571 3317827 3288681 3259102 3231261 3207160 
3665.868 3187967 3175050 3169376 3172480 3185263 3208328 3240908 3280368 
3669.725 3321400 3359598 3391755 3418104 3440613 3460418 3476918 3486938 
3673.583 3483398 3457112 3400137 3314355 3216106 3129826 3072427 3045032 
3677.440 3039226 3044431 3052974 3060181 3064485 3067455 3071293 3077600 
3681.297 3087477 3100358 3115142 3131462 3149450 3170077 3194910 3224451 
3685.155 3258334 3293522 3325373 3347177 3351451 3331717 3286444 3221180 
3689.012 3148215 3082138 3034989 3011566 3011032 3028449 3057812 3093350 
3692.870 3131195 3169042 3206092 3241809 3275460 3305207 3328345 3341200 
3696.727 3340732 3326175 3299264 3264710 3228824 3199583 3183862 3186932 
3700.584 3209196 3246383 3289348 3326943 3351484 3360834 3357762 3348880 
3704.442 3340766 3338829 3345474 3360834 3382472 3406749 3429425 3446725 
3708.299 3455475 3453304 3437975 3407684 3361802 3301835 3233631 3166272 
3712.157 3109903 3072828 3057478 3061616 3079769 3105698 3134065 3161799 
3716.014 3188334 3214203 3241642 3271187 3302069 3331183 3353988 3366343 
3719.872 3366410 3355558 3338696 3322468 3312919 3313153 3321767 3333420 
3723.729 3341834 3342435 3333019 3314956 3292186 3268683 3247685 3229959 
3727.586 3214904 3201686 3190370 3181792 3177987 3181125 3192874 3213569 
3731.444 3242310 3277764 3318629 3365241 3419172 3481527 3550171 3618425 
3735.301 3675228 3709848 3716865 3698653 3662029 3613580 3556952 3492817 
3739.159 3421143 3343136 3262106 3183695 3115042 3062183 3030184 3022076 
3743.016 3038158 3073328 3116043 3151653 3170544 3173882 3170844 3172146 
3746.874 3186131 3218943 3274726 3353721 3450198 3550438 3635331 3684050 
3750.731 3686355 3645890 3580371 3512023 3459550 3432164 3429058 3442918 
3754.588 3463558 3480993 3486036 3472743 3438943 3387347 3325006 3261773 
3758.446 3208095 3171512 3155258 3157594 3172713 3193441 3213202 3228390 
3762.303 3237703 3241843 3242377 3240975 3238638 3235567 3231127 3224518 
3766.161 3215939 3206693 3199883 3199082 3208662 3230894 3265311 3307678 
3770.018 3350749 3386379 3409321 3418137 3415065 3403410 3386613 3367612 
3773.875 3348479 3330582 3315090 3303271 3297261 3299164 3311484 3336325 
3777.733 3374190 3423347 3477519 3528090 3564803 3580070 3571718 3542488 
3781.590 3498094 3445923 3393592 3348178 3315724 3299999 3301167 3315056 
3785.448 3334589 3351851 3360032 3355291 3337293 3309113 3276662 3246516 
3789.305 3225152 3216606 3221280 3236235 3255997 3274292 3286177 3289448 
3793.163 3285442 3277730 3271254 3270619 3278732 3295725 3319096 3345307 
3797.020 3371519 3397399 3424983 3457813 3498762 3549202 3606631 3662697 
3800.877 3704233 3716130 3690967 3632926 3554213 3467566 3382338 3304940 
3804.735 3240641 3194976 3173314 3177920 3204523 3241342 3274592 3294089 
3808.592 3297528 3288981 3275260 3262474 3255096 3254628 3259936 3269184 
3812.450 3281169 3297027 3320565 3356994 3410857 3482262 3563834 3640310 
3816.307 3696313 3723783 3724986 3708411 3681744 3650167 3614850 3574024 
3820.165 3525718 3471941 3419540 3378632 3355591 3349781 3356092 3368080 
3824.022 3380635 3390653 3398300 3406048 3417436 3435770 3461120 3490479 
3827.879 3519238 3542187 3556518 3562064 3561730 3559825 3562030 3571919 
3831.737 3590026 3612945 3634630 3649398 3652673 3643584 3623904 3598412 
3835.594 3573122 3553846 3544726 3545895 3553879 3561362 3561596 3549636 
3839.452 3524984 3491147 3453605 3417603 3387280 3365475 3352419 3347143 
3843.309 3347511 3350215 3352519 3352753 3350482 3346776 3343404 3342602 
3847.167 3345908 3354422 3367445 3383440 3400671 3417502 3433733 3451635 
3851.024 3475816 3512958 3568645 3642515 3721578 3782505 3804833 3785279 
3854.881 3734945 3669347 3599949 3535005 3478989 3434201 3401506 3380401 
3858.739 3370083 3368480 3373389 3382271 3392356 3401439 3408753 3414530 
3862.596 3420742 3429926 3443051 3459316 3474780 3485268 3487907 3483899 
3866.454 3477285 3473812 3479557 3498595 3530896 3569981 3603824 3618091 
3870.311 3605528 3570415 3524549 3480725 3446792 3426486 3417770 3414631 
3874.168 3408686 3393725 3367412 3332986 3295492 3260604 3233063 3215739 
3878.026 3210932 3220145 3244146 3282404 3331216 3384509 3434334 3474179 
3881.883 3500833 3514962 3520073 3521543 3524449 3532600 3546630 3562164 
3885.741 3572052 3569614 3553378 3527489 3499497 3476985 3466764 3472709 
3889.598 3494453 3526286 3556886 3573689 3567175 3536007 3487573 3433967 
3893.456 3385744 3350115 3329814 3324138 3330282 3345240 3366744 3393325 
3897.313 3424315 3458949 3495622 3531731 3564035 3589725 3607199 3616687 
3901.170 3619527 3617055 3609938 3597944 3580839 3559324 3535706 3513459 
3905.028 3496224 3485869 3482362 3483498 3486671 3489209 3489577 3487305 
3908.885 3483331 3478822 3474647 3471206 3467666 3463057 3456444 3448094 
3912.743 3439478 3433132 3431930 3438041 3452202 3473812 3499998 3526887 
3916.600 3550472 3567843 3577598 3579903 3575961 3566774 3553445 3536942 
3920.458 3518570 3499698 3482696 3469670 3462522 3462589 3470839 3486704 
3924.315 3509618 3537777 3569580 3603022 3636601 3668411 3696648 3719505 
3928.172 3736082 3746008 3750587 3751723 3751823 3751957 3752191 3750653 
3932.030 3744771 3733007 3716164 3696848 3678670 3665671 3659924 3661494 
3935.887 3668411 3678068 3686957 3692704 3694075 3690633 3683214 3672721 
3939.745 3660091 3647159 3635198 3626310 3622334 3623670 3628582 3633460 
3943.602 3633627 3625809 3608903 3584948 3558623 3535706 3521844 3520474 
3947.459 3531865 3552576 3576930 3598846 3613914 3620196 3618091 3609738 
3951.317 3597911 3585282 3574291 3567375 3566507 3572954 3587287 3608168 
3955.174 3632959 3658086 3679872 3695378 3703465 3703866 3697550 3686054 
3959.032 3670416 3652439 3633861 3617790 3607132 3604526 3610640 3623036 
3962.889 3636935 3646057 3644854 3630353 3603490 3568712 3532733 3502169 
3966.747 3482028 3474580 3478955 3492850 3512724 3536241 3561396 3586919 
3970.604 3611743 3634128 3652272 3664000 3668277 3664735 3654444 3639808 
3974.461 3623904 3610239 3602354 3603624 3616520 3641613 3677199 3719105 
3978.319 3761047 3795808 3816666 3820610 3807473 3781569 3749350 3718637 
3982.176 3695411 3682679 3679973 3684050 3690399 3694008 3691568 3681777 
3986.034 3665671 3645489 3625441 3609705 3601252 3601586 3609738 3622000 
3989.891 3632491 3635799 3627646 3607433 3578199 3546129 3519272 3504708 
3993.749 3506845 3526186 3559358 3599815 3640377 3673757 3695211 3702796 
3997.606 3697048 3681476 3660391 3638706 3620931 3609537 3605428 
##END=
