##TITLE=mas_3 Sep 19 13:57:25 2026 (GMT+02:00)
##JCAMP-DX=5.01  $$ Nicolet v. 970
##DATATYPE=INFRARED SPECTRUM
##ORIGIN=Vojna akademija
##OWNER=Nicolet
##LONGDATE=2026/09/19
##TIME=13:58:00
##SPECTROMETER/DATA SYSTEM=Nicolet iS20
##DATA PROCESSING=
Ratio against background
%Transmittance->Absorbance
Truncated
ElementMultiply or ElementDivide
##COMMENTS=
Number of sample scans: 8
Collection length: 11,90 sec
Sample gain: 8,0
Background collected on: Sat Sep 19 13:56:33 2026 (GMT+02:00);
Number of background scans: 8
Background gain: 8,0
Sample spacing:  1,000
Number of scan points: 12415
Resolution points: 8286
Number of FFT points: 65536
Apodization: N-B strong;
Phase correction: Mertz;
Laser frequency: 15798,00 cm-1
Number of rejected sample scans: 0
Number of rejected background scans: 0
Bench serial number: BER2010005;
##RESOLUTION= 4,000
##XUNITS=1/CM
##YUNITS=ABSORBANCE
##FIRSTX=400.156891
##LASTX=4000.123047
##FIRSTY=0.034700
##MAXX=4000.123047
##MINX=400.156891
##MAXY=0.158363
##MINY=-0.001902
##XFACTOR=1.000000
##YFACTOR=1.000000E-009
##NPOINTS=7468
##DELTAX=0.482117
##ZPD=6100
##XYDATA=(X++(Y..Y))
400.157 34700152 34022212 33245236 32531458 31890594 31206452 30298858 
403.532 28966466 27079530 24647652 21864298 19073292 16666086 14948901 
406.907 14007785 13717662 13812227 14030268 14198948 14307315 14473875 
410.281 14876580 15630901 16726997 18021894 19308090 20389870 21154602 
413.656 21607220 21841196 21971774 22071396 22152734 22177982 22096496 
417.031 21885660 21582808 21289008 21125172 21136234 21251010 21363032 
420.406 21441384 21549588 21783744 22198624 22754520 23292494 23565686 
423.781 23290852 22300112 20633270 18550648 16417537 14578097 13264100 
427.155 12546275 12376294 12630454 13170814 13861896 14584230 15230961 
430.530 15682941 15840648 15658792 15192528 14601260 14117407 13967647 
433.905 14273895 15010533 15984831 16912092 17496924 17584932 17225766 
437.280 16640918 16092649 15770137 15728803 15893228 16116170 16258003 
440.655 16266810 16201559 16209196 16431713 16920498 17568510 18148564 
444.030 18393024 18127836 17323030 16104065 14696122 13378727 12404249 
447.404 11911291 11905842 12269054 12827938 13408764 13897576 14249344 
450.779 14477711 14638270 14803894 15041403 15382942 15818791 16300486 
454.154 16763672 17141380 17383758 17466776 17395622 17207046 16965180 
457.529 16748693 16615821 16580811 16604185 16623290 16570965 16400263 
460.904 16098358 15688987 15234359 14822991 14556647 14511559 14721383 
464.278 15173519 15819617 16588040 17392586 18145972 18748524 19097806 
467.653 19101336 18685980 17824694 16551415 14980178 13290610 11710241 
471.028 10480498 9770644 9626983 9931404 10454905 10934524 11202666 11239999 
474.885 11148712 11082969 11168634 11459645 11910337 12393033 12744198 
478.260 12844422 12650990 12214660 11641826 11062508 10584785 10272712 
481.635 10148218 10197842 10388386 10673509 11001841 11313214 11537489 
485.009 11614225 11502580 11197124 10724450 10129665 9453366 8720102 7941570 
488.866 7128357 6307048 5538330 4905829 4504292 4406509 4627313 5105497 
492.723 5707871 6278843 6680073 6851508 6823234 6704704 6638588 6756629 
496.580 7141324 7790282 8617140 9473650 10204931 10669909 10779540 10510572 
500.437 9914725 9115914 8286620 7622084 7267083 7279583 7616588 8163233 
504.294 8764660 9269900 9571699 9610146 9389876 8972368 8465549 7988580 
508.151 7635438 7454423 7433525 7514090 7611429 7650275 7583543 7412560 
512.008 7183869 6976375 6866017 6896347 7066924 7332183 7620735 7854684 
515.865 7981526 7985307 7888053 7727440 7538161 7333733 7111314 6867026 
519.722 6616652 6400081 6274002 6283650 6442956 6722943 7062311 7385665 
523.579 7632841 7783805 7863221 7925440 8017808 8147804 8265175 8280270 
527.436 8100440 7681369 7047055 6291483 5545009 4949395 4617065 4593356 
531.293 4849133 5286809 5779890 6194843 6433674 6450052 6252051 5899276 
535.150 5490142 5142846 4956399 4994641 5264304 5714720 6247245 6745388 
539.007 7114244 7298688 7301451 7170462 6979068 6792909 6656151 6585770 
542.863 6579748 6633272 6751951 6951526 7249226 7646330 8117825 8608793 
546.720 9055452 9406941 9641686 9773660 9840188 9884928 9935404 9998600 
550.577 10061771 10106535 10120169 10104873 10072792 10037559 10004058 
553.952 9962186 9889877 9764849 9573156 9317460 9017223 8705228 8420413 
557.809 8199597 8076573 8077181 8214961 8487714 8870970 9315496 9747906 
561.666 10093139 10289609 10312918 10184918 9968357 9744144 9579727 9512867 
565.523 9537998 9615600 9692031 9728896 9720967 9702162 9729031 9862083 
569.380 10138891 10558914 11083887 11651901 12200619 12677054 13054603 
572.755 13332463 13531292 13681960 13816298 13958032 14115456 14282044 
576.130 14440407 14571758 14664522 14721383 14757203 14794090 14850350 
579.504 14932851 15033102 15131283 15205431 15243282 15250385 15248258 
582.879 15263735 15314942 15400519 15497101 15568872 15578832 15509016 
586.254 15366980 15182544 14992423 14826282 14692592 14576863 14450546 
589.629 14286735 14077293 13838942 13610090 13432823 13337144 13323067 
593.004 13361608 13407500 13423219 13393079 13330651 13270351 13254501 
596.378 13311895 13444510 13625372 13809389 13950197 14013432 13990333 
599.753 13897679 13771765 13651084 13566980 13534949 13552964 13607183 
603.128 13677550 13743413 13783189 13778332 13713592 13578090 13370287 
606.503 13099847 12790024 12472545 12183887 11955156 11803178 11728282 
609.878 11714597 11737303 11766307 11775670 11746528 11666978 11532318 
613.253 11343652 11107443 10835350 10547304 10271491 10039628 9885403 
616.627 9833646 9894793 10061907 10311357 10608925 10914307 11191344 
620.002 11410659 11551100 11602790 11564235 11442942 11254689 11024102 
623.377 10781442 10558337 10387062 10292153 10288692 10379155 10552905 
626.752 10786333 11046737 11298828 11507887 11648258 11707925 11692881 
630.127 11625830 11541335 11476417 11455868 11483800 11538510 11580705 
633.501 11561172 11439200 11198008 10850094 10434677 10004397 9615058 
636.876 9308659 9109925 9027981 9060865 9201361 9439887 9766035 10164294 
640.733 10613135 11089053 11566174 12022700 12443493 12814049 13117844 
644.108 13332052 13428038 13383921 13196704 12898348 12552686 12254057 
647.483 12099930 12157581 12445301 12917122 13477355 14003337 14393687 
650.858 14592729 14603077 14475485 14286906 14112546 13998136 13955671 
654.232 13967682 14003029 14031604 14038482 14025649 14010010 14016204 
657.607 14070618 14197269 14411429 14715864 15093922 15510938 15912373 
660.982 16239222 16446615 16515790 16467502 16356358 16259206 16241252 
664.357 16341358 16559640 16864656 17198704 17487714 17658156 17652012 
667.732 17474606 17220768 17041882 17032854 17197394 17491510 17875720 
671.107 18331258 18856408 19453188 20111520 20801056 21477518 22088444 
674.481 22593166 22975282 23245268 23435610 23589964 23752212 23950270 
677.856 24194726 24480754 24795280 25124428 25458780 25793246 26124174 
681.231 26445420 26747136 27016338 27243302 27426226 27576004 27714426 
684.606 27871052 28073858 28340668 28675948 29069406 29500032 29936054 
687.981 30343092 30690378 30953532 31124858 31216100 31262066 31314090 
691.355 31435862 31684786 32091968 32651682 33316460 34010568 34643232 
694.730 35139880 35460752 35612176 35640628 35618364 35621708 35704260 
698.105 35894096 36187900 36560472 36970488 37373632 37730312 38008288 
701.480 38190848 38280552 38303020 38300780 38326832 38427388 38622544 
704.855 38901928 39226172 39547608 39826388 40054444 40258152 40493232 
708.229 40818632 41276664 41878596 42603600 43409856 44252208 45101896 
711.604 45948236 46795456 47649512 48506132 49348376 50154956 50913440 
714.979 51634184 52354332 53129932 54013168 55038956 56208080 57487580 
718.354 58812176 60099492 61267308 62235708 62942104 63346064 63433716 
721.729 63223676 62765872 62132856 61393236 60599288 59767428 58881036 
725.104 57902472 56799324 55565452 54231748 52856996 51508148 50239944 
728.478 49073472 47996892 46972556 45959104 44924120 43858940 42776440 
731.853 41705056 40676044 39710736 38817428 37988904 37207224 36449940 
735.228 35699508 34946172 34191420 33444416 32718054 32020874 31351946 
738.603 30700336 30048990 29383764 28701290 28013632 27346680 26731596 
741.978 26190824 25729400 25331540 24968508 24608480 24229094 23825748 
745.352 23408612 22993238 22589712 22194092 21790574 21358856 20887546 
748.727 20383968 19877292 19411712 19028148 18755616 18598508 18537264 
752.102 18533080 18541726 18524158 18452278 18313284 18107696 17846928 
755.477 17549224 17240488 16950470 16706372 16528009 16419772 16367437 
758.852 16339052 16296428 16205687 16049946 15836557 15596004 15372643 
762.227 15206975 15126480 15135262 15215931 15334988 15454661 15546034 
765.601 15590783 15585151 15535044 15451262 15344290 15222966 15093271 
768.976 14958435 14819151 14672473 14511594 14326561 14107618 13848999 
772.351 13554297 13238172 12924837 12644202 12420854 12268406 12182456 
775.726 12142145 12114001 12064396 11971368 11829157 11650675 11461277 
779.101 11289544 11155817 11066484 11014212 10984441 10961674 10938126 
782.475 10914205 10896979 10893276 10904726 10924874 10942645 10946484 
785.850 10929563 10892494 10841398 10783345 10721630 10653745 10573716 
789.225 10477952 10370196 10262568 10171960 10112708 10086628 10078455 
792.600 10056853 9985919 9834765 9589788 9259440 8873439 8472374 8094903 
796.457 7772808 7524440 7356783 7270317 7261523 7324904 7452131 7633111 
800.314 7856000 8108710 8382037 8668618 8961646 9252502 9525432 9759190 
804.171 9931132 10021521 10024063 9949609 9826291 9690337 9577559 9511817 
808.028 9499015 9529801 9586163 9650629 9712496 9770576 9828765 9891843 
811.885 9959644 10025895 10081100 10119015 10140349 10156731 10186512 
815.259 10250965 10366259 10537934 10758922 11009895 11265026 11495027 
818.634 11676849 11795927 11849212 11845705 11804200 11749388 11704011 
822.009 11686141 11702003 11746221 11804336 11858508 11894093 11903594 
825.384 11889223 11861028 11832289 11814550 11815503 11837976 11881460 
828.759 11943985 12023586 12118022 12224270 12337703 12450927 12555380 
832.133 12643144 12708339 12749111 12767981 12770915 12767128 12765967 
835.508 12777467 12808725 12862442 12933644 13011445 13079939 13123376 
838.883 13134100 13115830 13086632 13072735 13103331 13197490 13358464 
842.258 13570740 13806378 14033930 14225960 14368205 14458871 14505187 
845.633 14516253 14500425 14463735 14412525 14358787 14319301 14312555 
849.008 14352690 14441126 14563603 14692112 14795735 14849733 14845275 
852.382 14792993 14719189 14656297 14629943 14655132 14730158 14841607 
855.757 14967660 15085895 15176744 15226363 15227598 15181479 15097455 
859.132 14991256 14884843 14800020 14752232 14748942 14788570 14864168 
862.507 14968792 15099926 15258485 15444601 15651269 15858071 16031759 
865.882 16137455 16146844 16053384 15877625 15664151 15465785 15325686 
869.256 15265039 15276777 15330388 15383629 15401445 15362036 15261264 
872.631 15107816 14915911 14698556 14465516 14227604 13999230 13800358 
876.006 13655734 13585611 13601577 13701008 13867950 14077189 14301631 
879.381 14520295 14718675 14888890 15026174 15125999 15183710 15199048 
882.756 15180038 15142330 15110389 15109051 15154717 15250556 15383663 
886.131 15529310 15657453 15744127 15776940 15756771 15695171 15607132 
889.505 15506028 15397944 15282233 15154030 15010224 14852990 14692557 
892.880 14546129 14433522 14370534 14363444 14406223 14482302 14569017 
896.255 14644166 14694374 14717235 14722000 14724262 14741436 14784868 
899.630 14856522 14948833 15049293 15144320 15223995 15284602 15327848 
903.005 15357608 15376076 15382221 15370824 15336121 15273893 15185082 
906.379 15077764 14965911 14866499 14795187 14763408 14773761 14819082 
909.754 14883575 14948456 14995475 15013756 15003192 14974657 14945437 
913.129 14931720 14942762 14974108 15008406 15017736 14975960 14863379 
916.504 14676141 14427048 14144003 13861724 13612859 13424723 13312476 
919.879 13278755 13314491 13400665 13511877 13618843 13696630 13727169 
923.254 13703367 13630912 13525686 13409516 13302704 13222049 13177441 
926.628 13172762 13209035 13285280 13398991 13543461 13707505 13875134 
930.003 14029550 14159750 14265060 14357178 14455205 14579090 14738281 
933.378 14925135 15114506 15273551 15371991 15394134 15345526 15251380 
936.753 15147717 15066341 15029363 15043118 15101057 15190572 15299737 
940.128 15420190 15545965 15672052 15791336 15894981 15976960 16035575 
943.502 16076902 16112421 16155509 16216660 16301587 16413750 16557127 
946.877 16739670 16971934 17260828 17602082 17973612 18339346 18653604 
950.252 18877446 18994570 19016344 18979512 18932750 18922126 18973906 
953.627 19091366 19258974 19455234 19661288 19867374 20070882 20266780 
957.002 20440296 20566214 20612108 20553638 20386708 20135154 19845278 
960.377 19575978 19383232 19301440 19339580 19478728 19681084 19896822 
963.751 20076748 20182218 20187460 20086880 19895886 19652136 19405684 
967.126 19212286 19118960 19148948 19297074 19529048 19794922 20037224 
970.501 20212104 20298202 20298026 20232828 20132550 20026502 19934668 
973.876 19866368 19821556 19793674 19773732 19753796 19729418 19701610 
977.251 19676960 19666248 19681190 19729174 19808656 19907262 20006240 
980.625 20085214 20131302 20144942 20140742 20140362 20162192 20212904 
984.000 20282160 20347330 20380702 20363928 20294000 20185968 20064532 
987.375 19956522 19880970 19844864 19846180 19878854 19938794 20025462 
990.750 20139076 20275634 20421680 20556556 20655540 20699500 20682958 
994.125 20616696 20524422 20431996 20361706 20323408 20314622 20324554 
997.500 20342158 20361674 20385530 20422480 20483608 20576636 20703462 
1000.874 20858794 21031538 21208456 21374864 21518252 21629368 21703624 
1004.249 21742044 21752426 21747724 21742288 21749048 21776324 21826424 
1007.624 21896810 21982228 22077218 22176586 22275870 22369598 22452146 
1010.999 22519562 22572854 22621544 22681586 22773304 22912824 23103476 
1014.374 23333154 23575832 23801562 23985562 24119798 24215362 24298224 
1017.748 24396104 24527940 24695346 24882570 25062292 25205990 25295188 
1021.123 25324130 25299578 25235662 25149074 25053972 24961594 24880430 
1024.498 24817102 24776478 24762200 24776584 24821416 24900220 25017856 
1027.873 25179832 25387498 25633784 25898148 26149896 26354296 26481516 
1031.249 26520784 26484158 26404926 26323314 26275966 26279558 26327082 
1034.624 26389082 26427602 26408130 26308600 26125088 25868536 25559732 
1037.999 25221546 24877834 24551782 24264412 24034448 23875698 23792986 
1041.374 23779930 23819936 23889982 23965954 24032068 24082918 24123512 
1044.750 24165230 24220372 24296578 24394738 24509640 24633062 24757816 
1048.125 24879552 24998060 25117266 25244476 25388586 25559416 25765788 
1051.500 26013274 26303846 26633682 26996100 27381086 27778108 28176730 
1054.875 28565774 28932534 29261752 29536524 29745006 29884834 29968998 
1058.251 30023886 30085884 30189162 30353220 30578840 30847442 31130516 
1061.626 31397820 31629582 31819030 31969904 32088078 32177276 32235656 
1065.001 32260246 32254428 32232874 32218668 32241330 32321848 32466076 
1068.376 32661326 32881394 33095814 33280756 33427882 33545130 33652780 
1071.752 33775600 33939948 34169660 34484540 34901576 35429976 36069648 
1075.127 36804848 37607808 38440456 39265052 40056952 40809712 41534428 
1078.502 42251520 42979492 43725320 44482488 45237264 45978440 46704608 
1081.877 47425564 48154788 48899592 49652768 50395308 51101924 51755784 
1085.253 52357132 52925672 53489936 54075044 54692060 55334756 55985220 
1088.628 56625076 57245236 57847316 58437912 59018420 59578000 60094088 
1092.003 60543252 60911932 61206724 61453080 61686596 61935556 62209780 
1095.378 62495892 62761896 62967384 63073844 63055188 62895724 62590672 
1098.754 62145168 61576200 60913304 60197868 59480756 58806520 58207088 
1102.129 57696528 57271812 56920864 56632816 56403664 56235536 56129572 
1105.504 56078784 56063028 56054432 56028156 55973500 55902948 55848456 
1108.879 55851280 55942404 56134700 56418376 56770848 57168844 57602956 
1112.255 58081284 58624228 59248956 59957320 60727076 61518012 62279912 
1115.630 62966272 63546040 64001320 64322384 64502092 64530880 64401812 
1119.005 64116256 63689360 63147752 62523172 61844352 61128980 60385732 
1122.380 59620460 58843324 58075264 57345880 56685028 56118788 55660356 
1125.755 55312584 55073072 54940764 54921400 55028500 55276080 55674780 
1129.131 56225012 56919352 57745500 58695148 59769216 60978272 62337588 
1132.506 63858748 65543236 67381536 69353376 71434936 73604432 75839304 
1135.881 78112144 80388576 82619448 84751304 86738672 88553016 90190288 
1139.256 91664600 92994496 94187656 95236368 96122760 96834760 97381312 
1142.632 97798120 98136464 98450992 98777272 99123616 99475440 99811040 
1146.007 100115856 100392248 100656648 100930080 101226304 101547016 
1148.900 101886280 102241648 102621656 103048280 103544704 104121120 
1151.793 104762984 105431232 106073688 106642112 107113872 107494136 
1154.686 107809400 108088304 108349152 108591128 108802136 108970816 
1157.579 109099520 109204920 109309872 109426232 109544840 109633248 
1160.472 109650984 109563352 109357696 109044744 108648656 108188144 
1163.365 107664392 107058456 106342200 105496112 104522072 103445600 
1166.258 102308360 101153904 100011640 98897456 97815392 96766360 95753688 
1169.634 94781656 93848768 92939216 92023496 91064304 90028984 88905904 
1173.009 87708864 86473704 85240560 84041456 82887688 81770568 80670720 
1176.384 79572808 78475496 77393176 76348472 75360136 74434496 73560936 
1179.759 72716560 71874992 71017688 70136328 69232896 68314856 67389352 
1183.135 66461416 65534340 64613848 63708848 62831812 61995212 61206608 
1186.510 60466884 59770320 59108048 58471956 57857804 57265120 56694652 
1189.885 56144236 55608192 55076416 54539844 53993804 53440804 52889816 
1193.260 52352648 51838732 51349664 50878200 50409896 49928708 49420620 
1196.636 48880272 48311964 47730012 47154052 46606476 46107748 45671096 
1200.011 45301656 44995780 44743304 44529956 44341484 44166768 43998440 
1203.386 43832992 43669368 43506648 43342780 43174912 43000744 42819956 
1206.761 42636240 42456956 42289976 42143216 42021032 41925228 41854916 
1210.137 41808836 41786400 41786620 41806972 41840720 41875568 41896988 
1213.512 41889288 41842220 41754336 41634156 41497316 41362156 41245224 
1216.887 41157348 41103040 41083148 41096336 41141976 41220080 41329792 
1220.262 41467532 41626716 41798728 41975884 42154680 42337680 42532336 
1223.638 42746936 42985856 43245404 43514048 43774388 44008448 44205436 
1227.013 44362840 44489024 44598540 44708884 44833812 44981448 45152000 
1230.388 45340092 45536100 45729768 45913064 46080484 46230128 46362864 
1233.763 46480784 46586008 46679156 46758296 46820624 46861336 46876392 
1237.139 46862960 46818820 46742356 46632300 46486904 46305652 46089400 
1240.514 45842212 45569880 45278340 44972444 44654092 44321888 43973356 
1243.889 43606904 43222492 42822292 42407996 41979244 41533372 41066908 
1247.264 40579700 40077808 39575048 39091320 38645832 38251924 37913004 
1250.640 37622548 37366844 37130200 36900680 36670564 36436208 36196724 
1254.015 35951680 35701992 35451728 35210232 34990204 34804460 34659524 
1257.390 34550120 34458140 34357140 34223900 34045972 33829400 33596964 
1260.765 33379790 33202420 33073216 32982584 32909342 32831072 32734204 
1264.141 32618854 32495644 32378108 32273166 32177738 32079876 31965732 
1267.516 31824738 31655416 31464572 31264096 31064064 30871240 30688600 
1270.891 30517874 30362458 30228802 30123102 30049168 30004466 29979718 
1274.266 29961790 29938716 29902828 29852960 29792380 29725244 29652514 
1277.641 29572206 29479606 29371888 29250870 29123118 28996360 28875024 
1281.017 28755452 28626324 28471586 28276512 28034342 27748720 27432544 
1284.392 27102030 26773424 26457604 26159890 25882004 25624190 25386338 
1287.767 25167930 24967174 24779984 24602064 24431048 24269248 24124492 
1291.142 24007204 23926812 23886482 23880460 23894848 23912598 23919004 
1294.518 23905246 23870484 23819306 23757954 23690518 23618126 23541514 
1297.893 23462922 23389378 23331164 23297250 23292390 23312564 23345428 
1301.268 23373784 23382666 23363540 23317458 23252504 23180744 23112840 
1304.643 23053960 23004246 22959982 22916528 22869234 22815314 22753018 
1308.019 22682006 22603742 22522946 22447644 22387424 22350936 22341342 
1311.394 22353482 22373504 22383414 22367750 22320378 22247482 22166370 
1314.769 22098344 22059368 22056300 22084086 22129828 22176830 22211700 
1318.144 22226208 22218152 22188128 22136662 22062542 21964454 21842974 
1321.520 21702510 21550842 21396966 21247528 21104370 20964284 20821008 
1324.895 20669406 20507574 20339242 20171806 20013594 19870876 19746754 
1328.270 19640766 19550710 19474014 19408802 19354374 19309822 19274284 
1331.645 19247232 19229670 19224926 19239230 19279998 19352952 19460328 
1335.021 19599064 19761250 19936574 20115650 20293514 20469992 20648350 
1338.396 20831436 21018636 21204698 21380678 21539422 21678720 21802278 
1341.771 21917092 22029948 22145134 22263560 22382924 22499496 22609048 
1345.146 22708504 22795864 22870388 22932454 22985518 23035584 23091524 
1348.522 23163408 23257712 23375498 23509056 23645416 23767892 23863972 
1351.897 23927826 23962244 23975900 23979856 23982938 23988610 23996000 
1355.272 24001566 24002056 23996490 23984934 23967252 23941622 23904792 
1358.647 23853926 23789696 23717568 23648670 23596716 23572998 23582862 
1362.023 23622396 23680266 23743220 23803452 23861068 23922400 23993232 
1365.398 24075352 24164040 24250220 24322508 24370554 24389654 24381068 
1368.773 24351314 24308420 24261048 24217672 24188000 24187020 24233194 
1372.148 24349282 24555990 24864080 25265372 25728836 26209232 26659506 
1375.524 27047228 27355784 27575086 27693236 27691754 27546984 27243866 
1378.899 26782976 26187658 25494900 24748310 23986088 23235446 22518026 
1382.274 21849594 21241198 20697034 20210890 19764890 19331058 18879490 
1385.649 18384522 17837054 17251244 16664054 16121052 15654946 15276159 
1389.025 14974211 14729233 14520776 14334677 14162283 13999812 13846604 
1392.400 13704803 13579458 13479064 13414061 13391404 13409481 13454421 
1395.775 13506578 13549888 13577475 13594569 13615766 13659222 13736880 
1399.150 13848315 13978221 14104674 14207233 14274579 14304987 14301391 
1402.526 14268416 14208978 14124800 14017846 13892992 13760478 13633168 
1405.901 13524489 13443622 13394207 13376404 13388534 13431626 13509040 
1409.276 13627013 13792526 14010113 14279544 14595573 14949964 15334370 
1412.651 15741173 16163627 16594270 17022516 17434354 17814924 18148944 
1416.026 18424484 18631640 18761048 18802774 18747902 18597782 18371940 
1419.402 18110080 17854108 17628582 17436560 17265760 17098332 16920016 
1422.777 16726652 16530728 16362621 16258450 16248131 16340462 16524497 
1426.152 16778824 17083996 17428282 17807604 18222746 18674462 19158124 
1429.527 19663230 20174930 20679900 21168586 21637134 22084050 22510106 
1432.903 22914990 23299872 23668860 24030946 24401886 24803384 25255292 
1436.278 25759634 26291632 26807680 27269478 27661982 27990942 28272376 
1439.653 28524832 28762638 28995334 29226132 29452798 29670714 29874574 
1443.028 30063052 30237790 30404070 30567854 30735508 30913682 31110656 
1446.404 31339378 31616394 31958886 32378786 32876748 33444774 34073852 
1449.779 34760880 35511272 36334604 37236644 38210168 39231468 40268476 
1453.154 41285192 42258056 43177840 44042624 44849536 45577720 46177540 
1456.529 46577340 46736564 46698228 46564356 46429932 46336064 46284532 
1459.905 46265768 46272624 46303736 46360284 46442028 46542704 46646320 
1463.280 46729624 46759624 46698672 46511432 46162244 45616476 44840280 
1466.655 43799972 42480632 40893876 39083780 37109120 35034488 32907664 
1470.030 30729354 28465500 26059116 23482682 20805262 18222814 15977578 
1473.406 14211443 12908520 11948753 11191956 10541227 9946659 9397495 
1476.781 8901644 8467982 8095545 7774427 7492987 7243802 7025604 6842286 
1480.638 6697773 6590883 6513751 6454861 6402603 6350721 6297400 6242975 
1484.496 6187079 6127863 6063011 5992188 5919866 5854842 5805746 5774719 
1488.353 5750241 5708778 5622774 5479136 5292041 5096982 4929388 4807219 
1492.211 4728662 4678152 4635183 4580196 4500441 4392250 4264612 4136976 
1496.068 4034461 3974869 3958284 3966308 3974267 3964034 3928224 3870987 
1499.925 3802092 3732639 3670583 3620196 3581540 3551541 3524883 3494754 
1503.783 3453939 3396731 3322135 3240908 3186599 3212701 3359498 3592632 
1507.640 3815830 3951161 3981724 3930264 3827463 3702295 3577632 3472308 
1511.498 3397065 3355357 3342435 3349915 3367612 3386379 3398434 3396998 
1515.355 3376027 3332852 3271654 3205057 3148716 3114675 3104630 3112205 
1519.213 3125755 3133164 3124153 3096554 3060014 3034455 3036490 3067489 
1523.070 3116944 3170945 3219511 3256164 3278431 3285609 3277864 3255329 
1526.927 3218309 3167874 3106098 3037024 2964358 2890569 2816027 2738296 
1530.785 2653878 2560944 2463231 2375036 2321867 2331328 2413817 2550345 
1534.642 2705820 2849244 2966393 3057345 3128191 3186799 3237470 3276462 
1538.500 3286711 3235801 3089212 2843074 2548279 2283527 2100401 2008750 
1542.357 1991341 2024429 2088981 2172124 2265041 2359578 2448270 2525216 
1546.214 2587809 2637643 2679315 2719124 2762604 2812992 2867588 2918789 
1550.072 2955817 2971497 2965492 2943274 2911884 2877327 2842107 2804821 
1553.929 2761837 2709788 2649078 2584609 2524882 2480426 2465497 2498288 
1557.787 2600109 2776909 2984708 3134465 3179756 3149517 3088512 3022643 
1561.644 2961455 2907147 2859583 2817928 2780944 2746232 2710888 2671880 
1565.502 2627876 2581576 2538547 2506186 2493089 2505920 2545346 2602308 
1569.359 2656978 2687983 2684016 2649444 2598109 2543513 2494056 2453368 
1573.216 2421813 2398657 2383698 2379400 2389961 2419981 2468696 2528082 
1577.074 2586875 2637677 2679748 2715723 2748099 2776576 2797518 2804421 
1580.931 2790415 2752234 2692284 2620009 2548445 2490290 2455234 2446037 
1584.789 2458700 2484058 2512551 2535814 2549779 2554378 2551778 2544846 
1588.646 2535647 2525582 2516051 2508652 2507419 2516584 2539780 2578309 
1592.504 2629609 2686416 2738829 2777043 2793950 2787380 2761403 2724859 
1596.361 2688150 2659312 2642277 2635810 2635443 2635976 2635176 2634343 
1600.218 2638976 2656678 2693318 2750533 2823497 2901443 2972298 3025746 
1604.076 3056711 3067389 3063751 3053074 3039460 3023044 2999989 2965492 
1607.933 2916721 2855715 2788948 2726292 2676881 2646877 2637710 2647244 
1611.791 2669980 2699152 2728626 2752567 2765938 2764605 2745498 2708854 
1615.648 2660079 2612442 2580942 2574409 2589009 2613209 2635476 2650011 
1619.505 2657845 2664346 2676481 2701086 2740963 2793016 2846409 2886433 
1623.363 2903078 2896974 2879095 2862385 2854847 2856782 2861585 2857716 
1627.220 2834636 2788314 2724792 2658112 2605575 2580276 2586875 2623009 
1631.078 2681415 2754034 2833135 2913885 2994283 3074196 3154056 3231861 
1634.935 3300299 3346509 3358763 3335223 3285843 3225219 3166405 3119047 
1638.793 3092283 3094351 3132029 3208495 3320632 3458615 3606297 3747010 
1642.650 3865271 3949088 3991923 3990151 3944875 3861326 3756368 3661628 
1646.507 3619327 3665270 3802159 4000450 4220846 4435731 4630360 4798140 
1650.365 4936291 5037981 5091014 5076364 4979659 4822664 4685722 4651794 
1654.222 4720255 4837172 4954623 5049580 5112303 5141304 5140097 5115622 
1658.080 5076196 5030171 4983748 4939575 4896547 4850473 4795493 4726385 
1661.937 4639637 4537137 4425220 4314672 4216330 4139653 4090883 4075564 
1665.795 4097439 4158586 4256848 4381574 4512729 4619342 4665793 4630360 
1669.652 4519324 4367683 4218572 4104931 4038173 4014495 4024227 4059075 
1673.509 4114431 4189264 4282547 4389071 4496960 4592988 4668405 4722466 
1677.367 4759514 4784873 4801926 4811307 4811407 4799949 4775761 4740185 
1681.224 4696741 4650789 4609698 4583645 4588065 4638632 4736902 4860827 
1685.082 4981603 5085550 5176175 5262158 5352015 5450414 5557963 5670137 
1688.939 5778278 5872844 5945595 5994204 6022827 6041138 6060424 6092008 
1692.797 6146279 6231950 6357143 6528316 6746297 6998093 7253336 7475693 
1696.654 7643531 7757932 7832754 7883937 7924461 7968263 8035460 8145340 
1700.511 8303371 8492342 8686331 8868739 9035626 9191918 9345626 9506060 
1704.369 9679529 9864151 10047087 10206628 10322113 10385196 10401146 
1707.744 10384957 10354383 10326626 10315903 10330019 10372809 10445062 
1711.119 10545368 10673509 10830493 11017202 11232383 11471926 11727260 
1714.495 11989489 12254978 12531849 12841965 13214295 13673276 14214285 
1717.870 14797518 15367838 15888726 16359111 16804104 17255554 17744436 
1721.245 18296074 18930398 19661358 20497120 21439678 22485924 23628868 
1724.620 24859974 26170590 27554892 29013506 30561030 32232802 34084284 
1727.995 36181632 38579812 41289160 44252096 47353208 50454032 53478504 
1731.371 56472184 59645924 63369876 68141088 74382624 82019872 90208728 
1734.746 97748656 103947448 108902688 113094608 116988864 120906104 
1737.639 125020024 129385840 133948040 138576560 143081360 147261344 
1740.532 150941200 153976752 156255520 157714432 158362784 158303872 
1743.425 157704048 156733776 155474512 153893872 151871936 149285344 
1746.318 146074768 142290304 138059808 133544088 128840312 123938360 
1749.211 118731232 113118256 107112520 100890112 94762080 89042296 83923704 
1752.587 79427624 75449416 71824640 68384624 64985044 61515228 57908720 
1755.962 54172216 50396312 46738484 43362772 40367660 37763380 35488044 
1759.337 33442196 31516444 29613564 27675542 25702682 23764182 21967138 
1762.712 20404872 19114112 18072668 17221698 16494313 15830407 15186558 
1766.088 14539002 13881805 13225977 12591910 12002603 11473253 11008298 
1769.463 10602576 10245368 9923370 9619767 9317290 9001290 8669361 8337281 
1773.320 8029486 7766601 7556873 7396518 7271766 7164230 7054834 6930787 
1777.178 6788264 6633104 6475679 6327388 6196389 6084784 5989467 5904348 
1781.035 5823678 5743157 5659832 5571689 5475780 5371371 5261420 5155219 
1784.892 5065838 5005266 4977614 4976274 4984285 4981770 4952110 4886025 
1788.750 4783902 4655143 4515608 4382142 4270869 4194617 4159891 4164374 
1792.607 4196791 4240319 4275587 4285257 4257986 4188996 4084461 3961360 
1796.465 3846383 3765092 3736449 3763721 3833479 3918863 3988880 4021518 
1800.322 4009613 3963332 3901343 3839764 3783140 3725187 3654978 3566741 
1804.180 3464126 3361468 3277864 3232629 3237036 3291285 3383908 3496257 
1808.037 3607099 3696414 3749784 3759076 3722647 3646224 3543189 3432965 
1811.894 3334255 3261906 3220979 3206793 3207060 3207794 3197346 3169977 
1815.752 3128024 3079635 3035656 3004259 2988111 2984408 2987577 2991014 
1819.609 2990614 2984041 2970129 2948311 2919022 2885366 2853847 2835003 
1823.467 2840606 2877594 2942707 3019207 3083373 3113006 3098122 3042963 
1827.324 2961422 2870223 2782612 2706187 2639843 2577543 2514484 2452235 
1831.182 2398857 2363775 2352215 2363708 2391561 2425878 2456434 2476361 
1835.039 2484025 2482859 2477460 2472262 2468696 2466330 2464498 2464298 
1838.896 2467730 2476727 2490857 2506486 2516884 2515418 2497122 2461432 
1842.754 2412884 2359910 2311674 2274800 2250486 2237297 2234100 2240461 
1846.611 2256548 2279996 2304312 2320035 2317670 2292421 2246989 2191804 
1850.469 2138791 2095740 2062347 2030421 1987979 1926271 1846703 1762558 
1854.326 1695693 1667087 1690238 1764987 1878782 2008650 2130068 2225241 
1858.183 2285226 2311274 2310208 2291288 2262177 2230170 2201595 2181115 
1862.041 2171391 2170492 2172723 2169027 2151578 2117182 2069704 2018504 
1865.898 1973900 1942546 1922311 1902176 1866935 1808305 1732551 1660269 
1869.756 1614604 1608950 1640346 1693331 1747355 1784915 1799521 1795263 
1873.613 1784915 1782620 1797891 1830898 1873490 1914224 1945841 1967010 
1877.471 1982753 1997965 2013044 2021167 2010814 1971769 1902576 1813229 
1881.328 1723103 1652452 1617331 1622353 1661832 1723502 1795229 1871294 
1885.185 1952631 2044503 2149713 2264142 2375369 2462498 2502154 2476194 
1889.043 2377268 2213651 2006387 1784782 1576659 1402706 1275676 1199483 
1892.900 1169880 1175761 1202407 1233840 1260523 1284350 1319910 1387880 
1896.758 1503006 1664925 1853325 2030554 2149746 2174654 2090746 1914357 
1900.615 1685348 1459020 1287440 1203105 1214834 1305552 1442564 1585205 
1904.473 1699119 1760562 1757036 1687543 1561196 1396191 1215598 1047635 
1908.330 918850 848396 845342 905502 1015153 1154930 1307979 1462777 1612841 
1912.670 1753542 1878449 1977960 2042006 2062680 2038744 1975231 1882475 
1916.527 1772040 1652652 1530105 1407459 1288371 1179914 1092975 1040826 
1920.384 1037173 1091447 1205198 1368003 1556307 1734580 1866502 1925639 
1924.242 1898948 1788143 1606289 1374418 1117689 865262 645267 479681 383795 
1928.581 361709 408801 511327 650444 806468 959527 1094038 1198520 1266438 
1932.921 1296546 1293755 1268831 1234903 1206760 1195463 1207590 1245570 
1936.778 1308643 1393797 1497753 1616333 1744660 1876319 2003058 2115484 
1940.636 2204892 2264508 2293420 2294386 2272535 2232368 2175887 2102332 
1944.493 2012046 1907668 1793433 1673340 1548460 1415072 1268631 1109285 
1948.351 948502 809987 724715 720865 809655 977791 1184731 1376911 1500246 
1952.690 1518534 1426341 1247231 1022925 795116 597950 449364 357099 325962 
1957.030 364494 484491 694414 988917 1339220 1691834 1983452 2155807 2180482 
1961.370 2069072 1871993 1657042 1493397 1432990 1497720 1675968 1926205 
1965.227 2188141 2387863 2453301 2331694 2002326 1493597 876882 255870 
1969.084 -269693 -625484 -771866 -707960 -467468 -106744 316081 746919 
1972.942 1151010 1510587 1812398 2039143 2169193 2177085 2050129 1796693 
1976.799 1448415 1048333 647258 289124 7753 -170971 -230054 -158086 50731 
1981.139 392650 849824 1382994 1935224 2436241 2815827 3024812 3040794 
1984.996 2870190 2544279 2114418 1644570 1198154 835549 593073 480643 482368 
1989.336 565369 688673 813971 916127 984965 1027441 1058330 1096529 1157820 
1993.675 1251285 1382961 1555642 1766085 2003724 2248954 2471562 2636476 
1997.533 2717223 2702586 2606175 2459999 2306544 2178051 2088515 2030920 
2001.390 1988778 1948770 1914224 1904273 1946740 2056487 2220312 2389761 
2005.248 2489424 2448803 2225840 1834757 1343773 861344 494508 324437 390229 
2009.587 682301 1152206 1726396 2327397 2872024 3281770 3492883 3464059 
2013.445 3196045 2739296 2195168 1677864 1292292 1097193 1086896 1195131 
2017.302 1322336 1382063 1330645 1183967 996156 832063 730689 689669 666804 
2021.642 607174 461072 210352 -129137 -517973 -910892 -1268736 -1565706 
2025.499 -1783087 -1901766 -1896817 -1741837 -1420780 -946766 -367268 240188 
2029.357 786751 1212740 1497919 1668418 1774934 1872059 1986515 2109624 
2033.214 2199331 2207323 2098536 1869464 1547961 1183602 828411 518525 
2037.071 270789 85825 -39759 -101411 -81932 41088 285576 646760 1090882 
2041.411 1558502 1983153 2305411 2487757 2522416 2426911 2234200 1976163 
2045.268 1678296 1352548 1003396 639460 281001 -35783 -265984 -373425 
2049.126 -344060 -193260 39696 301491 543340 736000 870507 959527 1026080 
2053.465 1092908 1169481 1251817 1322967 1363649 1359162 1305918 1209451 
2057.323 1080352 926819 752562 557174 342210 114692 -109262 -308302 -458763 
2061.662 -541503 -546434 -471076 -320718 -102504 173955 497560 852380 
2065.520 1215399 1558203 1850663 2068872 2203627 2262043 2266273 2241194 
2069.377 2209055 2179117 2145551 2091744 1999730 1859115 1674139 1464439 
2073.235 1261387 1102342 1019404 1031859 1141276 1329016 1557970 1779559 
2077.092 1946540 2017971 1975531 1827337 1607952 1364912 1147488 990112 
2080.949 902713 870375 864631 859087 842719 829307 850554 946211 1140312 
2085.289 1429798 1775433 2115018 2375969 2499088 2458333 2264275 1960952 
2089.146 1608185 1271290 999477 818585 732183 726707 781838 876616 995691 
2093.486 1127024 1261321 1388080 1495159 1568811 1597543 1572868 1495326 
2097.344 1373853 1226762 1076931 947539 858389 819514 832030 887540 974072 
2101.683 1077197 1185263 1291594 1390972 1479300 1550887 1597809 1612908 
2105.541 1594616 1549624 1493397 1448315 1435549 1467298 1542142 1642840 
2109.398 1742597 1811366 1827903 1785814 1696125 1582611 1476308 1406994 
2113.255 1393099 1442165 1547695 1695294 1864306 2033550 2184245 2299382 
2117.113 2365674 2374236 2320335 2205325 2036047 1828202 1601234 1380534 
2120.970 1192306 1057500 991573 1001105 1082246 1222775 1403803 1602332 
2124.828 1793000 1954861 2070337 2129868 2132365 2085418 2004423 1908167 
2128.685 1816523 1743196 1692167 1655612 1616699 1553215 1444658 1280628 
2132.542 1065239 818950 572834 365953 234552 204584 287963 479714 758636 
2136.882 1090849 1437810 1758566 2015375 2182314 2246456 2213718 2105628 
2140.740 1957091 1804379 1674671 1584540 1532798 1509057 1498052 1488543 
2144.597 1478536 1473449 1480963 1505932 1543439 1579984 1596645 1578055 
2148.454 1519066 1428236 1324297 1229022 1159980 1123004 1108321 1096795 
2152.312 1066534 1000573 895541 766171 641385 560193 557771 658740 865594 
2156.651 1156624 1485916 1794597 2020368 2115284 2060083 1867634 1571039 
2160.509 1211910 831233 462731 138654 -105386 -231677 -202732 8979 408569 
2164.848 970353 1635290 2323566 2944842 3424549 3723449 3837090 3792800 
2168.706 3633560 3406382 3144311 2868355 2587209 2304112 2024462 1760396 
2172.563 1526680 1338356 1201643 1107989 1033021 945414 811414 608634 333655 
2176.903 3611 -342537 -654831 -876901 -958800 -866683 -588657 -140598 433476 
2181.242 1059459 1655013 2141322 2462198 2601275 2581409 2458566 2299715 
2185.100 2170592 2109424 2119746 2170425 2208955 2183146 2057553 1830764 
2188.957 1537952 1242812 1013227 905436 943887 1115397 1371593 1643805 
2192.815 1864872 1979758 1963981 1824842 1599738 1340316 1106262 953317 
2196.672 918551 1020068 1249923 1577390 1952132 2315671 2612575 2798518 
2200.530 2853446 2783512 2617242 2392927 2146050 1897750 1650224 1390573 
2204.387 1102209 779547 435267 104252 -164346 -317804 -318069 -151826 161889 
2208.727 580166 1041989 1484387 1859181 2135362 2302347 2367473 2348917 
2212.584 2268305 2144053 1990476 1815326 1623716 1421088 1216561 1024784 
2216.441 866059 760030 723786 764345 876882 1043483 1238160 1434353 1610912 
2220.781 1759398 1882708 1992673 2099136 2204060 2296984 2357545 2360344 
2224.638 2286525 2131599 1908999 1647064 1381399 1147853 970386 858323 
2228.496 808327 807597 840329 892387 953450 1014356 1067863 1107092 1126625 
2232.835 1124931 1107458 1085999 1075038 1088357 1133369 1206793 1296812 
2236.693 1385022 1454233 1490139 1486182 1441666 1361621 1252747 1124433 
2240.550 989116 863071 767930 727901 762520 883257 1085235 1349257 1641976 
2244.890 1925872 2167628 2341521 2436141 2450836 2393826 2276765 2113586 
2248.747 1920314 1712924 1511451 1336527 1204135 1124333 1097127 1113304 
2252.605 1158186 1217126 1279398 1339951 1398717 1455928 1509822 1556008 
2256.462 1586968 1597144 1585571 1556108 1515641 1470556 1422551 1368668 
2260.320 1302528 1219353 1120613 1016415 923598 859751 839267 867453 939769 
2264.659 1043882 1164863 1288271 1402174 1498850 1572036 1617331 1632397 
2268.517 1619459 1586668 1547263 1517835 1511917 1534527 1580949 1637319 
2272.374 1686878 1716151 1720442 1705705 1684450 1669316 1667653 1678197 
2276.231 1692234 1697922 1686446 1655645 1610214 1559134 1511352 1472884 
2280.089 1445290 1427405 1417432 1416102 1425510 1448614 1487080 1539315 
2283.946 1600702 1665757 1728492 1784915 1832262 1866835 1884039 1877417 
2287.804 1841113 1773404 1679427 1571504 1467232 1384723 1336361 1326091 
2291.661 1347496 1388246 1434020 1474280 1505699 1532466 1563390 1607653 
2295.519 1672509 1760629 1869963 1995269 2128936 2260611 2377268 2464598 
2299.376 2506953 2492423 2416782 2286525 2119779 1941248 1779459 1656643 
2303.233 1584241 1560996 1575096 1608484 1643539 1668850 1680026 1679727 
2307.091 1674272 1670280 1673274 1685980 1709930 1746656 1797159 1861444 
2310.948 1937587 2019369 2097038 2160102 2199597 2211220 2197233 2164598 
2314.806 2123009 2081224 2044270 2012678 1983519 1952331 1915821 1874289 
2318.663 1830798 1790405 1759531 1743695 1746157 1768347 1809303 1865371 
2322.521 1929766 1993538 2045768 2076529 2079925 2054956 2007619 1946806 
2326.378 1883906 1827470 1781222 1743429 1708866 1673207 1636288 1604660 
2330.235 1588763 1599405 1640811 1706936 1782819 1851029 1896818 1916221 
2334.093 1916520 1913425 1923276 1955027 2005455 2059883 2097604 2100734 
2337.950 2063911 1997000 1922943 1868332 1856120 1895687 1981356 2094741 
2341.808 2212386 2314439 2387796 2429544 2443505 2437540 2418482 2392160 
2345.665 2362209 2330128 2297084 2262243 2224375 2181381 2131166 2073100 
2349.522 2009216 1944443 1886169 1843010 1820350 1817289 1824709 1828335 
2353.380 1812697 1769245 1699751 1617165 1539349 1480397 1444858 1424014 
2357.237 1397986 1344537 1250920 1120147 974371 848762 784095 810684 940300 
2361.577 1160710 1439804 1731553 1986548 2167761 2255282 2251052 2175320 
2365.434 2059251 1934692 1825540 1745591 1696990 1674837 1670646 1675835 
2369.292 1684284 1690737 1691868 1685148 1670946 1653051 1639148 1639814 
2373.149 1663661 1714188 1785614 1863541 1927103 1955926 1936090 1864905 
2377.007 1751047 1613273 1474812 1355040 1269097 1222875 1215299 1239389 
2380.864 1286178 1345435 1407326 1462810 1504369 1526214 1526813 1508160 
2384.721 1476674 1441533 1412080 1395592 1394961 1408988 1433189 1462345 
2388.579 1492167 1520761 1548526 1576659 1606156 1637186 1669083 1701348 
2392.436 1734414 1769112 1806475 1845206 1880678 1905038 1908466 1883374 
2396.294 1827005 1744094 1646499 1551851 1478070 1438674 1440503 1480863 
2400.151 1550455 1635124 1721207 1797691 1858483 1901611 1928834 1942946 
2404.009 1946906 1943345 1934925 1924907 1917419 1917053 1926804 1946773 
2407.866 1972734 1995968 2005089 1990409 1946673 1876419 1789906 1703809 
2411.723 1635556 1597543 1593519 1616865 1652619 1682088 1690138 1669482 
2415.581 1623051 1561694 1499914 1450110 1416767 1395393 1374850 1342676 
2419.438 1289866 1217060 1134432 1061353 1017644 1020234 1075403 1177123 
2423.296 1307812 1443661 1562426 1647630 1693631 1705572 1696258 1679061 
2427.153 1663794 1652918 1641277 1619193 1578188 1515907 1439206 1363416 
2431.010 1307015 1288039 1316121 1389077 1493164 1607819 1710196 1781688 
2434.868 1814494 1811366 1785681 1755039 1737574 1744494 1778261 1829933 
2438.725 1883906 1921546 1927004 1892426 1820949 1725432 1623550 1533895 
2442.583 1468961 1431693 1415969 1409520 1400379 1380401 1349922 1316221 
2446.440 1291162 1284882 1302960 1343241 1396988 1452737 1499349 1530338 
2450.298 1544237 1544170 1535458 1523687 1513014 1505899 1503106 1504236 
2454.155 1508193 1513014 1516106 1515275 1509689 1501144 1494461 1496090 
2458.012 1511717 1543771 1589262 1639980 1684184 1712325 1718612 1704841 
2461.870 1678429 1650058 1628406 1616632 1611378 1604361 1586768 1552982 
2465.727 1503638 1446154 1391404 1349623 1326723 1322136 1330179 1341712 
2469.585 1348925 1348293 1341214 1332672 1329581 1337093 1356636 1385720 
2473.442 1418961 1450675 1476973 1496855 1512748 1528908 1548959 1574497 
2477.300 1603862 1633162 1656477 1669382 1669449 1658040 1638816 1616100 
2481.157 1593785 1573799 1555177 1535558 1513712 1488809 1462976 1439838 
2485.014 1423017 1415205 1416734 1425676 1439073 1454133 1468562 1481528 
2488.872 1492998 1502541 1509789 1514344 1517436 1521593 1532499 1556374 
2492.729 1599572 1664460 1748585 1844640 1940616 2022964 2080624 2105528 
2496.587 2095773 2054357 1989144 1910064 1828701 1756037 1700051 1665258 
2500.444 1650956 1651355 1656111 1653483 1634259 1593951 1535558 1468994 
2504.302 1409121 1369931 1361189 1385620 1437311 1504103 1571238 1625945 
2508.159 1659637 1670081 1660768 1639381 1614803 1595049 1585504 1588231 
2512.016 1601068 1619093 1635922 1645568 1644137 1632098 1613706 1596346 
2515.874 1588398 1595880 1620324 1657841 1699053 1733815 1752045 1748319 
2519.731 1722671 1681656 1635091 1594051 1568811 1566217 1588697 1634492 
2523.589 1697789 1770010 1840780 1899980 1939551 1955527 1949003 1927037 
2527.446 1900113 1879148 1873690 1887401 1918217 1958489 1998465 2029489 
2531.303 2046633 2050795 2047133 2043671 2047133 2061248 2085019 2113752 
2535.161 2139990 2156972 2159303 2144918 2114685 2071868 2021200 1968175 
2539.018 1918051 1875986 1845505 1828402 1823544 1826738 1830532 1826406 
2542.876 1806808 1766916 1707302 1633827 1556540 1486282 1432591 1400412 
2546.733 1389110 1393099 1404334 1415637 1422086 1423582 1423914 1429366 
2550.591 1445622 1476541 1521859 1578488 1640279 1700550 1752910 1792601 
2554.448 1816590 1824576 1817954 1800486 1777563 1756570 1744094 1745691 
2558.305 1763323 1793898 1829434 1858616 1869863 1854290 1809470 1740235 
2562.163 1659005 1581281 1522923 1495558 1503605 1543505 1605591 1677698 
2566.020 1747122 1805111 1847668 1875088 1890895 1899980 1906370 1913125 
2569.878 1921079 1929766 1938020 1943744 1944676 1938819 1924308 1900180 
2573.735 1867201 1827969 1786546 1748486 1719677 1704042 1703976 1718512 
2577.593 1744793 1777563 1811333 1841179 1862875 1873790 1872725 1860013 
2581.450 1836721 1805477 1769811 1733748 1701847 1678363 1666189 1666688 
2585.307 1679527 1702678 1733050 1767648 1803813 1840148 1876153 1912027 
2589.165 1947971 1983419 2017106 2046400 2068839 2081956 2084819 2078261 
2593.022 2065510 2050462 2038011 2032086 2034749 2045901 2062880 2081590 
2596.880 2096505 2102798 2096905 2077495 2046034 2006187 1964047 1926338 
2600.737 1899381 1887234 1890495 1906469 1929500 1952698 1969839 1977860 
2604.594 1976695 1970538 1965046 1965911 1977228 1999763 2031287 2067341 
2608.452 2103231 2135462 2162234 2184212 2203327 2222044 2241660 2262343 
2612.309 2282195 2297817 2305178 2300781 2282761 2252718 2214983 2177285 
2616.167 2149047 2138192 2149347 2181614 2228971 2279963 2322833 2347818 
2620.024 2349916 2330062 2294552 2252151 2210820 2176120 2150546 2133664 
2623.882 2124507 2122542 2129568 2147649 2178784 2222943 2277631 2338390 
2627.739 2399490 2455367 2502454 2538780 2563310 2576243 2577943 2569243 
2631.596 2551878 2529515 2506786 2488691 2479860 2482259 2494922 2514084 
2635.454 2534981 2552545 2563310 2566277 2562211 2553478 2542846 2533081 
2639.311 2526549 2524849 2529515 2541046 2559011 2581242 2604975 2626409 
2643.169 2642410 2651478 2654045 2652344 2649977 2650378 2656045 2667913 
2647.026 2684983 2705220 2725692 2742831 2753934 2756302 2749199 2733294 
2650.884 2711755 2689283 2671680 2664246 2669847 2688183 2715789 2747265 
2654.741 2776343 2799052 2814159 2823197 2829734 2837471 2848944 2864587 
2658.598 2882998 2902211 2920590 2937303 2952648 2966726 2979370 2989179 
2662.456 2993850 2991648 2981939 2966326 2948912 2934967 2929430 2935601 
2666.313 2954049 2982240 3015703 3049570 3079401 3103128 3120081 3131595 
2670.171 3139638 3146013 3151787 3157127 3161332 3163401 3162500 3157894 
2674.028 3149417 3137035 3121216 3102761 3083039 3063718 3047101 3035356 
2677.885 3029950 3031018 3036757 3043797 3048669 3048335 3041929 3031385 
2681.743 3020942 3015637 3019173 3032753 3054108 3078234 3099357 3112539 
2685.600 3116243 3111771 3102527 3092283 3083072 3074463 3063651 3047201 
2689.458 3023044 2991114 2954383 2917355 2884832 2860150 2844708 2837905 
2693.315 2837738 2842007 2848377 2854747 2858583 2857049 2848010 2829900 
2697.173 2804054 2773775 2744264 2720157 2704720 2697419 2695118 2692651 
2701.030 2686116 2674714 2661646 2653178 2656045 2674647 2708954 2754034 
2704.887 2801620 2843274 2873025 2888768 2892938 2890303 2885966 2883165 
2708.745 2882164 2880997 2876060 2864653 2845442 2819395 2789781 2760370 
2712.602 2735928 2720457 2716856 2726526 2749699 2784679 2828500 2877528 
2716.460 2927929 2976401 3020608 3059147 3091315 3116410 3133731 3142175 
2720.317 3141007 3130427 3111771 3088178 3063551 3041629 3025212 3015703 
2724.175 3012667 3014802 3020441 3028649 3038759 3051238 3065920 3082338 
2728.032 3099224 3114675 3126456 3133030 3133764 3128992 3120181 3109268 
2731.889 3098323 3088512 3080469 3073695 3066154 3055209 3038358 3013401 
2735.747 2980038 2939938 2896840 2856782 2825565 2808423 2808223 2824731 
2739.604 2854714 2892871 2933233 2970162 3000022 3020975 3033287 3038425 
2743.462 3038459 3035456 3030751 3025179 3019006 3012200 3004693 2996319 
2747.319 2987244 2977802 2968661 2960788 2955117 2952848 2954783 2961789 
2751.177 2973832 2990680 3010698 3032453 3053307 3071059 3084240 3092116 
2755.034 3095920 3098589 3104063 3116210 3137836 3169476 3207994 3247551 
2758.891 3280301 3299097 3298797 3278765 3243412 3201853 3164503 3141741 
2762.749 3140639 3162433 3202821 3253126 3303070 3343103 3367312 3374558 
2766.606 3368380 3355024 3341701 3334656 3336893 3349147 3369182 3393659 
2770.464 3418538 3441114 3459450 3472976 3482663 3490144 3498027 3509384 
2774.321 3526453 3550639 3581741 3616687 3650868 3678335 3693607 3693306 
2778.178 3677166 3648964 3615151 3584046 3563667 3559358 3572854 3601987 
2782.036 3641613 3685052 3725621 3759109 3784076 3801858 3816298 3832209 
2785.893 3853871 3883524 3921504 3965807 4013158 4060179 4104797 4146443 
2789.751 4186453 4227538 4271939 4321331 4375616 4432886 4490498 4545808 
2793.608 4597308 4645464 4691650 4738309 4787520 4839550 4893095 4945206 
2797.466 4992597 5032785 5065670 5093159 5119377 5148915 5185396 5230097 
2801.323 5281409 5335008 5386132 5430652 5467123 5497289 5526182 5560111 
2805.180 5604481 5662920 5734629 5815887 5899780 5979389 6049437 6107399 
2809.038 6154950 6197095 6241429 6295853 6367835 6462327 6580488 6720116 
2812.895 6875274 7037390 7196367 7343202 7470839 7576058 7660055 7728452 
2816.753 7789742 7853166 7928004 8020913 8135785 8274125 8435177 8616938 
2820.610 8816832 9032176 9259406 9494748 9734724 9975375 10214090 10450018 
2824.468 10684172 10919846 11161460 11414332 11682703 11970074 12278222 
2827.843 12607600 12957710 13327474 13715883 14121959 14544895 14984569 
2831.218 15440859 15914161 16405251 16915328 17445562 17997546 18573332 
2834.593 19174988 19806366 20472666 21180936 21941382 22765694 23666970 
2837.969 24659714 25757138 26971312 28313010 29790784 31411998 33183110 
2841.344 35110316 37198672 39452024 41872136 44456464 47198224 50085116 
2844.719 53098516 56216680 59413128 62657348 65919124 69162840 72349272 
2848.094 75436648 78375904 81115528 83603648 85787552 87621760 89066864 
2851.469 90091568 90674680 90805264 90483816 89722936 88549120 87001360 
2854.845 85126024 82978368 80613672 78084816 75442992 72732392 69991608 
2858.220 67255216 64550416 61901396 59328372 56847324 54473620 52219940 
2861.595 50096236 48110072 46264588 44559804 42992772 41559696 40257752 
2864.970 39086316 38046808 37141352 36370668 35731924 35216700 34811028 
2868.346 34496556 34250712 34049664 33869944 33687044 33480308 33230752 
2871.721 32924284 32553994 32120724 31634178 31109622 30567784 30029284 
2875.096 29511132 29026824 28584634 28188644 27841128 27544230 27300244 
2878.471 27112224 26983126 26915400 26909794 26965036 27077768 27242560 
2881.847 27452628 27700264 27978292 28282136 28609798 28963100 29347354 
2885.222 29769420 30234700 30746424 31303622 31901896 32534104 33193268 
2888.597 33873920 34571572 35283468 36006324 36735648 37466700 38195120 
2891.972 38919580 39642416 40370712 41114112 41881184 42677988 43505328 
2895.348 44359868 45235244 46125804 47027900 47940576 48865404 49803836 
2898.723 50757036 51724764 52706776 53703904 54719192 55757916 56825380 
2902.098 57926288 59061848 60231020 61431096 62659948 63918164 65209604 
2905.473 66541044 67919616 69352448 70845136 72402040 74027552 75726952 
2908.849 77506280 79371096 81324816 83366840 85491296 87689840 89951056 
2912.224 92263888 94619792 97010960 99430488 101870360 104318872 106760256 
2915.599 109175008 111538320 113823648 116001296 118040176 119911776 
2918.492 121588896 123048912 124274440 125251320 125966888 126409280 
2921.385 126565736 126425104 125981496 125237704 124207008 122914072 
2924.278 121392544 119677064 117802568 115797928 113684272 111476728 
2927.171 109186344 106822624 104396824 101922728 99416992 96897960 94382096 
2930.547 91882112 89406072 86955424 84528576 82122816 79738160 77379592 
2933.922 75056448 72781672 70568248 68425272 66357636 64364768 62443624 
2937.297 60590868 58805532 57089708 55448128 53885536 52404124 51003124 
2940.672 49677840 48422152 47230364 46099496 45030512 44027736 43096892 
2944.048 42242868 41468372 40771932 40148856 39592688 39096828 38655900 
2947.423 38267412 37931808 37650552 37425672 37257872 37144456 37079636 
2950.798 37053332 37051924 37060800 37063472 37045716 36995888 36905552 
2954.173 36770260 36587684 36356832 36077064 35746564 35363944 34928220 
2957.549 34440740 33905556 33329878 32723166 32095146 31453744 30804294 
2960.924 30148104 29483754 28808028 28117902 27412074 26692380 25962548 
2964.299 25227938 24494006 23764954 23043200 22329098 21622126 20921410 
2967.674 20226790 19539862 18863674 18202290 17560850 16945060 16359523 
2971.050 15808379 15293559 14815140 14370123 13954097 13560997 13184886 
2974.425 12821523 12469135 12128312 11802633 11495980 11212322 10953858 
2977.800 10720544 10509792 10317702 10138416 9966526 9796569 9624002 9446084 
2981.657 9261336 9070339 8875333 8680482 8490924 8312051 8149154 8006467 
2985.515 7886501 7790079 7716681 7663529 7627243 7604111 7591129 7586375 
2989.372 7589950 7603133 7627817 7665417 7715770 7777092 7846621 7921965 
2993.230 8002789 8091561 8193688 8315597 8462981 8638063 8839014 9059377 
2997.087 9290988 9525534 9756682 9981410 10199063 10410071 10614323 10810179 
3000.945 10994432 11163670 11315050 11447976 11563146 11662247 11745745 
3004.320 11812405 11858542 11879825 11872435 11835149 11769712 11681239 
3007.695 11575941 11459032 11333517 11199470 11053908 10892223 10710152 
3011.070 10505210 10277326 10028506 9763696 9488144 9206742 8922986 8638468 
3014.928 8352617 8064287 7772403 7477649 7183027 6893351 6613894 6349342 
3018.785 6101350 5868746 5647915 5435181 5228521 5028998 4840623 4669176 
3022.643 4519525 4392853 4286429 4194282 4109112 4024361 3936984 3846851 
3026.500 3756134 3667776 3583378 3503338 3427354 3355758 3290717 3235967 
3030.357 3195778 3172346 3164236 3165705 3168909 3165104 3148416 3117245 
3034.215 3074329 3025446 2976234 2931165 2891403 2855581 2821163 2785513 
3038.072 2748099 2709988 2673781 2643077 2621375 2611142 2614142 2630809 
3041.930 2659712 2697585 2738929 2777043 2804555 2815626 2807523 2781178 
3045.787 2740797 2693284 2645410 2602308 2566510 2538380 2516284 2498821 
3049.645 2485525 2476894 2474261 2478327 2488857 2503420 2518650 2530448 
3053.502 2534981 2530815 2517650 2497488 2473328 2448337 2425545 2406287 
3057.359 2391028 2379167 2369472 2360943 2353381 2347418 2343953 2343887 
3061.217 2347351 2353181 2359378 2363409 2363242 2358745 2351615 2344553 
3065.074 2340788 2341988 2348451 2357579 2365841 2369772 2367206 2358178 
3068.932 2344620 2329595 2315538 2304579 2296984 2292087 2289090 2287258 
3072.789 2285792 2283227 2277365 2265074 2242626 2207257 2158770 2100001 
3076.646 2037046 1978293 1932428 1905538 1900745 1916587 1948637 1989777 
3080.504 2032485 2070437 2098770 2114518 2116682 2106527 2086417 2060316 
3084.361 2032785 2007452 1987180 1972235 1961418 1952232 1942480 1931197 
3088.219 1919815 1910962 1907668 1911828 1922843 1937221 1949669 1955627 
3092.076 1952098 1938819 1918583 1895088 1872093 1851029 1831131 1810667 
3095.934 1787278 1760762 1732883 1707602 1689040 1679960 1680359 1687410 
3099.791 1696658 1703477 1704940 1701148 1694728 1689040 1687543 1690936 
3103.648 1697988 1705373 1709531 1708001 1700450 1688774 1676101 1666222 
3107.506 1661632 1662763 1667919 1674405 1679028 1679394 1674538 1665757 
3111.363 1656144 1649392 1649126 1657408 1674039 1696458 1720276 1740768 
3115.221 1754241 1758865 1755139 1745591 1732384 1716882 1698487 1675137 
3119.078 1644703 1606822 1564122 1522424 1489374 1471554 1473083 1492998 
3122.936 1525583 1562060 1593519 1613373 1618894 1611810 1596313 1578321 
3126.793 1562426 1552317 1549790 1554811 1566782 1584607 1605890 1627375 
3130.650 1645534 1656277 1657209 1648062 1631432 1611577 1594018 1582711 
3134.508 1578920 1581248 1586535 1591258 1593053 1592122 1590360 1590426 
3138.365 1594517 1602864 1613506 1622719 1626976 1624049 1614304 1600004 
3142.223 1585338 1573865 1567946 1566915 1567747 1565319 1554379 1531302 
3146.080 1495193 1448249 1395160 1341978 1293755 1254608 1226197 1208886 
3149.938 1202208 1206826 1224370 1257067 1306284 1371161 1447118 1526580 
3153.795 1600237 1659204 1698155 1716217 1716916 1706371 1691402 1676733 
3157.652 1663894 1652120 1639015 1623051 1603895 1583143 1563490 1547628 
3161.510 1537520 1533596 1535292 1542042 1553281 1567747 1584108 1599272 
3165.367 1609615 1611744 1603496 1585804 1562659 1540845 1526813 1525483 
3169.225 1537620 1560663 1588531 1615136 1636055 1650058 1659238 1667220 
3173.082 1677398 1690803 1705905 1718346 1723336 1716350 1696125 1663828 
3176.939 1623683 1581846 1543572 1512682 1490771 1475710 1463874 1450975 
3180.797 1434020 1412346 1388745 1368801 1359527 1367272 1395659 1444425 
3184.654 1508858 1580749 1650789 1710828 1754540 1779226 1785547 1776232 
3188.512 1755439 1728060 1698820 1670979 1646831 1626211 1606722 1583975 
3192.369 1553946 1514012 1465436 1413908 1369399 1343274 1344604 1377908 
3196.227 1439638 1520296 1604627 1677265 1726097 1745059 1735112 1703011 
3200.084 1658905 1612542 1572236 1543139 1526913 1522590 1527411 1537719 
3203.941 1549723 1560364 1567514 1570473 1569941 1567048 1563025 1558436 
3207.799 1552816 1545434 1534926 1521559 1506830 1493796 1486049 1486814 
3211.656 1497188 1515741 1538185 1558901 1570906 1569509 1552084 1519697 
3215.514 1476508 1429632 1386817 1355639 1341480 1346033 1367372 1399847 
3219.371 1436414 1469891 1494328 1507295 1509357 1502607 1489707 1473017 
3223.229 1453667 1432624 1411747 1393132 1380302 1376379 1382130 1396224 
3227.086 1413509 1427870 1434286 1429300 1414573 1394695 1375715 1362353 
3230.943 1356636 1357334 1360757 1362851 1361721 1357600 1353212 1351982 
3234.801 1356436 1366375 1380102 1394229 1405963 1413343 1415869 1413609 
3238.658 1406761 1395027 1378141 1356037 1330312 1303691 1279697 1261387 
3242.516 1250454 1246832 1249125 1256469 1269462 1290332 1322701 1368635 
3246.373 1427704 1495658 1564421 1625878 1672309 1700350 1710928 1708433 
3250.230 1698188 1684450 1668883 1649925 1625213 1592854 1553281 1510088 
3254.088 1468828 1434652 1411149 1398783 1394994 1394562 1392601 1385055 
3257.945 1369399 1345568 1315224 1281259 1247098 1215997 1190778 1172737 
3261.803 1162006 1157820 1158319 1161840 1167554 1175794 1187588 1204500 
3265.660 1227161 1254741 1284948 1314227 1338920 1355838 1363350 1361023 
3269.518 1349290 1328983 1301465 1268498 1233275 1199516 1172106 1155760 
3273.375 1153435 1165827 1190645 1223805 1259759 1293588 1321871 1342643 
3277.232 1354874 1358331 1353578 1341347 1323732 1304223 1287274 1277438 
3281.090 1277936 1289534 1310837 1338522 1369100 1399747 1428934 1455928 
3284.947 1479799 1498218 1507428 1503638 1484919 1452936 1413775 1376712 
3288.805 1351717 1345202 1358431 1386285 1420058 1449944 1468761 1474546 
3292.662 1470423 1462411 1456826 1456926 1462810 1471620 1479400 1483290 
3296.520 1482625 1478868 1474380 1471288 1469925 1469958 1470290 1470390 
3300.377 1470058 1469625 1467930 1462478 1448647 1421554 1377775 1318115 
3304.234 1247663 1176458 1117257 1080884 1075270 1101844 1156491 1229155 
3308.092 1308078 1381266 1438674 1475045 1488277 1480131 1454399 1416601 
3311.949 1372790 1329216 1291960 1265840 1254143 1258197 1276773 1306250 
3315.807 1341446 1376645 1406562 1427538 1438641 1441733 1440336 1439273 
3319.664 1442265 1450975 1465037 1480896 1494694 1502441 1502208 1494129 
3323.521 1480730 1465702 1452703 1444492 1442098 1445389 1453036 1463608 
3327.379 1476175 1489341 1502374 1513712 1521792 1524785 1521327 1511119 
3331.236 1494794 1474280 1452637 1432990 1418662 1411947 1414174 1424812 
3335.094 1441932 1461380 1477970 1487113 1485218 1471820 1449844 1425410 
3338.951 1405930 1398185 1405997 1428535 1461015 1494428 1520163 1530770 
3342.809 1522923 1497985 1460915 1418895 1378307 1344704 1320142 1305054 
3346.666 1298740 1299072 1305054 1315224 1328385 1341679 1352348 1357267 
3350.523 1354076 1342410 1324862 1307048 1295649 1297676 1318414 1359262 
3354.381 1417432 1485784 1555010 1614205 1654115 1668551 1655013 1615768 
3358.238 1556673 1487014 1417033 1356835 1314659 1295051 1297277 1316719 
3362.096 1344936 1371759 1388545 1389941 1375748 1350354 1321937 1300434 
3365.953 1293622 1306317 1338256 1385487 1440669 1494694 1540047 1570473 
3369.811 1583310 1578454 1559367 1531568 1501975 1477771 1464539 1465137 
3373.668 1479433 1503937 1532466 1558103 1574663 1578454 1568478 1546531 
3377.525 1516705 1483090 1450044 1420989 1397720 1381465 1372590 1370696 
3381.383 1375349 1385952 1401276 1420357 1442098 1466002 1491269 1517303 
3385.240 1543006 1566716 1585804 1597310 1598408 1587101 1563291 1529141 
3389.098 1488543 1446985 1409952 1381764 1364181 1355938 1353212 1350254 
3392.955 1342410 1327288 1305918 1283253 1266305 1262085 1274613 1303592 
3396.813 1344404 1389343 1429665 1458754 1474380 1477538 1472352 1463242 
3400.670 1453269 1443062 1431693 1416833 1397321 1373621 1347961 1324097 
3404.527 1305386 1294718 1293489 1302329 1320408 1347130 1380933 1419559 
3408.385 1459452 1496190 1525483 1543904 1550289 1545733 1533663 1518035 
3412.242 1501510 1484919 1467498 1446420 1419925 1387914 1352946 1320009 
3416.100 1295117 1283386 1287440 1306882 1337458 1373654 1408124 1434419 
3419.957 1447584 1445722 1429233 1401044 1365909 1329282 1296945 1273815 
3423.814 1263913 1269063 1289468 1322535 1363416 1405565 1442132 1467664 
3427.672 1479068 1477272 1466101 1450775 1436680 1427039 1421521 1417133 
3431.529 1409886 1396556 1377077 1354409 1333869 1321139 1320275 1332306 
3435.387 1355506 1387315 1425443 1468728 1516871 1568445 1618961 1661400 
3439.244 1686279 1685415 1655645 1600636 1530637 1460051 1402340 1364945 
3443.102 1347462 1342909 1342410 1339818 1334932 1333869 1345967 1378474 
3446.959 1431593 1496622 1560032 1608850 1635856 1642574 1637386 1631798 
3450.816 1634625 1648162 1668251 1685647 1690371 1676966 1646665 1607320 
3454.674 1569476 1543073 1534028 1542042 1562426 1588098 1613174 1634792 
3458.531 1653384 1671744 1693198 1720076 1752411 1787777 1821714 1849232 
3462.389 1864805 1864472 1846171 1810235 1759863 1700915 1640612 1586402 
3466.246 1545101 1521559 1517237 1530770 1558934 1597244 1641044 1686346 
3470.104 1729623 1767648 1798091 1818553 1827271 1824010 1808904 1783950 
3473.961 1751879 1716949 1683885 1657508 1641976 1639148 1648561 1667520 
3477.818 1691701 1716151 1737241 1753077 1764754 1774468 1784183 1794198 
3481.676 1801617 1800719 1785481 1751979 1700915 1638583 1574697 1520961 
3485.533 1487280 1478569 1493231 1523322 1556607 1580416 1585937 1570640 
3489.391 1539515 1501743 1469426 1452404 1456261 1480863 1520828 1568013 
3493.248 1612708 1647630 1668684 1675902 1671644 1660535 1646998 1634126 
3497.105 1623484 1615834 1610912 1608518 1607786 1607121 1603695 1594018 
3500.963 1574331 1542375 1498484 1446520 1393332 1346432 1311900 1292326 
3504.820 1286576 1290664 1299903 1310571 1319644 1325659 1328219 1326690 
3508.678 1321405 1312698 1301930 1291462 1284184 1283187 1289567 1303392 
3512.535 1323001 1345468 1368169 1388645 1406030 1419692 1429266 1433821 
3516.393 1431859 1421820 1402240 1373388 1337325 1298042 1260191 1228557 
3520.250 1207092 1198088 1202606 1219652 1246633 1279066 1311302 1338322 
3524.107 1355805 1362353 1358697 1347894 1334002 1321272 1313927 1314326 
3527.965 1325094 1347030 1380501 1424114 1474413 1526347 1572768 1606256 
3531.822 1621322 1615967 1591956 1555210 1513679 1474612 1444126 1425244 
3535.680 1417897 1420291 1429964 1444991 1463475 1483822 1503638 1519498 
3539.537 1528143 1527212 1516672 1498418 1476508 1455064 1436680 1421820 
3543.395 1408722 1394861 1378407 1359029 1338555 1319012 1301332 1284150 
3547.252 1264444 1239024 1206527 1168186 1128153 1092510 1068162 1060688 
3551.109 1074174 1109351 1162571 1226862 1293256 1352614 1397686 1424446 
3554.967 1431261 1420424 1395659 1362652 1327088 1293289 1264411 1242147 
3558.824 1227560 1221811 1226629 1243310 1272021 1309374 1348891 1382761 
3562.682 1403304 1406096 1391969 1366375 1339718 1323366 1326690 1352913 
3566.539 1396423 1443428 1478536 1493032 1486149 1464007 1434951 1407127 
3570.396 1386883 1378972 1386484 1409720 1445788 1487080 1523820 1544735 
3574.254 1541543 1511917 1460649 1398684 1338123 1289002 1254807 1232976 
3578.111 1216429 1198420 1175295 1149780 1127987 1117257 1121609 1140545 
3581.969 1167887 1195762 1217691 1230484 1235834 1238160 1243775 1256569 
3585.826 1278302 1307214 1339884 1372524 1402506 1427770 1445788 1452903 
3589.684 1444891 1418861 1375249 1318115 1256469 1200779 1162405 1148784 
3593.541 1160910 1192041 1230550 1264909 1287440 1296546 1295749 1290165 
3597.398 1283918 1278800 1274845 1270957 1267269 1265408 1268498 1279797 
3601.256 1301797 1334168 1374784 1420191 1466467 1509556 1545667 1571072 
3605.113 1581481 1573067 1543439 1492898 1426008 1352614 1285380 1235767 
3608.971 1210414 1208022 1221944 1242213 1259426 1266438 1259559 1239356 
3612.828 1210348 1180611 1156558 1141973 1136292 1135694 1135362 1132140 
3616.686 1125330 1116792 1110647 1111112 1119450 1133768 1149016 1161043 
3620.543 1169714 1179249 1195695 1224636 1268930 1327554 1395592 1465636 
3624.400 1530105 1582711 1620291 1642408 1650058 1644071 1623351 1586136 
3628.258 1533297 1472651 1417332 1377775 1354575 1339951 1324961 1301797 
3632.115 1267501 1224602 1181309 1148850 1136160 1146325 1173535 1206494 
3635.973 1232743 1243543 1237329 1219452 1200048 1190213 1197257 1221745 
3639.830 1257532 1295150 1324696 1339020 1336062 1318181 1291129 1260922 
3643.688 1232378 1208155 1189250 1175063 1165229 1158485 1154066 1150744 
3647.545 1148717 1148784 1153933 1167289 1189648 1218123 1245968 1266903 
3651.402 1277836 1279033 1273217 1263115 1251152 1238226 1224204 1208587 
3655.260 1191243 1173036 1156192 1143302 1135562 1132007 1130944 1130512 
3659.117 1130113 1130578 1133901 1141475 1154232 1170312 1186525 1199516 
3662.975 1207092 1210647 1214036 1223672 1244373 1279033 1326823 1383160 
3666.832 1440237 1489175 1519963 1522956 1491003 1423282 1330046 1230052 
3670.689 1144764 1086730 1057732 1051920 1059659 1070421 1070886 1048465 
3674.547 995924 922901 858257 835017 865959 939205 1032058 1122440 1193569 
3678.886 1234272 1241815 1222343 1188386 1153966 1130213 1122307 1129848 
3682.744 1148551 1172006 1195197 1214036 1226629 1232045 1229753 1218688 
3686.601 1197789 1166857 1128220 1088092 1056138 1040561 1045875 1069823 
3690.459 1105863 1146458 1185562 1219087 1245071 1263348 1274713 1281326 
3694.316 1286410 1293987 1308411 1332373 1366508 1407326 1449246 1484753 
3698.174 1507461 1513579 1501975 1474779 1436447 1393997 1354043 1322103 
3702.031 1300468 1288072 1282057 1279631 1279863 1283286 1292093 1309308 
3705.888 1337392 1377742 1429466 1488876 1549823 1603928 1641743 1655113 
3709.746 1639315 1595315 1531136 1459851 1394628 1343441 1308012 1284350 
3713.603 1267634 1254209 1242679 1233408 1227826 1227360 1232976 1244839 
3717.461 1261586 1280661 1298441 1310637 1313063 1302129 1276042 1235933 
3721.318 1186459 1136658 1097891 1080186 1089719 1125795 1180910 1242147 
3725.176 1294253 1323266 1320641 1287241 1232943 1172206 1118121 1079256 
3729.033 1058430 1053713 1059393 1067996 1072414 1067165 1051322 1029966 
3732.890 1012961 1011599 1036342 1093805 1184432 1298873 1419892 1528509 
3736.748 1610846 1661599 1682088 1675536 1646399 1599605 1541909 1480564 
3740.605 1423681 1378307 1348227 1334799 1336926 1351683 1374252 1399016 
3744.463 1421022 1438142 1451739 1463608 1473947 1481894 1485484 1482625 
3748.320 1472119 1454798 1434785 1418895 1414639 1425842 1450343 1480830 
3752.177 1507827 1524618 1527810 1517968 1497221 1468262 1432823 1392501 
3756.035 1348027 1300302 1250886 1202374 1159083 1126061 1108022 1107425 
3759.892 1121941 1145694 1169415 1185263 1188419 1178252 1156790 1128785 
3763.750 1100083 1076466 1061685 1056935 1060589 1069956 1083940 1103870 
3767.607 1133568 1177090 1235867 1307247 1382595 1450808 1502241 1533563 
3771.465 1547429 1550156 1547761 1544835 1544203 1546298 1551020 1557870 
3775.322 1565618 1572336 1575827 1572934 1559998 1533962 1495226 1447883 
3779.179 1399913 1360890 1337890 1331808 1338488 1351451 1364480 1372490 
3783.037 1373388 1367372 1357467 1347496 1341014 1339452 1341878 1344903 
3786.894 1344404 1336793 1320009 1294452 1262849 1230716 1204234 1189881 
3790.752 1192439 1213538 1251783 1302395 1359328 1416069 1466800 1507096 
3794.609 1532831 1541710 1532100 1506364 1469725 1430031 1394828 1368535 
3798.467 1351949 1342510 1334699 1321206 1294685 1252083 1198453 1146126 
3802.324 1107690 1088955 1088258 1100515 1120480 1144631 1170677 1197157 
3806.181 1223074 1246998 1267402 1283519 1295749 1305420 1314293 1323333 
3810.039 1332772 1341945 1349290 1353345 1353212 1348725 1341214 1332240 
3813.896 1323300 1315356 1308710 1303691 1301332 1304323 1315190 1335464 
3817.754 1365211 1402340 1442929 1480663 1508027 1517270 1505400 1477339 
3821.611 1445323 1419626 1403603 1393963 1385952 1375748 1362718 1349024 
3825.469 1339785 1340483 1354309 1379570 1410351 1437910 1454931 1456959 
3829.326 1443096 1416966 1385022 1356636 1342277 1349556 1381133 1433555 
3833.183 1498817 1566317 1626311 1671444 1698720 1709232 1708899 1705672 
3837.041 1706271 1712558 1719976 1719411 1702113 1664193 1608385 1542474 
3840.898 1474779 1412080 1359062 1317583 1288637 1272386 1268432 1275577 
3844.756 1291362 1312033 1333204 1351517 1364945 1373920 1380933 1389177 
3848.613 1401609 1418363 1436081 1447451 1442963 1412545 1350221 1259227 
3852.470 1161275 1093573 1088690 1147388 1239655 1330811 1399348 1440004 
3856.328 1455795 1453302 1439804 1421986 1404534 1390573 1382163 1380202 
3860.185 1384556 1393697 1405099 1414872 1418396 1413044 1398949 1380534 
3864.043 1365145 1361123 1373255 1400944 1438674 1478735 1513978 1537487 
3867.900 1543306 1524984 1478469 1405299 1317450 1233574 1169647 1133369 
3871.758 1124499 1138850 1170478 1212541 1256569 1293821 1317882 1327520 
3875.615 1325859 1318082 1309640 1304722 1306084 1315656 1335032 1364214 
3879.472 1401808 1443628 1483356 1514211 1531767 1535691 1528675 1514810 
3883.330 1499083 1486249 1479865 1482126 1491934 1505300 1517137 1524186 
3887.187 1526381 1525716 1525317 1528409 1537586 1554212 1577257 1602531 
3891.045 1623218 1631632 1622386 1595913 1557072 1514111 1475610 1448747 
3894.902 1437743 1443328 1461879 1486648 1507428 1514012 1498251 1458222 
3898.760 1400080 1337657 1289235 1269661 1285314 1332606 1400080 1471088 
3902.617 1529440 1563158 1565984 1539681 1492466 1436114 1381332 1335564 
3906.474 1303459 1286842 1286311 1300933 1328385 1364779 1405033 1443894 
3910.332 1477172 1502973 1521992 1537187 1551419 1566383 1580882 1590759 
3914.189 1590326 1573799 1538650 1488011 1430962 1380268 1348659 1342743 
3918.047 1360458 1392501 1426241 1450443 1457790 1447683 1424745 1396656 
3921.904 1370529 1352115 1343939 1345269 1353611 1365544 1378008 1389709 
3925.761 1400877 1412745 1427006 1444824 1466467 1490638 1515175 1537221 
3929.619 1553913 1563956 1567547 1567414 1567547 1572036 1582778 1598840 
3933.476 1616699 1631698 1640113 1639647 1630734 1615169 1595182 1572967 
3937.334 1549757 1525882 1501909 1479001 1458854 1444359 1437345 1438109 
3941.191 1444492 1452304 1456892 1456128 1451739 1448647 1453368 1469426 
3945.049 1496190 1528110 1556374 1571637 1567048 1541876 1501975 1458920 
3948.906 1424114 1406761 1409321 1428901 1459186 1493663 1528010 1560065 
3952.763 1589429 1615169 1635822 1648694 1650789 1641077 1620756 1594350 
3956.621 1567879 1547495 1537520 1539548 1552783 1574165 1600403 1628439 
3960.478 1655180 1678064 1694229 1701015 1696159 1679328 1651754 1617264 
3964.336 1580815 1547795 1523056 1510221 1511185 1526414 1554179 1591723 
3968.193 1634492 1676999 1713356 1738439 1748319 1741965 1720774 1687743 
3972.051 1647563 1604294 1560797 1519099 1480730 1446453 1418529 1399016 
3975.908 1390373 1393731 1409188 1433887 1463874 1494727 1521992 1542774 
3979.765 1555542 1560464 1558968 1553614 1546764 1540912 1537719 1537487 
3983.623 1539714 1542474 1543405 1541444 1536190 1529639 1525317 1527511 
3987.480 1539482 1561927 1592355 1625246 1653616 1670047 1669781 1651255 
3991.338 1615901 1568013 1513546 1458588 1408523 1369167 1344803 1339120 
3995.195 1353910 1388645 1439638 1500213 1561894 1615834 1654348 1674072 
3999.052 1675070 1662530 1643905 1628406 
##END=
