##TITLE=mas_1 Sep 19 10:30:47 2026 (GMT+02:00)
##JCAMP-DX=5.01  $$ Nicolet v. 970
##DATATYPE=INFRARED SPECTRUM
##ORIGIN=Vojna akademija
##OWNER=Nicolet
##LONGDATE=2026/09/19
##TIME=10:31:18
##SPECTROMETER/DATA SYSTEM=Nicolet iS20
##DATA PROCESSING=
Ratio against background
%Transmittance->Absorbance
Truncated
ElementMultiply or ElementDivide
##COMMENTS=
Number of sample scans: 8
Collection length: 11,90 sec
Sample gain: 8,0
Background collected on: Sat Sep 19 10:08:07 2026 (GMT+02:00);
Number of background scans: 8
Background gain: 8,0
Sample spacing:  1,000
Number of scan points: 12415
Resolution points: 8286
Number of FFT points: 65536
Apodization: N-B strong;
Phase correction: Mertz;
Laser frequency: 15798,00 cm-1
Number of rejected sample scans: 0
Number of rejected background scans: 0
Bench serial number: BER2010005;
##RESOLUTION= 4,000
##XUNITS=1/CM
##YUNITS=ABSORBANCE
##FIRSTX=400.156891
##LASTX=4000.123047
##FIRSTY=0.013360
##MAXX=4000.123047
##MINX=400.156891
##MAXY=0.257293
##MINY=0.000121
##XFACTOR=1.000000
##YFACTOR=1.000000E-009
##NPOINTS=7468
##DELTAX=0.482117
##ZPD=6100
##XYDATA=(X++(Y..Y))
400.157 13359763 12682000 11902981 11255029 11019921 11417972 12508999 
403.532 14168205 16108982 17994368 19529012 20600644 21299970 21855030 
406.907 22463206 23175466 23830332 24140920 23818956 22762482 21145104 
410.281 19382262 17943672 17150032 17082342 17566198 18287330 18931262 
413.656 19351360 19597434 19859880 20327472 21089796 22080494 23116124 
417.031 23949534 24399258 24453482 24325768 24305232 24525838 24826328 
420.406 24904184 24517494 23635446 22424092 21188138 20257512 19868276 
423.781 20092952 20796814 21717348 22588002 23277252 23804990 24282140 
427.155 24800718 25352826 25800702 25938242 25563036 24591298 23107144 
430.530 21372220 19741658 18557322 18052082 18261586 19039780 20119676 
433.905 21227000 22121286 22658198 22812800 22679946 22447400 22331052 
437.280 22524900 23123638 24109396 25348226 26631990 27702560 28303992 
440.655 28258656 27499008 26108620 24299660 22391576 20707492 19485382 
444.030 18839728 18738354 19046876 19575112 20146746 20616034 20894396 
447.404 20956702 20826848 20560448 20218284 19860540 19540382 19308576 
450.779 19222710 19332546 19666420 20203220 20869398 21545236 22100958 
454.154 22446808 22545246 22425418 22160788 21852206 21589668 21424744 
457.529 21363276 21378520 21440966 21545028 21705608 21929464 22182234 
460.904 22379682 22389762 22082656 21393068 20368894 19176546 18054294 
464.278 17246832 16908474 17076724 17656362 18463168 19262542 19849510 
467.653 20109888 20022860 19643262 19051102 18321892 17501410 16612412 
471.028 15675625 14723714 13814074 13027629 12443596 12127869 12115228 
474.403 12408136 12982084 13785275 14736225 15708053 16549073 17104330 
477.778 17259002 16994088 16399505 15659239 14980488 14560519 14514608 
481.152 14850248 15460772 16160669 16741838 17020932 16905718 16407661 
484.527 15636945 14752370 13919575 13250913 12776580 12456348 12210195 
487.902 11964318 11677972 11358379 11052073 10816973 10687432 10657039 
491.277 10681523 10707230 10705668 10702884 10773766 11017610 11499246 
494.652 12206446 13032000 13798990 14309781 14402113 14024075 13244935 
498.027 12243048 11226671 10396021 9888250 9762646 10017824 10607193 
501.401 11459815 12485947 13589577 14669731 15624134 16372116 16861178 
504.776 17081272 17063386 16869684 16570827 16220752 15847107 15448652 
508.151 15012453 14534377 14032151 13543495 13112824 12769039 12516945 
511.526 12332658 12181468 12033737 11884626 11756843 11691723 11725660 
514.901 11871448 12105177 12368213 12580518 12660678 12553743 12240254 
518.276 11739685 11100883 10396835 9709582 9117403 8691233 8477510 8494538 
522.132 8729433 9144236 9681290 10276376 10876594 11441614 11949672 12392419 
525.989 12764636 13059178 13264852 13370390 13370902 13271718 13088135 
529.364 12842681 12562509 12279960 12029377 11851324 11787449 11872333 
532.739 12126574 12542216 13076081 13641853 14129079 14421671 14425713 
536.114 14105084 13491949 12688994 11839372 11110842 10647837 10533758 
539.489 10776618 11304202 11988739 12670947 13215628 13535872 13613407 
542.863 13493829 13267072 13033741 12867869 12806814 12843023 12938866 
546.238 13041150 13105516 13104936 13030258 12884149 12675586 12416489 
549.613 12123371 11821871 11546099 11328381 11192228 11141267 11156939 
552.988 11204196 11247650 11265978 11261592 11261252 11306378 11437940 
556.363 11678789 12029683 12469101 12963787 13474518 13967339 14414922 
559.738 14793199 15081675 15262740 15325720 15273825 15126857 14920232 
563.112 14695060 14493402 14349505 14287249 14325020 14475896 14747982 
566.487 15140993 15640758 16215146 16814334 17383516 17871958 18245620 
569.862 18493042 18618982 18635410 18552444 18377850 18122756 17811852 
573.237 17493614 17232006 17096816 17144620 17395244 17825662 18374014 
576.612 18965148 19527176 20016474 20419598 20742108 20995996 21188174 
579.986 21321162 21400344 21441556 21474282 21529288 21627000 21762562 
583.361 21905140 22004432 22014470 21914164 21719228 21479258 21261100 
586.736 21129346 21123884 21257132 21515224 21869770 22282846 22711192 
590.111 23107632 23413542 23567506 23519128 23243170 22756092 22113964 
593.486 21399856 20692690 20055580 19523712 19106774 18801632 18603350 
596.861 18511782 18529140 18652116 18863328 19127236 19398304 19629604 
600.235 19785768 19851904 19828874 19724702 19545408 19293992 18977262 
603.610 18616458 18257230 17962010 17793246 17795006 17969228 18273092 
606.985 18626316 18942478 19146178 19197118 19094100 18864090 18544632 
610.360 18168568 17761834 17344410 16938686 16576163 16290648 16111802 
613.735 16052112 16100869 16225534 16380822 16526666 16633309 16690049 
617.109 16698968 16667049 16598126 16490905 16341770 16150076 15922168 
620.484 15670026 15406836 15145109 14895062 14667881 14482611 14366664 
623.859 14351389 14464146 14711580 15072207 15493152 15908180 16250057 
627.234 16472768 16563600 16538195 16430613 16275616 16102346 15928768 
630.609 15767662 15635366 15554722 15553349 15653949 15861817 16157024 
633.984 16493591 16814334 17060424 17191844 17196016 17087062 16898864 
637.358 16673764 16456146 16282564 16181579 16172843 16263852 16448438 
640.733 16704030 16995848 17276894 17500374 17631172 17650840 17563680 
644.108 17395276 17188396 16989334 16842508 16779892 16813402 16934586 
647.483 17115014 17317168 17499478 17634450 17716582 17766492 17822450 
650.858 17928238 18118578 18403534 18767000 19169794 19566306 19913228 
654.232 20183468 20367230 20466934 20490172 20443770 20334206 20171112 
657.607 19974182 19778936 19630332 19581454 19678520 19947434 20389524 
660.982 20977114 21661828 22377134 23054450 23637230 24090832 24416714 
664.357 24652630 24867026 25142158 25569292 26225280 27142060 28240586 
667.732 29285534 29965590 30096182 29767860 29231944 28724654 28372464 
671.107 28222306 28269228 28481066 28814862 29230420 29700124 30208840 
674.481 30749484 31313270 31883464 32436836 32953736 33427450 33869944 
677.856 34306400 34761704 35244764 35741208 36217900 36638480 36978892 
681.231 37241700 37455756 37667608 37922008 38250768 38664812 39154008 
684.606 39692988 40249172 40791296 41289856 41721688 42072760 42343228 
687.981 42550972 42730736 42928756 43184756 43522948 43943624 44424824 
691.355 44930844 45423776 45877120 46277528 46623116 46918436 47168568 
694.730 47377376 47551236 47702684 47849856 48014212 48212616 48450524 
698.105 48721704 49011672 49306988 49603664 49910908 50247644 50635756 
701.480 51089584 51610452 52187240 52802588 53438628 54083676 54732272 
704.855 55382140 56027664 56659620 57264592 57831908 58360668 58863280 
708.229 59362904 59889916 60475148 61142028 61905100 62767020 63718712 
711.604 64738592 65797352 66864572 67915160 68941152 69958368 71006920 
714.979 72138200 73398792 74810600 76360312 77999520 79658464 81272512 
718.354 82792816 84196968 85480720 86635624 87631984 88413928 88907888 
721.729 89055800 88836088 88276632 87439656 86402464 85228256 83948944 
725.104 82571800 81092880 79515672 77862504 76169832 74476936 72813872 
728.478 71193000 69615176 68078960 66587852 65152356 63781872 62475036 
731.853 61214160 59968612 58708728 57417876 56102800 54790532 53517780 
735.228 52311460 51181876 50121448 49115504 48154456 47241964 46391624 
738.603 45615296 44907588 44239292 43557048 42803752 41935924 40940912 
741.978 39840920 38686360 37538476 36448536 35453816 34572580 33808552 
745.352 33156000 32601212 32123364 31689990 31263028 30804222 30286674 
748.727 29706226 29085490 28469746 27906630 27436568 27075262 26810994 
752.102 26610184 26432286 26242106 26018270 25757314 25468618 25169894 
755.477 24879272 24615108 24394878 24232318 24137942 24114720 24156088 
758.852 24244720 24356256 24462702 24535830 24553254 24496846 24354116 
762.227 24119940 23799810 23414698 23001206 22612014 22300146 22102738 
765.601 22028902 22051944 22115708 22149736 22098100 21934168 21671544 
768.976 21355060 21046702 20800150 20642128 20568472 20545994 20527168 
772.351 20461274 20311186 20058702 19706256 19273902 18797862 18324726 
775.726 17900234 17565404 17342514 17229696 17199806 17209494 17212390 
779.101 17171128 17071486 16922460 16751379 16587557 16452463 16350474 
782.475 16271006 16194681 16105441 15997896 15878657 15761822 15660303 
785.850 15579141 15511557 15441134 15347173 15212636 15028026 14795084 
789.225 14525195 14239210 13964602 13731170 13569919 13505177 13550058 
792.600 13701896 13943046 14240956 14555482 14851036 15099686 15288034 
795.975 15416517 15493598 15528417 15525533 15482576 15393172 15251963 
799.350 15060373 14830018 14584367 14356012 14176455 14073151 14057271 
802.724 14120864 14236334 14365533 14471100 14527148 14529101 14493264 
806.099 14450787 14432049 14456541 14524441 14620279 14720766 14809893 
809.474 14887312 14969375 15080303 15237893 15442747 15675349 15901580 
812.849 16085669 16207580 16268151 16287345 16290614 16296772 16306575 
816.224 16305165 16270731 16190210 16069956 15935298 15820647 15755054 
819.598 15749315 15792951 15860787 15927117 15981017 16029110 16092444 
822.973 16191518 16334787 16509250 16685298 16826388 16907680 16925008 
826.348 16898588 16862416 16854666 16903340 17018692 17195464 17417486 
829.723 17667334 17929344 18192718 18448096 18684632 18889732 19050444 
833.098 19157916 19212112 19222468 19206190 19182262 19168788 19177272 
836.473 19211940 19270370 19346578 19432364 19520036 19604298 19683234 
839.847 19758754 19835638 19919924 20016684 20127344 20249458 20377576 
843.222 20507678 20638966 20776238 20928364 21103048 21301882 21516372 
846.597 21727624 21913222 22051734 22131328 22153954 22134256 22093568 
849.972 22054174 22034408 22043752 22085200 22155246 22246400 22347690 
853.347 22446842 22532438 22595786 22634112 22650726 22654184 22651216 
856.721 22642594 22619730 22567794 22471964 22328680 22151690 21972890 
860.096 21832660 21764060 21780364 21868794 21994358 22112220 22188022 
863.471 22209852 22192766 22169716 22179514 22251040 22391228 22587898 
866.846 22815732 23048300 23264494 23454600 23615644 23746544 23842970 
870.221 23896388 23896632 23836912 23717252 23545012 23332526 23094634 
873.596 22844508 22591912 22343994 22103854 21871720 21645912 21424432 
876.970 21208874 21007820 20835712 20713540 20658948 20679102 20764038 
880.345 20887824 21015438 21113588 21164758 21172622 21160654 21160098 
883.720 21197914 21286572 21420774 21583470 21756362 21929220 22100714 
887.095 22274582 22450610 22615680 22744918 22808994 22785912 22673034 
890.470 22491122 22277476 22070246 21898134 21770472 21679868 21610214 
893.844 21549380 21496770 21464080 21467700 21520690 21624946 21770750 
897.219 21938418 22105246 22252224 22364052 22429710 22441470 22395240 
900.594 22293382 22148936 21987144 21839594 21736820 21698608 21726230 
903.969 21803950 21905312 22005408 22087432 22148692 22195380 22237056 
907.344 22277860 22315356 22341272 22348808 22336528 22308936 22272452 
910.719 22230812 22180560 22113196 22021268 21904928 21776044 21655732 
914.093 21564248 21511568 21491166 21483088 21462236 21410610 21328054 
917.468 21231766 21148408 21100196 21095258 21122112 21155608 21165732 
920.843 21132616 21050736 20929442 20784858 20632608 20482912 20340838 
924.218 20212000 20107390 20044616 20045586 20127416 20296290 20542590 
927.593 20843360 21167752 21484342 21770368 22011996 22204412 22349332 
930.967 22451796 22520050 22563326 22593132 22619032 22645594 22670904 
934.342 22687732 22687696 22667518 22633274 22600986 22591526 22620288 
937.717 22692304 22798586 22921628 23043760 23157888 23272778 23410534 
941.092 23595736 23845000 24156788 24511008 24871412 25198124 25461168 
944.467 25644294 25749860 25794408 25804956 25811252 25842548 25924840 
947.841 26073540 26291386 26563510 26861324 27144106 27371876 27519554 
951.216 27582890 27582358 27555528 27546948 27590374 27703266 27884160 
954.591 28118398 28386260 28671558 28965120 29262282 29559364 29849802 
957.966 30123030 30367328 30574146 30740202 30868144 30963960 31034452 
961.341 31084778 31120764 31150274 31183810 31233580 31308394 31408116 
964.716 31520042 31621452 31684570 31684820 31609018 31458698 31248998 
968.090 31001572 30741944 30494024 30277756 30110352 30003720 29961614 
971.465 29976490 30028752 30089966 30128428 30122390 30066140 29974076 
974.840 29873084 29794722 29760336 29773750 29820664 29875782 29914294 
978.215 29918838 29885436 29820558 29735568 29640806 29543900 29451380 
981.590 29371676 29317862 29305490 29347072 29446912 29597140 29779002 
984.964 29968146 30143912 30293316 30413202 30506322 30576778 30625022 
988.339 30648776 30646144 30620970 30585844 30560994 30568034 30622854 
991.714 30730848 30885578 31070436 31264168 31447724 31604812 31724562 
995.089 31801704 31836220 31835542 31814824 31797462 31807444 31862744 
998.464 31967766 32110092 32263528 32396350 32486360 32527066 32531638 
1001.839 32524638 32534066 32577850 32659218 32767646 32886754 33002392 
1005.213 33107366 33202100 33290204 33372846 33447600 33510302 33560452 
1008.588 33605272 33661624 33749636 33885744 34076936 34318376 34596620 
1011.963 34895828 35204556 35515620 35823524 36119336 36386380 36603796 
1015.338 36754720 36834208 36855268 36845496 36837236 36851948 36893252 
1018.713 36946244 36989612 37008876 37010536 37020460 37078412 37217584 
1022.087 37449872 37758536 38105580 38445268 38740372 38976264 39159120 
1025.463 39308320 39440336 39561472 39664924 39737096 39767420 39756524 
1028.838 39716840 39668952 39630508 39611160 39609200 39614720 39614572 
1032.213 39597660 39557408 39491504 39400212 39285000 39149696 39000404 
1035.588 38845436 38693096 38547912 38407980 38265964 38113144 37945656 
1038.964 37769744 37600764 37459440 37362112 37313400 37303400 37313580 
1042.339 37325136 37328208 37327052 37337992 37380712 37467352 37596572 
1045.714 37753332 37916656 38066916 38194720 38301716 38398028 38494828 
1049.089 38599984 38718488 38854856 39017584 39221676 39484536 39821124 
1052.464 40237612 40727748 41275024 41858452 42459512 43062976 43656544 
1055.840 44225648 44747600 45195864 45545192 45784440 45924408 46000872 
1059.215 46064528 46161580 46324268 46557124 46841220 47143008 47432144 
1062.590 47691036 47919892 48130320 48335632 48541484 48741352 48919728 
1065.965 49060192 49154612 49207528 49237252 49270576 49339692 49472640 
1069.341 49689844 49999528 50395640 50858308 51357828 51865164 52359788 
1072.716 52841464 53332636 53876044 54517640 55288760 56192204 57198064 
1076.091 58249976 59284584 60258580 61160868 62018868 62883004 63811848 
1079.466 64846264 65998576 67251736 68569088 69908120 71231144 72513416 
1082.842 73740864 74905872 76006512 77045840 78033544 78985336 79920736 
1086.217 80856728 81803488 82765552 83746272 84753480 85802120 86907208 
1089.592 88072296 89274656 90463984 91565048 92502888 93232504 93756120 
1092.967 94125960 94423400 94730256 95089432 95492328 95879736 96173240 
1096.343 96298456 96213680 95920016 95452616 94863184 94200784 93506440 
1099.718 92804872 92108000 91417024 90723104 90009056 89254304 88447560 
1103.093 87596752 86738024 85928872 85239824 84727872 84417968 84298592 
1106.468 84328560 84456968 84642504 84869688 85148072 85500088 85941872 
1109.844 86473536 87077640 87731000 88418968 89147376 89938744 90821520 
1113.219 91808904 92885328 94003800 95100936 96110816 96982504 97690608 
1116.594 98225600 98584936 98763504 98751816 98544360 98148544 97589384 
1119.969 96900736 96113992 95244008 94285584 93222568 92046272 90771984 
1123.345 89448984 88151960 86957768 85933112 85114008 84506472 84097552 
1126.720 83869720 83813008 83930216 84232768 84734712 85447248 86377928 
1130.095 87536808 88939608 90606544 92557376 94797560 97310160 100049520 
1133.470 102955328 105963160 109022600 112108544 115214024 118336000 
1136.363 121457568 124535880 127508120 130312208 132902520 135268864 
1139.256 137431760 139427552 141283552 143006800 144582864 145990736 
1142.150 147220144 148282784 149207600 150031216 150779776 151463008 
1145.043 152080880 152637072 153150768 153660592 154208928 154827936 
1147.936 155523104 156272512 157038480 157789792 158519312 159246480 
1150.829 160004176 160815520 161677088 162556000 163402448 164173728 
1153.722 164857232 165475168 166072928 166690864 167345760 168019008 
1156.615 168667632 169240384 169702752 170046448 170283456 170430752 
1159.508 170497376 170478736 170363104 170144592 169830544 169440032 
1162.401 168991424 168487376 167907648 167213568 166367200 165349680 
1165.294 164171152 162865408 161474256 160029504 158541328 157004048 
1168.187 155410528 153766704 152098128 150441344 148825376 147258480 
1171.080 145720288 144173296 142578096 140916784 139198368 137455168 
1173.973 135723696 134031040 132383568 130770520 129175216 127587896 
1176.866 126011000 124455776 122932144 121441176 119973840 118517968 
1179.759 117068696 115634184 114232544 112881864 111585448 110327440 
1182.652 109075416 107797216 106478816 105133848 103798880 102520192 
1185.546 101333072 100245304 99236200 98266936 97302120 96321576 95329000 
1188.921 94341656 93378240 92443888 91526184 90601528 89649696 88665376 
1192.296 87662760 86668432 85709848 84802344 83943160 83114960 82295912 
1195.671 81470600 80634776 79794696 78961488 78145824 77354056 76591752 
1199.047 75866528 75189712 74574648 74029832 73554152 73133216 72745744 
1202.422 72371576 72000872 71638640 71301848 71010352 70774432 70589184 
1205.797 70434536 70285152 70118808 69926528 69713168 69492288 69276616 
1209.172 69071696 68874328 68677312 68476168 68273520 68078992 67904936 
1212.547 67759984 67645048 67555968 67487960 67442056 67427976 67459592 
1215.923 67547032 67689816 67872968 68070704 68254488 68406736 68524464 
1219.298 68620856 68715240 68826296 68963136 69123328 69298888 69482064 
1222.673 69671504 69872856 70094008 70340472 70610512 70896904 71190040 
1226.048 71484072 71780312 72085272 72406224 72745744 73098752 73454624 
1229.424 73801848 74132600 74446376 74745616 75032504 75303272 75546912 
1232.799 75748680 75896992 75988312 76029560 76035168 76020880 75998456 
1236.174 75972960 75944232 75910408 75870912 75825056 75770064 75696536 
1239.549 75588160 75425568 75191760 74879800 74494952 74052272 73568288 
1242.925 73054176 72511072 71932784 71310168 70640024 69927112 69183592 
1246.300 68423256 67655120 66883512 66109292 65336296 64575552 63844196 
1249.675 63160360 62535340 61967236 61442012 60940184 60448492 59969144 
1253.050 59521340 59133824 58834292 58633252 58517600 58450308 58384204 
1256.426 58273356 58086816 57817188 57476988 57093032 56694424 56309916 
1259.801 55961436 55663480 55423096 55238112 55096616 54978328 54861016 
1263.176 54725808 54564716 54383252 54197548 54024500 53873644 53740764 
1266.551 53609612 53460368 53277492 53058076 52812468 52558620 52312056 
1269.927 52079832 51858408 51638664 51414180 51188548 50976560 50800684 
1273.302 50679952 50622316 50620456 50654596 50698644 50728400 50728920 
1276.677 50694064 50623840 50519648 50380648 50203268 49983616 49719712 
1280.052 49412712 49065680 48681192 48260348 47803176 47311640 46792284 
1283.428 46257736 45724172 45206160 44713588 44249384 43811804 43398652 
1286.803 43011828 42659016 42351300 42097032 41898520 41748096 41633428 
1290.178 41540444 41460060 41391460 41339272 41309788 41303776 41315656 
1293.553 41333548 41344484 41339380 41316128 41278560 41232800 41181684 
1296.929 41122380 41047716 40950268 40827184 40682264 40525352 40368532 
1300.304 40220308 40083512 39955404 39831000 39705872 39579036 39452348 
1303.679 39328200 39208508 39093168 38982496 38879064 38788768 38719540 
1307.054 38677668 38663868 38671836 38691468 38712512 38730880 38750876 
1310.430 38783044 38837468 38916860 39012364 39104988 39174060 39205428 
1313.805 39199952 39173772 39152232 39156076 39195164 39261384 39333312 
1317.180 39381344 39379244 39312348 39178920 38987896 38754316 38492980 
1320.555 38215020 37928664 37639748 37352036 37067800 36786636 36505976 
1323.931 36222728 35936024 35648288 35365992 35096020 34841400 34598736 
1327.306 34358540 34109192 33843364 33564280 33287842 33039320 32844260 
1330.681 32723092 32683152 32718628 32813814 32951522 33118092 33307698 
1334.056 33522866 33772232 34067328 34419580 34840108 35335760 35906112 
1337.432 36536432 37192536 37819660 38345364 38703708 38855040 38806232 
1340.807 38608276 38341784 38089052 37908016 37828916 37851364 37954696 
1344.182 38108368 38285980 38472132 38663324 38863880 39078776 39307164 
1347.557 39540896 39763784 39957588 40107424 40204392 40248952 40250844 
1350.932 40228996 40206500 40207260 40249684 40340096 40469376 40613676 
1354.308 40743728 40831696 40864820 40849532 40810912 40782484 40794788 
1357.683 40869740 41015776 41232504 41515400 41859844 42258492 42694252 
1361.058 43135060 43524704 43794360 43886140 43778124 43501556 43129464 
1364.433 42751504 42437332 42225408 42121568 42106416 42147016 42208536 
1367.809 42266056 42306488 42331212 42351848 42388564 42467260 42618988 
1371.184 42880332 43284864 43855532 44589284 45449820 46360952 47225892 
1374.559 47963404 48531184 48934560 49202404 49357660 49393040 49270172 
1377.934 48931856 48334928 47471616 46382148 45137296 43817820 42486844 
1381.310 41177856 39907096 38685056 37529880 36472100 35542192 34759156 
1384.685 34119084 33591916 33121884 32637894 32079556 31409006 30629716 
1388.060 29779640 28914864 28090014 27348974 26728918 26256430 25952136 
1391.435 25827356 25880562 26093526 26428096 26831012 27232152 27564918 
1394.811 27788882 27903416 27945358 27965960 28008932 28089554 28190978 
1398.186 28266010 28257806 28120308 27847276 27477688 27083516 26739842 
1401.561 26500570 26392074 26403516 26490814 26578480 26585350 26445526 
1404.936 26137368 25692838 25186398 24704430 24313678 24056404 23946452 
1408.312 23979612 24143652 24424878 24809172 25280684 25822186 26416088 
1411.687 27049450 27719052 28431748 29200792 30037626 30943392 31906140 
1415.062 32903590 33904764 34880788 35800212 36618472 37269284 37653660 
1418.437 37665696 37252816 36470944 35480416 34466388 33577772 32885254 
1421.813 32394920 32069564 31847876 31660512 31452108 31205312 30948302 
1425.188 30743792 30657486 30743224 31028938 31518120 32192264 33015010 
1428.563 33934964 34888724 35818380 36679616 37451352 38136872 38759748 
1431.938 39358564 39975968 40657008 41440080 42352108 43399788 44560132 
1435.314 45764596 46886140 47776912 48331740 48556452 48552932 48460528 
1438.689 48388668 48395816 48506724 48721480 49028624 49406924 49832448 
1442.064 50280196 50729964 51173004 51613924 52070344 52564936 53119932 
1445.439 53746800 54440940 55178400 55921676 56633268 57292152 57909440 
1448.815 58530036 59221884 60049264 61064716 62296476 63745452 65381476 
1452.190 67153568 69011064 70914720 72859256 74870944 76985592 79223224 
1455.565 81529920 83713160 85441552 86369432 86383664 85682152 84620200 
1458.940 83487816 82444664 81571224 80903744 80465016 80271656 80323272 
1462.316 80598072 81040528 81562824 82033800 82297872 82216664 81689176 
1465.691 80671320 79160280 77168120 74727360 71900328 68794312 65532952 
1469.066 62246604 59031708 55903096 52800380 49597312 46174184 42504968 
1472.441 38744320 35179008 32064178 29494464 27401838 25634592 24052378 
1475.817 22564338 21146286 19824192 18646688 17652116 16851326 16231965 
1479.192 15762886 15403094 15102602 14811745 14487510 14107035 13679191 
1482.567 13242817 12855241 12570490 12431764 12458292 12644918 12965390 
1485.942 13384433 13868566 14391460 14934292 15469184 15938221 16250435 
1489.318 16293332 15987169 15340961 14465037 13525686 12672380 12008666 
1492.693 11575363 11373617 11383175 11574783 11908532 12328329 12763204 
1496.068 13123616 13327577 13331267 13142501 12812342 12406806 11987786 
1499.443 11595474 11249724 10957528 10720442 10545674 10450663 10462474 
1502.818 10620843 10974688 11583427 12513671 13829364 15554138 17564232 
1506.194 19491862 20759034 20943072 20131476 18777446 17313790 15968744 
1509.569 14827173 13892240 13135910 12528096 12042866 11665515 11397155 
1512.944 11251799 11252547 11422531 11772367 12284119 12894629 13499196 
1516.319 13963849 14193709 14186828 14042795 13903016 13891829 14084514 
1519.695 14485179 15015574 15506063 15756633 15629904 15158867 14508441 
1523.070 13867780 13354398 13004720 12803129 12701822 12638675 12547025 
1526.445 12378271 12107119 11738188 11300495 10841466 10419675 10093105 
1529.820 9918827 9937845 10168840 10598467 11174005 11789151 12280745 
1533.196 12487652 12331123 11884456 11319913 10821389 10509113 10438376 
1536.571 10635274 11113595 11886465 12944567 14235272 15608815 16798974 
1539.946 17520658 17638522 17259036 16616646 15931483 15316007 14781851 
1543.321 14275127 13716396 13041287 12236402 11357223 10509928 9810227 
1546.697 9335639 9121870 9156182 9384763 9709447 10005957 10163345 10122441 
1550.554 9910454 9617735 9357340 9214764 9238387 9430678 9756072 10150422 
1554.411 10554331 10945227 11350760 11842164 12513978 13462829 14742498 
1557.787 16260412 17595250 18051012 17199256 15413976 13427184 11710648 
1561.162 10395851 9448556 8806823 8408184 8198517 8124543 8131127 8164990 
1565.019 8188252 8195917 8214860 8291652 8468083 8765336 9160886 9581116 
1568.877 9894929 9970188 9748245 9288753 8730041 8215737 7845035 7658672 
1572.734 7665552 7854786 8208714 8696066 9263569 9822359 10236242 10373487 
1576.592 10178981 9713851 9108267 8490214 7944472 7505022 7177536 6947351 
1580.449 6790082 6677348 6585298 6500365 6419786 6348401 6293937 6261463 
1584.307 6251312 6259884 6282541 6316327 6359631 6411379 6468044 6522968 
1588.164 6567772 6596131 6607704 6608847 6611943 6630581 6673882 6744783 
1592.021 6839626 6951190 7070831 7190875 7304585 7402820 7473671 7503538 
1595.879 7480817 7402685 7277865 7126639 6973513 6843228 6754138 6713622 
1599.736 6719712 6762148 6827206 6900016 6967553 7020081 7050658 7057730 
1603.594 7046415 7030520 7028466 7061098 7143885 7280998 7461232 7658672 
1607.451 7839097 7966981 8019090 7989661 7889875 7741539 7571236 7406460 
1611.308 7271766 7190640 7184307 7269913 7460963 7765049 8180318 8684708 
1615.166 9228504 9725406 10062585 10152253 9981071 9622579 9187587 8779029 
1619.023 8464603 8277704 8235560 8340828 8582972 8927991 9314616 9653916 
1622.881 9851338 9855270 9682103 9408431 9121903 8893189 8752929 8695492 
1626.738 8686095 8675953 8619574 8490281 8293274 8060270 7836601 7662450 
1630.596 7569584 7578991 7703595 7955272 8346469 8891870 9598324 10451138 
1634.453 11386984 12259987 12872988 13067135 12833262 12303036 11652207 
1637.828 11010031 10439089 9963746 9586468 9302395 9106677 8993612 8958263 
1641.686 8996825 9109993 9306830 9606590 10038305 10636665 11430287 12423615 
1645.543 13557306 14684023 15587486 16070301 16084775 15753575 15282405 
1648.918 14842601 14549007 14468119 14641252 15107027 15896322 16999464 
1652.294 18239884 19187800 19346196 18624654 17418660 16158983 15055501 
1655.669 14141025 13389867 12768595 12252387 11834230 11516972 11306922 
1659.044 11210452 11226908 11346543 11545146 11783330 12002126 12127971 
1662.419 12099556 11892425 11542525 11129640 10751382 10487422 10386078 
1665.795 10472963 10752436 11213376 11823267 12529358 13246336 13861143 
1669.170 14264752 14387008 14233047 13875579 13425305 12985601 12629874 
1672.545 12405205 12326078 12376770 12503611 12621926 12633934 12481957 
1675.920 12190702 11856022 11590131 11470123 11534631 11779686 12170325 
1679.296 12647340 13151006 13642160 14122472 14635940 15251621 16029524 
1682.671 16975794 17967674 18715486 18891012 18395548 17477642 16493279 
1686.046 15683422 15122568 14795461 14647318 14611403 14619046 14611850 
1689.421 14556065 14445751 14304165 14171834 14097075 14120898 14274134 
1692.797 14580084 15056187 15712760 16540365 17494614 18469980 19323920 
1696.172 19953088 20359172 20632852 20879514 21177874 21552130 21966336 
1699.547 22316158 22474338 22380622 22109814 21803186 21575356 21475882 
1702.922 21507634 21653260 21879074 22136034 22355016 22469348 22438678 
1706.297 22272384 22022976 21762214 21553836 21434144 21414058 21481626 
1709.673 21613592 21788412 22000422 22264502 22613796 23084676 23704516 
1713.048 24475778 25375202 26353908 27354372 28335892 29280856 30189836 
1716.423 31052106 31816892 32393102 32701194 32744564 32625642 32496714 
1719.798 32498426 32715268 33191762 33936508 34935584 36156316 37557264 
1723.174 39100964 40761048 42531532 44424128 46460428 48665068 51067816 
1726.549 53712080 56660752 59997260 63805356 68136904 72962992 78154904 
1729.924 83518024 88851904 94075800 99297528 104852480 111258904 119123456 
1733.299 128837736 140102096 151741648 162315424 171078256 178252432 
1736.193 184517360 190521664 196716000 203332480 210412208 217807776 
1739.086 225251440 232398384 238933168 244629888 249345120 252983536 
1741.979 255494560 256893968 257292960 256872976 255825184 254249456 
1744.872 252120768 249318592 245716192 241262496 236030896 230175184 
1747.765 223869136 217189616 210076160 202354944 193878000 184661792 
1750.658 174955904 165208608 155899296 147364848 139707616 132840784 
1753.551 126571688 120677688 114955072 109229584 103372816 97338112 91194760 
1756.926 85127472 79380680 74154720 69548952 65548324 62045048 58874244 
1760.301 55844988 52792936 49620560 46354500 43134732 40146524 37531072 
1763.677 35342556 33554972 32094110 30872272 29810372 28850342 27953698 
1767.052 27102102 26294024 25540052 24859554 24274994 23806670 23462782 
1770.427 23228908 23052982 22848838 22510768 21969264 21241198 20416124 
1773.802 19601664 18867584 18237016 17694288 17209632 16759712 16342148 
1777.178 15975861 15690912 15506028 15414422 15373571 15318066 15177259 
1780.553 14913270 14541778 14125930 13742045 13447245 13261572 13163369 
1783.928 13100872 13012743 12856811 12623393 12339100 12048999 11803859 
1787.303 11642983 11592207 11667046 11873423 12206754 12643008 13134954 
1790.679 13600038 13928231 14021611 13837094 13424108 12896540 12383112 
1794.054 11966430 11669565 11472777 11336748 11226535 11126003 11042046 
1797.429 10998205 11018868 11113630 11267883 11442193 11585571 11647203 
1800.804 11596801 11430320 11165369 10830357 10456297 10074182 9712496 
1804.180 9400474 9164270 9019862 8969324 8996960 9073992 9163153 9233513 
1808.037 9267835 9265804 9240249 9208096 9180480 9156148 9121938 9059614 
1811.894 8956572 8810948 8632519 8437946 8246636 8074514 7932762 7827121 
1815.752 7756920 7715939 7692330 7672499 7643362 7597064 7533610 7462210 
1819.609 7398405 7359109 7359749 7409190 7507988 7649399 7820137 8000224 
1823.467 8163335 8283242 8338430 8325392 8264297 8199800 8183863 8258084 
1827.324 8442204 8723449 9051122 9337027 9482861 9411174 9111718 8648338 
1831.182 8129945 7657357 7289085 7046314 6919071 6883454 6911261 6978058 
1835.039 7063624 7148263 7212436 7235076 7198523 7097067 6943648 6769518 
1838.896 6614533 6517788 6503964 6580387 6740442 6970348 7253438 7570427 
1842.754 7898344 8202298 8437170 8560263 8548097 8411055 8187105 7925609 
1846.611 7665181 7423885 7200173 6979439 6745927 6495690 6242774 6016679 
1850.469 5848932 5757561 5739934 5770488 5812261 5827640 5797620 5727377 
1854.326 5643652 5578805 5558265 5588907 5658221 5740438 5808936 5848294 
1858.183 5856757 5844801 5826331 5813604 5811555 5820622 5838655 5865220 
1862.041 5901862 5951944 6018594 6105617 6218774 6368037 6568008 6834072 
1865.898 7173460 7576631 8008932 8407407 8688055 8778759 8645532 8316881 
1869.756 7865818 7382126 6934962 6559396 6265598 6046446 5889704 5783248 
1873.613 5716332 5677556 5651406 5621062 5569407 5486618 5373552 5243377 
1877.471 5115890 5010093 4939375 4906768 4907605 4932907 4975637 5031445 
1881.328 5099294 5177885 5262259 5342623 5408173 5450011 5467358 5469204 
1885.185 5474069 5502893 5574207 5698001 5871870 6077997 6282541 6443225 
1889.043 6513483 6461318 6281398 6002602 5680343 5379657 5161992 5064530 
1892.900 5096881 5238179 5446756 5667821 5850645 5966859 6012816 6005828 
1896.758 5970587 5928296 5889435 5855649 5824551 5795000 5768306 5745172 
1900.615 5722811 5692395 5642444 5565648 5465613 5358322 5267893 5218662 
1904.473 5223993 5282248 5380496 5502558 5637274 5783080 5944453 6121814 
1908.330 6302476 6457350 6545908 6533697 6410471 6196456 5935821 5679033 
1912.187 5466083 5312602 5214704 5159041 5138152 5158806 5240828 5403375 
1916.045 5648922 5949223 6246068 6463874 6549675 6499894 6369213 6239076 
1919.902 6185466 6246572 6411379 6625534 6811016 6898973 6851441 6679872 
1923.760 6430715 6161705 5910494 5687930 5481585 5273360 5053602 4830270 
1927.617 4625605 4467466 4373708 4344791 4360990 4391882 4407781 4389171 
1931.474 4334082 4256146 4178826 4126105 4115468 4152063 4226969 4316044 
1935.332 4388200 4413639 4372603 4266418 4122358 3993829 3940796 4018341 
1939.189 4255711 4647675 5151866 5696625 6200893 6587519 6811824 6870662 
1943.047 6798126 6641851 6444402 6230538 6006164 5768575 5518296 5266283 
1946.904 5035233 4853657 4745243 4719987 4765879 4854059 4941620 4988842 
1950.762 4970073 4880831 4738544 4577350 4434292 4331304 4269597 4224527 
1954.619 4159690 4038206 3844110 3589826 3318495 3085275 2942307 2918656 
1958.476 3013434 3197046 3422078 3640477 3808944 3897064 3887034 3767966 
1962.334 3535473 3197513 2781611 2335658 1926438 1622419 1469692 1480863 
1966.191 1627608 1852094 2080591 2250952 2329928 2314472 2223675 2084453 
1970.049 1923742 1765053 1635091 1566583 1590593 1725798 1963848 2268405 
1973.906 2576009 2824231 2971263 3016704 3000222 2984341 3019140 3113306 
1977.764 3226721 3290617 3247785 3081370 2832335 2577843 2403655 2359344 
1981.621 2443372 2601275 2753734 2826632 2782879 2638443 2451169 2295985 
1985.478 2228771 2274134 2416949 2616142 2822963 3007429 3165905 3317227 
1989.336 3487072 3688928 3911540 4119381 4260128 4286729 4178190 3948754 
1993.193 3646491 3336459 3087377 2947944 2935601 3033921 3199883 3375994 
1997.051 3505443 3554113 3515230 3411324 3282538 3171545 3103762 3079401 
2000.908 3073895 3048769 2966693 2802821 2556378 2244824 1899847 1552849 
2004.766 1233441 964641 764478 650045 636872 738223 961785 1305685 1750715 
2009.105 2258180 2774108 3229325 3553411 3692203 3615251 3326041 2864119 
2012.963 2303546 1735079 1246168 905801 743600 756412 916758 1191675 1555276 
2017.302 1992972 2497655 3056410 3639140 4195888 4657588 4954724 5036908 
2021.160 4885522 4523744 4006771 3403577 2771307 2151844 1571005 1047336 
2025.017 607672 286339 121254 142267 358592 751002 1267103 1836288 2375102 
2029.357 2807956 3087110 3195143 3145746 2972364 2721691 2438807 2158138 
2033.214 1900346 1669416 1461547 1276075 1122938 1027375 1022725 1134133 
2037.071 1369333 1709098 2116416 2545946 2964124 3358630 3737987 4119281 
2040.929 4510419 4894268 5225469 5438369 5469405 5287480 4906298 4391012 
2044.786 3836054 3346576 2999722 2832635 2839939 2983874 3209563 3460886 
2048.644 3696180 3891782 4042387 4158553 4260295 4370595 4506669 4674501 
2052.501 4860492 5034864 5154246 5181875 5100300 4926003 4705316 4506066 
2056.358 4389707 4387799 4493010 4662009 4833620 4948658 4975235 4914006 
2060.216 4794723 4656349 4532616 4439447 4375281 4328962 4289875 4256380 
2064.073 4233627 4227638 4238948 4259090 4274884 4275051 4258622 4236237 
2067.931 4226099 4244368 4296702 4375248 4461909 4538409 4592754 4626576 
2071.788 4650488 4679190 4722733 4782026 4851177 4922719 4992127 5061312 
2075.646 5134464 5213732 5292243 5355906 5385159 5365568 5294993 5186838 
2079.503 5065670 4959985 4893498 4876207 4906768 4973291 5060340 5150256 
2083.360 5226911 5275272 5280470 5231606 5126216 4975302 4803400 4645833 
2087.218 4539781 4510352 4564760 4689004 4854997 5026685 5175002 5283891 
2091.075 5350774 5381804 5385092 5364897 5321289 5254746 5171950 5086824 
2094.933 5021958 5000071 5033824 5119880 5237810 5353659 5429008 5435550 
2098.790 5361140 5214939 5022595 4822765 4655913 4553610 4533052 4592854 
2102.647 4714292 4866222 5016126 5138152 5219500 5262661 5281543 5293785 
2106.505 5309751 5328602 5337927 5321222 5266082 5174868 5065804 4970811 
2110.362 4921479 4937230 5016797 5136074 5254813 5328937 5327663 5241767 
2114.220 5088600 4904154 4736601 4630795 4615424 4698516 4864714 5078878 
2118.077 5294557 5468633 5569475 5585886 5528732 5428907 5324543 5247670 
2121.935 5214704 5220170 5241164 5245893 5211049 5131178 5025076 4925534 
2125.792 4871013 4885791 4970040 5095808 5215777 5280000 5249682 5113510 
2129.649 4889543 4622256 4364303 4166314 4063557 4067236 4164574 4323774 
2133.507 4504760 4663516 4764606 4785678 4722767 4592485 4427497 4273546 
2137.364 4173841 4159791 4240353 4397472 4587295 4750637 4834391 4803869 
2141.222 4658224 4430108 4179461 3969385 3848723 3835920 3912209 4029678 
2145.079 4127644 4158218 4096703 3948720 3741997 3516098 3305341 3130227 
2148.937 3001423 2924627 2911017 2978570 3143643 3408820 3747645 4107206 
2152.794 4407547 4567438 4529871 4274483 3828833 3256364 2640810 2056987 
2156.651 1559200 1183004 950794 883489 1002167 1317184 1814194 2446071 
2160.509 3140072 3805301 4361827 4752110 4950769 4966487 4832682 4596404 
2164.366 4301922 3990251 3694175 3437006 3236101 3099524 3024311 3000155 
2168.224 3013868 3053674 3113740 3193174 3290584 3398501 3501368 3577966 
2172.081 3612544 3606497 3588122 3607266 3719840 3968248 4356974 4843806 
2175.938 5345742 5769179 6030353 6082264 5925139 5601594 5176477 4717139 
2179.796 4284254 3920768 3654477 3501768 3462723 3520207 3637403 3766997 
2183.653 3858351 3876838 3817033 3704467 3588289 3516967 3522979 3607065 
2187.511 3739223 3871756 3963031 3990853 3961159 3900374 3844912 3824721 
2191.368 3856211 3942401 4078508 4258087 4473525 4712584 4955293 5170911 
2195.226 5328132 5405892 5406563 5359530 5316761 5331721 5433806 5616362 
2199.083 5833685 6019064 6106290 6060726 5890107 5642544 5382375 5167155 
2202.940 5025042 4946748 4892425 4810268 4660904 4427932 4125268 3788989 
2206.798 3470271 3217675 3070358 3052306 3168441 3404211 3726791 4092555 
2210.655 4448887 4746818 4953383 5057088 5072207 5032953 4982709 4955562 
2214.513 4967091 5008886 5054205 5069358 5028562 4926875 4782796 4633676 
2218.370 4520998 4479350 4521132 4633776 4782227 4925098 5027054 5070397 
2222.228 5060608 5020215 4978050 4955026 4958343 4979324 5004696 5025143 
2226.085 5048004 5095741 5199480 5380194 5636435 5933772 6215884 6414238 
2229.942 6473795 6371164 6121546 5773040 5388178 5029802 4739850 4537371 
2233.800 4422744 4385925 4415815 4502919 4639637 4815360 5014919 5219500 
2237.657 5408777 5567024 5686352 5763807 5800205 5795067 5746313 5652682 
2241.515 5518262 5355471 5184089 5027389 4903953 4821626 4777604 4761256 
2245.372 4762428 4775125 4798441 4833352 4875436 4912331 4925098 4896547 
2249.229 4821324 4712986 4602297 4526322 4516813 4585420 4720255 4890616 
2253.087 5062284 5208567 5318941 5399786 5464741 5525007 5582127 5627506 
2256.944 5649526 5642276 5609012 5561621 5513900 5475109 5445012 5417903 
2260.802 5388682 5360536 5346917 5366507 5431289 5538531 5665370 5777002 
2264.659 5835096 5818271 5728787 5594847 5456621 5353927 5310388 5327797 
2268.517 5388849 5468197 5544942 5607468 5656039 5696490 5732984 5763639 
2272.374 5779756 5770656 5730198 5660940 5575516 5492826 5435181 5421694 
2276.231 5464741 5568770 5729493 5934511 6163856 6394734 6603767 6772143 
2280.089 6890085 6957722 6984018 6980920 6959674 6925232 6877361 6812901 
2283.946 6731658 6639126 6547926 6472618 6425536 6410942 6423418 6450590 
2287.804 6478033 6496632 6504872 6509614 6521992 6553577 6611539 6697302 
2291.661 6807348 6935702 7074940 7216411 7352133 7472154 7567325 7631256 
2295.519 7661842 7663697 7646735 7624074 7607820 7605662 7620499 7650714 
2299.376 7692364 7740359 7789438 7833261 7864502 7875400 7861297 7823511 
2303.233 7772066 7725585 7704303 7724202 7790248 7893621 8013826 8126602 
2307.091 8214252 8270950 8304452 8330323 8364641 8414873 8476631 8536235 
2310.948 8578376 8593178 8581384 8553131 8524307 8508088 8509879 8527044 
2314.806 8551375 8574896 8593043 8606866 8619777 8636304 8657565 8680720 
2318.663 8699615 8708067 8699717 8670579 8618155 8542386 8446326 8337788 
2322.521 8231271 8144799 8096523 8099359 8154657 8252545 8373761 8497275 
2326.378 8603994 8682545 8730176 8749547 8744611 8717667 8667604 8593212 
2330.235 8496364 8384976 8270376 8164348 8072354 7991044 7909716 7815954 
2334.093 7703325 7575383 7445862 7332587 7251753 7210179 7204149 7222543 
2337.950 7253336 7289489 7330633 7381014 7444278 7518473 7595580 7663124 
2341.808 7710509 7734119 7738841 7735704 7738234 7758168 7801380 7869766 
2345.665 7961751 8072826 8196559 8323974 8443825 8542859 8609638 8635899 
2349.522 8618797 8563878 8484166 8399434 8328432 8285505 8273043 8283209 
2353.380 8300636 8310768 8304587 8280474 8240084 8186260 8122011 8052067 
2357.237 7986589 7943122 7941131 7995904 8108271 8261629 8424129 8560296 
2361.095 8646005 8673621 8653543 8606731 8554112 8506804 8465617 8426325 
2364.952 8386733 8352110 8334410 8344644 8385753 8447812 8511230 8553166 
2368.810 8560195 8533465 8488355 8446731 8428048 8440684 8479165 8527450 
2372.667 8567088 8584662 8575267 8543231 8498323 8452508 8415616 8394705 
2376.524 8393962 8415008 8457001 8515049 8580776 8641036 8682071 8692111 
2380.382 8664359 8599127 8502715 8385280 8256361 8123733 7991820 7862647 
2384.239 7738200 7622421 7520664 7439188 7382531 7351762 7343438 7350920 
2388.097 7366320 7382025 7393552 7397495 7391630 7374543 7344416 7300878 
2391.954 7246261 7186800 7131624 7090803 7072515 7079991 7110067 7154091 
2395.812 7201487 7241274 7266173 7273485 7264994 7245857 7222038 7200746 
2399.669 7187776 7187878 7204283 7237029 7283189 7335687 7385295 7421762 
2403.526 7437031 7427728 7396349 7351762 7305798 7272036 7261153 7278977 
2407.384 7324971 7393349 7473907 7554614 7624343 7674084 7698232 7694927 
2411.241 7666159 7616655 7552692 7481997 7411752 7348291 7295959 7256941 
2415.099 7231167 7216917 7212065 7215030 7225508 7244441 7272844 7310853 
2418.956 7356311 7404775 7450547 7488773 7517057 7536577 7550872 7563144 
2422.813 7573091 7574911 7557480 7508763 7420144 7292252 7136912 6977486 
2426.671 6841040 6752860 6729942 6775475 6880054 7024021 7184812 7338788 
2430.528 7466390 7554985 7596895 7591501 7544938 7470839 7387452 7316648 
2434.386 7277932 7282818 7332284 7415695 7515843 7611563 7687069 7734186 
2438.243 7753547 7751692 7737255 7717963 7697659 7677693 7658268 7639552 
2442.101 7623230 7611125 7604482 7603943 7609203 7619723 7634932 7653580 
2445.958 7672398 7684067 7678874 7646262 7579665 7480952 7363186 7247946 
2449.815 7158537 7114244 7122395 7176188 7257110 7344078 7419065 7473503 
2453.673 7509472 7535194 7559368 7584925 7608225 7620836 7615138 7588668 
2457.530 7547163 7502426 7469188 7458199 7473131 7509640 7557716 7604010 
2461.388 7636685 7648353 7635269 7598042 7540521 7469592 7393383 7321366 
2465.245 7262467 7223183 7206439 7210785 7232144 7265263 7306169 7353851 
2469.103 7408819 7471480 7540049 7608832 7669531 7713274 7733916 7730341 
2472.960 7707001 7672769 7636888 7606842 7586443 7574979 7568944 7564358 
2476.817 7557986 7548950 7538026 7528249 7524204 7530609 7551782 7590657 
2480.675 7647443 7718199 7795679 7871115 7935260 7982033 8009505 8020036 
2484.532 8018719 8011226 8002451 7995398 7991719 7993069 8001439 8018618 
2488.390 8045654 8080692 8118973 8153375 8177211 8185618 8177988 8156684 
2492.247 8125792 8088253 8044978 7995330 7938769 7877864 7819631 7773888 
2496.104 7751422 7759248 7797366 7858530 7930974 8000494 8056792 8094059 
2499.962 8112356 8115327 8107832 8094127 8077282 8060202 8045957 8037688 
2503.819 8037890 8046362 8059392 8070024 8069991 8053147 8017841 7968602 
2507.677 7914473 7867336 7837646 7832181 7852997 7897636 7959861 8031443 
2511.534 8103815 8167927 8215704 8241199 8241401 8217392 8174072 8118871 
2515.392 8059695 8002215 7949264 7900841 7856000 7814334 7778070 7751422 
2519.249 7739482 7745654 7770447 7810590 7860859 7915350 7969647 8022027 
2523.106 8072117 8120323 8165495 8204730 8233094 8244913 8234850 8199699 
2526.964 8138486 8053350 7949804 7836871 7725281 7628086 7557412 7522822 
2530.821 7528823 7574608 7654086 7757730 7874894 7996275 8113571 8219857 
2534.679 8308877 8373288 8406663 8404130 8365046 8293780 8200711 8100068 
2538.536 8006164 7932627 7888222 7877324 7899727 7951559 8025942 8113099 
2542.394 8201928 8281250 8341166 8376058 8386058 8377579 8359710 8342888 
2546.251 8334883 8337822 8349374 8364304 8377004 8383760 8383558 8377207 
2550.108 8366127 8351197 8333465 8314922 8299116 8291787 8298103 8320090 
2553.966 8354136 8391091 8418251 8423353 8399907 8349677 8282128 8210538 
2557.823 8148243 8103342 8078160 8069923 8074143 8088219 8111275 8144259 
2561.681 8186868 8235728 8284560 8325967 8354305 8368897 8373491 8375011 
2565.538 8378288 8384537 8389436 8385990 8367917 8334140 8290707 8249607 
2569.396 8223808 8223910 8253862 8310734 8385888 8469164 8552558 8630221 
2573.253 8699615 8759622 8808851 8845608 8868705 8878376 8877261 8869787 
2577.110 8860318 8851830 8844729 8837121 8826604 8812334 8796307 8782986 
2580.968 8778726 8788767 8816697 8863057 8925590 9000039 9080421 9159769 
2584.825 9229418 9280561 9305104 9297893 9259169 9195337 9118215 9041445 
2588.683 8977104 8932455 8908239 8899209 8897890 8897755 8896030 8894238 
2592.540 8897417 8911757 8942197 8990364 9055012 9131209 9212326 9289430 
2596.397 9353921 9396377 9410023 9391773 9344745 9277550 9203256 9136318 
2600.255 9088135 9064181 9063064 9078120 9100654 9123562 9144507 9165116 
2604.112 9189921 9222954 9265363 9315090 9367362 9416219 9457835 9489601 
2607.970 9510191 9518760 9513307 9491192 9451503 9396783 9334150 9274773 
2611.827 9232396 9217538 9234935 9281375 9346608 9416761 9478255 9522960 
2615.685 9549988 9564451 9575019 9590634 9616684 9653577 9696977 9740179 
2619.542 9776811 9801619 9813040 9812396 9802771 9787588 9770067 9751769 
2623.399 9733199 9713784 9692912 9670042 9645209 9619293 9593479 9569633 
2627.257 9549716 9536135 9531597 9538540 9559471 9595614 9646903 9710666 
2631.114 9781522 9853203 9918047 9970629 10008297 10032201 10046850 10059058 
2634.972 10075844 10100973 10135906 10178371 10223554 10266707 10303927 
2638.347 10333751 10357030 10375727 10391847 10406474 10418929 10427346 
2641.722 10429484 10423918 10410377 10391100 10369347 10349835 10337179 
2645.097 10334837 10344746 10366362 10397582 10434303 10472148 10507144 
2648.473 10536610 10559423 10575923 10587025 10593273 10594664 10590828 
2651.848 10581457 10567538 10552430 10540955 10539020 10551038 10578300 
2655.223 10618330 10664986 10709948 10745472 10766938 10773120 10766429 
2658.598 10751518 10733586 10716400 10702408 10693375 10690658 10696703 
2661.974 10714397 10746084 10792346 10850910 10916855 10983116 11043576 
2665.349 11093235 11130286 11155545 11171285 11179988 11183728 11184035 
2668.724 11181893 11179308 11178833 11182946 11193044 11208276 11225345 
2672.099 11239659 11246188 11242787 11230139 11212662 11196206 11186822 
2675.475 11188284 11201646 11224698 11253974 11285531 11315560 11341441 
2678.850 11360794 11371508 11372392 11363243 11346169 11324980 11304916 
2682.225 11291007 11286042 11289374 11297706 11305528 11308180 11303555 
2685.600 11292333 11278492 11266353 11259314 11258701 11263122 11269549 
2688.976 11274786 11276384 11272745 11263190 11246732 11222659 11190766 
2692.351 11152485 11111624 11073859 11045955 11033142 11037118 11054995 
2695.726 11080420 11105573 11123113 11129267 11123997 11109890 11089971 
2699.101 11066450 11039531 11007721 10969558 10925010 10876594 10828624 
2702.477 10786401 10754134 10734876 10729442 10737559 10758311 10790885 
2705.852 10834094 10886005 10943155 11000516 11052378 11093710 11121142 
2709.227 11134536 11135828 11128587 11116009 11100100 11081949 11061624 
2712.602 11039803 11018392 11000652 10991069 10993243 11009522 11039701 
2715.978 11080929 11128791 11177847 11223135 11261285 11291040 11313282 
2719.353 11331136 11348720 11369944 11397325 11430865 11467912 11503329 
2722.728 11531569 11548446 11552700 11546575 11535584 11526159 11522722 
2726.103 11527009 11536537 11546404 11550794 11545928 11531433 11510984 
2729.479 11490570 11477029 11475499 11488189 11513570 11547187 11583053 
2732.854 11614361 11635326 11641452 11630187 11601497 11557871 11504384 
2736.229 11447024 11392869 11347632 11314608 11294101 11283865 11279920 
2739.604 11278458 11277064 11276009 11277574 11285021 11301855 11329844 
2742.979 11368447 11414809 11464408 11512243 11553346 11583801 11601497 
2746.355 11606024 11599047 11583563 11564098 11544941 11529868 11521123 
2749.730 11518810 11521089 11524934 11528167 11529392 11530480 11534971 
2753.105 11548208 11574511 11615825 11670450 11732503 11793475 11843867 
2756.480 11876079 11885989 11874478 11845977 11808830 11771278 11740366 
2759.856 11720928 11714801 11721031 11737371 11760894 11789083 11819589 
2763.231 11850200 11879075 11903935 11923006 11934823 11939080 11936731 
2766.606 11930669 11924708 11923040 11929613 11946880 11975150 12012651 
2769.981 12055471 12098806 12137716 12168962 12191452 12206378 12217114 
2773.357 12228291 12243935 12266872 12297821 12335692 12378304 12423001 
2776.732 12467772 12510909 12551834 12589897 12624860 12656584 12685549 
2780.107 12713047 12741025 12771904 12808179 12850839 12899441 12952521 
2783.482 13007520 13062490 13116649 13170576 13225601 13283265 13343806 
2786.858 13406167 13467819 13525549 13576962 13621065 13659120 13694407 
2790.233 13730998 13773680 13826490 13891590 13969906 14059838 14157935 
2793.608 14259445 14358444 14449827 14529580 14596086 14650642 14696877 
2796.983 14739413 14783496 14833379 14891290 14958092 15033582 15117182 
2800.359 15208519 15307769 15415075 15529860 15651338 15776802 15903333 
2803.734 16027426 16145915 16256491 16358353 16452670 16542396 16632413 
2807.109 16728720 16836618 16959978 17099538 17252346 17412556 17572340 
2810.484 17725314 17867400 17999066 18124382 18250252 18383312 18528586 
2813.860 18687674 18859176 19039676 19225930 19415906 19610296 19811776 
2817.235 20024144 20251506 20496702 20761048 21043710 21342774 21655106 
2820.610 21977558 22307612 22644060 22987440 23339834 23704516 24084808 
2823.985 24482788 24898990 25332594 25782242 26247490 26730468 27235928 
2827.361 27771290 28343850 28959134 29618742 30319680 31054562 31813898 
2830.736 32588494 33371810 34161772 34961688 35780024 36629176 37524352 
2834.111 38482232 39517812 40644020 41870056 43200532 44637496 46182000 
2837.486 47837948 49614096 51525460 53593568 55844348 58303708 60995924 
2840.862 63941240 67154416 70645984 74422504 78487488 82838248 87465752 
2844.237 92351664 97464496 102764360 108201072 113715824 119250680 124741392 
2847.612 130121168 135321760 140265136 144868608 149048832 152719232 
2850.505 155802768 158232752 159956128 160938704 161165216 160642720 
2853.398 159398736 157484704 154970688 151935632 148468080 144653264 
2856.291 140568944 136289280 131878840 127397032 122901008 118439920 
2859.184 114058272 109794568 105677592 101731384 97975000 94422360 91085760 
2862.560 87973520 85090432 82438296 80015504 77819616 75848064 74099896 
2865.935 72574544 71270184 70181192 69293952 68585728 68025904 67574360 
2869.310 67189072 66828936 66455120 66038192 65556072 64995200 64350592 
2872.685 63624136 62824384 61964292 61062888 60142876 59228904 58348840 
2876.061 57528772 56791128 56153592 55626460 55211848 54906400 54702956 
2879.436 54593872 54573356 54638360 54788500 55023572 55342056 55739572 
2882.811 56209740 56745096 57339336 57989296 58694500 59456628 60276964 
2886.186 61154884 62086868 63066676 64087296 65143040 66230380 67347912 
2889.562 68495408 69672280 70876616 72104872 73353280 74619104 75901376 
2892.937 77201288 78520752 79861712 81224888 82609632 84014472 85438608 
2896.312 86881664 88344896 89829648 91336952 92868472 94425864 96012552 
2899.687 97634424 99299488 101015360 102788248 104620848 106511040 108454112 
2903.063 110445488 112482432 114567232 116705752 118906128 121176656 
2905.956 123523128 125949664 128459256 131056192 133747504 136541808 
2908.849 139447920 142472784 145619584 148886816 152269968 155764112 
2911.742 159363712 163063072 166854496 170725248 174655856 178622256 
2914.635 182593280 186537376 190422048 194212096 197871216 201355632 
2917.528 204614704 207595312 210242752 212508368 214356208 215762000 
2920.421 216714640 217212384 217261200 216871280 216057360 214838832 
2923.314 213236496 211273680 208974576 206362672 203465168 200313360 
2926.207 196943792 193399376 189723216 185954224 182124656 178255376 
2929.100 174360064 170448800 166531408 162620704 158730992 154874496 
2931.993 151058656 147284480 143548336 139846624 136180288 132558064 
2934.886 128996848 125516056 122134856 118867432 115719896 112691848 
2937.779 109779256 106977320 104282144 101691968 99205880 96823376 94543784 
2941.155 92366992 90294832 88331168 86482272 84755864 83157616 81691056 
2944.530 80355880 79148592 78063880 77096848 76243520 75501808 74870512 
2947.905 74348216 73931936 73616912 73395416 73256552 73187680 73171680 
2951.280 73187560 73212624 73220472 73186192 73088560 72912080 72650088 
2954.656 72303832 71881128 71392368 70847632 70253288 69610008 68912224 
2958.031 68150128 67312744 66390024 65377428 64276816 63097216 61853100 
2961.406 60561724 59240300 57902700 56558984 55215088 53874584 52539508 
2964.781 51212332 49895592 48592284 47305436 46038668 44795936 43582836 
2968.156 42406172 41273788 40192576 39167280 38198556 37283724 36416392 
2971.532 35589952 34797568 34034576 33297822 32586064 31898222 31233474 
2974.907 30590536 29969032 29369264 28792910 28242494 27720396 27228166 
2978.282 26765990 26332678 25926424 25545042 25186678 24849062 24530082 
2981.657 24227134 23937944 23661722 23399868 23156664 22937662 22748480 
2985.033 22591700 22465368 22362482 22273326 22187778 22099006 22006034 
2988.408 21913502 21830258 21765802 21727624 21719682 21741940 21792908 
2991.783 21871058 21977246 22114452 22285952 22494506 22739576 23016786 
2995.158 23319590 23639572 23970858 24309858 24656698 25013538 25383422 
2998.534 25768704 26168794 26581192 27000330 27419272 27829540 28222516 
3001.909 28588952 28920176 29208448 29447196 29632684 29763814 29842774 
3005.284 29874150 29864316 29820416 29748308 29650882 29528404 29376674 
3008.659 29188530 28955132 28668690 28324008 27920586 27463532 26962462 
3012.035 26429468 25877046 25316474 24755044 24197528 23646116 23101762 
3015.410 22565386 22038836 21524762 21026460 20547106 20088996 19653628 
3018.785 19241550 18852186 18484534 18137474 17809574 17499788 17207322 
3022.160 16931694 16672662 16430061 16203107 15990332 15789859 15599164 
3025.536 15416071 15239987 15072105 14915808 14776160 14658079 14564973 
3028.911 14496793 14449553 14415642 14384165 14344266 14286906 14206616 
3032.286 14102996 13980136 13845954 13709693 13581474 13469426 13378795 
3035.661 13311313 13264475 13232673 13207634 13180720 13144994 13096331 
3039.037 13035584 12967166 12898758 12838074 12791219 12760678 12744846 
3042.412 12738637 12735805 12731164 12721610 12707281 12690734 12675553 
3045.787 12664533 12658802 12657335 12657642 12655903 12648329 12631887 
3049.162 12604462 12565237 12514558 12455223 12391498 12329999 12278563 
3052.538 12244208 12232654 12245570 12280404 12329488 12382328 12427741 
3055.913 12455496 12459144 12437015 12392794 12333544 12269530 12211626 
3059.288 12169541 12150528 12158126 12191248 12244309 12308762 12374998 
3062.663 12433640 12478274 12506032 12517627 12515820 12503576 12482946 
3066.039 12453825 12414785 12364668 12304025 12236914 12170052 12111719 
3069.414 12069507 12047397 12044569 12054994 12069507 12077785 12071074 
3072.789 12044604 11998448 11937208 11868076 11800114 11741524 11698667 
3076.164 11675351 11672458 11687741 11716300 11751362 11785576 11812201 
3079.540 11827216 11829668 11822348 11810056 11798037 11789151 11783125 
3082.915 11775397 11759465 11728622 11679708 11614770 11541232 11471144 
3086.290 11416374 11387120 11387358 11414639 11460427 11513536 11562431 
3089.665 11598196 11616403 11616778 11602553 11578561 11549433 11519558 
3093.041 11491591 11467061 11446548 11430355 11418721 11411781 11410081 
3096.416 11414503 11425423 11442738 11465122 11489686 11512141 11527554 
3099.791 11532045 11523233 11501390 11469374 11432259 11395284 11363447 
3103.166 11340353 11328313 11328824 11342836 11370012 11409570 11458114 
3106.542 11510202 11557974 11593568 11609903 11603232 11573456 11524968 
3109.917 11465224 11402189 11343924 11297026 11265400 11251322 11254587 
3113.292 11273188 11302433 11336408 11367426 11388549 11394876 11385283 
3116.667 11362699 11333449 11305357 11285803 11278866 11285702 11304270 
3120.042 11330762 11360352 11388855 11412666 11428858 11434709 11428517 
3123.418 11409945 11380794 11345251 11309133 11278900 11259823 11254927 
3126.793 11264108 11284749 11313622 11346986 11381984 11416271 11447262 
3130.168 11471144 11483493 11479445 11456107 11413856 11358685 11300256 
3133.543 11250473 11221197 11219462 11246460 11296618 11359978 11423483 
3136.919 11475124 11506595 11514557 11500845 11471313 11433825 11395930 
3140.294 11362427 11335252 11313791 11295597 11277914 11259586 11241053 
3143.669 11224426 11212186 11206372 11207222 11213546 11222420 11231295 
3147.044 11237721 11240612 11239999 11236872 11232179 11226807 11221706 
3150.420 11217592 11215144 11215348 11218408 11223746 11229833 11234831 
3153.795 11237109 11236021 11232383 11228031 11225345 11225650 11229153 
3157.170 11234491 11240135 11245202 11250269 11257817 11270773 11291414 
3160.545 11319437 11351645 11382562 11405692 11415183 11408448 11386202 
3163.921 11352563 11314166 11278900 11254009 11244760 11253941 11280838 
3167.296 11321138 11367630 11412020 11446173 11464578 11465735 11452330 
3170.671 11430048 11405591 11384093 11368005 11355998 11345522 11334130 
3174.046 11321546 11310799 11306446 11313418 11334707 11369365 11412224 
3177.422 11455596 11491625 11513570 11518061 11506119 11481758 11451378 
3180.797 11422224 11401746 11395046 11404740 11429640 11464714 11501797 
3184.172 11531977 11548820 11549943 11538510 11522110 11510303 11510303 
3187.547 11524764 11550182 11578289 11598979 11603675 11588429 11553822 
3190.923 11504485 11446581 11386168 11327599 11274683 11231295 11201680 
3194.298 11190495 11201544 11235069 11287164 11349808 11412734 11465972 
3197.673 11503158 11522722 11528404 11525614 11520443 11516870 11516326 
3201.048 11518537 11522280 11526772 11531672 11536503 11539837 11539225 
3204.424 11531807 11516088 11493224 11467843 11446956 11438008 11445595 
3207.799 11469578 11504485 11541777 11572061 11589280 11592786 11586932 
3211.174 11578425 11573388 11573831 11576621 11574205 11557089 11519047 
3214.549 11458896 11382630 11300971 11227792 11174311 11146808 11144632 
3217.925 11161562 11187638 11212560 11229357 11235885 11234899 11232145 
3221.300 11234083 11244589 11263904 11287980 11310425 11324403 11324811 
3224.675 11310493 11284444 11252955 11223848 11204162 11198382 11207256 
3228.050 11227588 11253941 11279751 11299441 11309642 11310017 11303249 
3231.426 11293353 11285327 11283593 11290531 11306650 11330014 11357087 
3234.801 11382801 11402257 11411849 11409978 11397359 11378107 11357597 
3238.176 11341849 11335557 11340830 11356951 11380011 11405318 11428484 
3241.551 11446752 11459883 11469273 11476689 11482575 11485364 11481894 
3244.927 11468388 11442942 11406100 11361645 11315458 11273629 11240509 
3248.302 11218408 11207834 11208514 11221061 11247446 11289782 11349026 
3251.677 11422871 11504043 11581692 11643902 11680354 11685698 11660852 
3255.052 11612523 11550215 11483085 11418449 11360385 11310867 11271147 
3258.427 11243094 11229322 11231941 11251085 11284104 11325151 11367698 
3261.803 11404740 11432634 11450834 11461618 11468627 11475090 11482915 
3265.178 11492305 11502069 11511154 11518572 11523335 11524764 11521498 
3268.553 11512923 11499144 11482711 11469170 11465462 11478595 11512991 
3271.928 11568386 11638661 11713338 11780776 11830077 11854967 11853979 
3275.304 11830519 11790207 11739822 11685085 11630969 11580773 11537421 
3278.679 11502648 11477607 11461822 11453521 11450255 11449099 11448997 
3282.054 11449949 11453317 11460767 11473355 11490502 11510439 11530888 
3285.429 11550624 11569271 11588089 11608032 11628825 11648463 11663540 
3288.805 11670211 11667284 11656393 11643323 11634713 11637912 11657142 
3292.180 11691995 11738017 11788675 11836750 11876964 11906625 11925356 
3295.555 11933699 11932167 11920282 11898145 11865795 11825276 11780402 
3298.930 11735635 11696012 11664289 11641315 11625524 11614225 11604356 
3302.306 11593908 11582849 11572402 11565460 11564473 11572096 11589552 
3305.681 11616811 11652002 11691281 11730188 11762766 11783943 11790581 
3309.056 11782002 11760894 11732094 11701493 11674636 11655440 11646114 
3312.431 11646966 11657005 11674841 11698667 11725592 11751737 11771754 
3315.807 11779754 11771413 11744758 11702343 11650029 11596869 11552461 
3319.182 11523199 11512209 11518061 11536162 11560935 11587681 11613715 
3322.557 11637810 11659932 11679572 11695535 11705849 11709048 11705679 
3325.932 11697850 11689817 11685937 11689068 11699348 11713984 11728180 
3329.308 11737303 11738698 11733013 11723992 11716980 11717899 11730699 
3332.683 11756502 11793407 11837329 11883026 11924675 11957711 11978453 
3336.058 11985027 11977158 11956621 11927024 11892833 11859530 11831642 
3339.433 11812030 11801749 11799297 11802395 11807945 11814006 11820407 
3342.809 11828068 11839031 11855239 11876624 11902096 11928285 11951512 
3346.184 11968848 11978351 11981076 11979748 11978896 11982336 11993713 
3349.559 12014150 12042492 12075026 12106710 12131446 12143747 12139318 
3352.934 12116591 12076695 12024301 11966974 11913879 11873662 11852821 
3356.310 11854354 11875841 11911256 11952738 11992861 12027231 12055879 
3359.685 12082964 12114922 12156866 12211218 12274814 12341044 12400568 
3363.060 12445574 12471830 12480218 12475682 12464498 12452325 12441278 
3366.435 12429855 12414102 12390953 12360509 12326215 12294889 12274098 
3369.811 12267963 12276040 12291277 12304127 12304979 12288072 12254875 
3373.186 12213604 12177344 12158569 12165929 12200313 12254329 12314387 
3376.561 12364464 12391942 12388942 12356009 12299832 12231563 12162692 
3379.936 12103030 12059594 12035133 12030228 12043753 12074004 12118056 
3383.312 12171620 12228871 12281630 12321443 12340976 12337022 12311216 
3386.687 12271644 12230984 12202596 12199461 12229655 12294617 12388669 
3390.062 12500200 12614729 12715810 12790161 12828348 12827085 12789069 
3393.437 12722736 12639733 12552550 12472647 12408682 12364532 12340294 
3396.813 12331874 12333135 12336782 12337566 12332283 12321068 12306752 
3400.188 12293731 12286641 12288754 12301025 12321068 12344589 12365554 
3403.563 12378134 12378407 12365895 12343362 12316670 12293152 12279211 
3406.938 12279006 12292947 12318239 12349157 12379839 12405954 12425729 
3410.313 12440254 12453075 12468624 12490345 12519844 12556813 12598492 
3413.689 12641165 12680328 12712160 12733484 12742969 12741912 12733586 
3417.064 12723897 12719836 12728366 12753582 12795860 12849201 12904629 
3420.439 12949380 12972150 12966654 12932586 12876094 12807975 12740172 
3423.814 12681932 12638129 12608487 12588499 12572058 12553743 12530655 
3427.190 12502860 12472409 12442403 12415671 12393715 12377078 12366100 
3430.565 12361566 12364907 12377827 12400704 12432856 12471044 12511523 
3433.940 12549753 12582905 12609852 12631205 12647988 12660269 12667160 
3437.315 12666716 12657813 12641678 12623188 12609749 12609817 12628715 
3440.691 12668013 12723112 12786441 12850224 12911080 12971604 13040330 
3444.066 13125938 13233287 13358055 13486002 13593440 13655460 13655324 
3447.441 13589646 13471647 13326108 13182906 13066588 12991780 12962148 
3450.816 12972184 13010217 13062490 13117981 13167877 13207668 13236190 
3454.192 13254979 13267721 13279609 13296657 13323716 13363794 13416043 
3457.567 13476808 13540452 13600996 13654742 13700050 13736812 13765130 
3460.942 13783872 13790645 13782641 13758973 13722586 13680217 13641066 
3464.317 13612722 13598808 13597440 13601440 13601166 13588005 13558092 
3467.693 13513107 13459275 13405381 13359865 13329285 13318215 13330242 
3471.068 13367314 13429884 13515602 13617372 13722722 13816024 13882660 
3474.443 13912116 13903358 13865316 13815545 13772825 13754185 13768311 
3477.818 13815340 13886629 13968947 14048715 14113436 14154580 14167794 
3481.194 14151671 14108165 14041631 13959641 13871782 13788592 13720090 
3484.569 13672934 13649101 13644964 13652862 13661548 13659872 13640006 
3487.944 13599081 13540282 13471852 13405176 13350572 13316883 13308205 
3491.319 13324467 13361608 13412830 13471920 13532317 13590056 13642400 
3494.695 13686851 13720910 13740813 13743550 13727647 13695262 13654196 
3498.070 13615320 13593509 13602090 13651495 13744815 13877324 14035402 
3501.445 14196825 14335807 14426089 14447327 14392557 14270025 14103133 
3504.820 13923989 13768926 13667599 13637647 13681585 13785514 13922038 
3508.196 14054396 14149548 14182515 14146057 14049844 13917523 13776587 
3511.571 13648656 13547631 13475749 13427833 13394207 13366255 13338817 
3514.946 13311587 13288048 13274143 13275305 13294505 13331779 13384741 
3518.321 13450423 13526780 13614774 13718140 13841678 13988041 14154580 
3521.697 14330328 14497856 14635666 14725771 14760563 14745754 14699927 
3525.072 14645776 14604756 14587862 14593551 14607840 14612397 14589301 
3528.447 14528004 14427493 14294542 14139245 13970384 13795911 13624279 
3531.822 13466725 13339535 13260684 13246166 13303661 13427047 13594637 
3535.198 13771080 13919130 14005835 14014425 13947049 13822591 13667873 
3538.573 13509450 13371278 13270420 13220956 13234858 13321564 13487950 
3541.948 13733563 14049707 14415163 14798854 15164735 15473408 15692594 
3545.323 15801163 15791750 15672602 15465442 15204779 14929422 14680596 
3548.698 14494909 14395811 14393276 14478979 14627442 14795563 14935526 
3552.074 15004667 14977778 14854876 14658594 14425130 14190046 13983695 
3555.449 13825772 13725082 13683158 13695844 13756135 13854438 13979931 
3558.824 14120008 14260986 14391666 14505255 14602529 14693586 14797929 
3562.199 14941905 15152726 15456961 15871406 16399024 17019070 17683692 
3565.575 18311592 18791114 19015304 18913716 18492832 17833910 17060768 
3568.950 16289994 15599714 15032519 14598348 14288687 14086157 13970932 
3572.325 13923099 13923612 13956869 14009017 14068565 14127881 14181967 
3575.700 14229075 14268930 14301494 14326390 14340978 14342896 14330362 
3579.076 14304712 14270539 14234793 14205555 14190354 14195490 14228151 
3582.451 14298036 14418690 14609245 14889713 15276879 15774295 16364684 
3585.826 16995812 17576240 17996130 18153574 18006110 17591732 17014696 
3589.201 16396856 15838346 15407934 15134783 15021474 15050630 15192082 
3592.577 15404467 15639350 15851231 15999613 16060466 16030142 15924403 
3595.952 15772576 15608437 15465682 15368490 15331144 15354897 15428671 
3599.327 15528314 15620665 15672497 15656078 15559874 15393550 15187381 
3602.702 14983712 14828270 14764025 14819699 15008269 15322734 15737154 
3606.078 16204346 16660819 17040816 17284858 17362686 17284170 17100124 
3609.453 16880536 16693493 16589623 16589278 16686263 16848054 17027994 
3612.828 17171954 17240382 17223594 17145448 17051806 16991506 17005184 
3616.203 17112256 17308618 17562336 17820240 18011188 18066450 17946022 
3619.579 17650806 17222940 16724931 16221475 15761444 15375355 15083013 
3622.954 14894273 14816133 14853231 15008475 15282405 15674835 16186772 
3626.329 16815058 17543946 18329218 19064846 19589358 19743980 19475746 
3629.704 18886480 18162002 17467052 16887116 16448747 16137490 15917460 
3633.080 15744403 15579175 15400141 15207764 15021680 14868934 14771258 
3636.455 14734477 14747708 14786616 14825870 14846647 14846064 14835333 
3639.830 14834476 14860259 14919306 15005593 15106650 15212362 15325273 
3643.205 15464172 15661815 15957436 16384916 16966422 17703468 18576098 
3646.581 19532270 20497188 21381096 22088444 22531880 22638126 22359832 
3649.956 21703170 20745166 19627522 18507320 17518624 16741943 16203830 
3653.331 15900275 15801679 15861198 16011268 16173633 16269011 16243212 
3656.706 16090794 15848689 15572547 15307014 15079514 14898046 14758952 
3660.082 14654446 14576452 14519919 14482131 14461920 14457843 14468017 
3663.457 14491037 14528655 14587931 14681727 14831013 15060098 15394374 
3666.832 15854394 16449161 17164682 17946160 18695354 19272724 19548770 
3670.207 19479214 19143268 18704694 18324034 18124866 18173716 18494390 
3673.583 19067234 19813546 20564962 21071466 21133484 20735990 20054540 
3676.958 19298496 18607708 18025556 17533974 17092990 16666602 16239120 
3680.333 15820853 15439142 15126514 14908504 14794329 14778662 14843939 
3683.708 14969409 15137596 15342196 15589478 15896494 16283287 16764188 
3687.083 17334272 17960214 18574196 19084094 19407416 19494670 19342940 
3690.459 18986020 18479834 17888426 17275342 16700484 16208438 15825734 
3693.834 15561007 15403540 15329015 15304302 15298399 15287897 15265726 
3697.209 15241325 15236658 15275987 15376660 15543115 15762441 16004015 
3700.584 16220203 16362138 16391763 16299454 16106335 15856180 15597378 
3703.960 15368868 15199082 15104557 15094162 15174583 15352082 15633237 
3707.335 16022716 16520746 17115428 17776296 18453800 19074228 19551334 
3710.710 19808552 19799812 19531924 19062422 18480144 17870162 17296412 
3714.085 16797424 16388804 16075768 15858483 15733065 15692526 15724991 
3717.461 15815631 15947122 16106885 16289616 16497444 16734986 17002290 
3720.836 17288654 17572962 17827144 18028562 18170260 18261654 18321684 
3724.211 18364544 18388946 18373738 18286570 18099440 17811092 17455566 
3727.586 17095746 16797664 16618816 16595062 16739050 17045052 17492580 
3730.962 18051254 18681068 19345434 20017480 20680872 21322486 21913954 
3734.337 22395972 22684238 22692094 22384842 21812452 21092856 20353164 
3737.712 19682924 19128482 18697706 18381306 18165874 18041098 18003832 
3741.087 18058232 18214522 18484260 18870734 19355516 19868552 20290632 
3744.463 20502782 20469402 20263448 20005648 19799222 19700916 19739820 
3747.838 19923010 20240224 20654568 21099432 21486256 21715606 21712332 
3751.213 21447858 20947140 20282022 19548770 18842290 18229620 17752962 
3754.588 17429696 17258726 17229696 17322512 17508896 17748268 17993712 
3757.964 18193928 18297076 18264038 18074292 17738294 17298962 16825286 
3761.339 16391488 16055206 15854977 15803156 15889173 16079102 16321644 
3764.714 16555613 16727755 16817054 16839788 16840234 16863864 16943028 
3768.089 17080412 17248658 17390862 17443666 17363480 17145654 16825802 
3771.465 16459933 16102655 15788725 15536075 15348271 15220357 15147340 
3774.840 15128092 15167069 15273585 15455999 15716402 16041661 16400469 
3778.215 16739670 16992986 17106328 17059182 16880122 16632620 16393689 
3781.590 16224535 16157435 16195266 16312802 16464647 16592927 16650248 
3784.966 16610760 16479272 16284009 16065005 15859136 15690122 15568700 
3788.341 15493667 15455863 15442541 15441030 15441167 15437803 15432309 
3791.716 15434748 15463004 15539578 15688369 15926877 16260618 16673179 
3795.091 17125112 17556814 17902202 18119546 18211654 18227688 18237948 
3798.467 18315152 18512576 18851044 19305112 19788368 20165558 20290596 
3801.842 20101630 19659868 19107604 18579246 18163904 17903206 17798526 
3805.217 17823450 17921644 18017716 18026592 17894850 17625340 17268722 
3808.592 16889252 16537784 16244313 16019072 15862813 15774295 15755190 
3811.968 15812812 15958466 16204862 16559022 17014764 17543014 18078574 
3815.343 18533288 18828654 18943828 18930466 18886792 18910014 19062664 
3818.718 19372284 19821174 20344172 20809468 21053032 20956772 20525916 
3822.093 19889814 19215540 18632506 18198868 17926684 17794452 17762420 
3825.469 17775708 17777986 17727836 17611122 17447668 17279206 17154408 
3828.844 17107878 17155030 17287756 17479574 17690768 17882866 18035054 
3832.219 18150464 18254570 18379786 18554346 18790700 19085202 19420790 
3835.594 19776612 20132446 20470964 20776968 21029626 21199966 21257204 
3838.969 21178710 20965396 20642962 20257512 19858424 19486282 19165362 
3842.345 18896308 18659794 18425140 18165736 17869748 17548086 17227628 
3845.720 16944614 16731163 16607456 16583737 16659752 16830970 17092920 
3849.095 17447668 17903722 18475028 19177204 20011616 20946444 21893290 
3852.470 22678164 23088868 23000506 22485294 21755248 21009526 20348408 
3855.846 19782058 19284536 18828344 18402948 18019892 17706230 17490406 
3859.221 17396760 17433664 17593456 17853486 18184428 18554694 18933616 
3862.596 19293092 19598890 19808066 19877362 19779524 19529604 19189082 
3865.971 18854122 18617598 18547882 18680964 19012120 19487288 19993784 
3869.347 20389420 20550822 20452972 20174894 19844654 19561386 19364558 
3872.722 19239300 19132360 18976604 18721542 18362780 17945160 17541840 
3876.097 17219526 17029510 17000430 17140656 17441666 17873510 18381342 
3879.472 18879732 19274526 19492208 19512204 19373912 19157432 18947980 
3882.848 18804954 18758522 18800490 18887138 18941784 18884750 18673630 
3886.223 18331430 17934694 17575204 17327822 17231902 17301444 17525592 
3889.598 17871646 18277654 18660142 18934170 19035314 18947358 18701304 
3892.973 18358494 17984354 17636726 17360618 17184020 17124146 17187398 
3896.349 17369964 17657258 18024348 18438968 18860040 19248582 19575146 
3899.724 19828110 20016544 20165524 20305492 20455892 20617424 20765220 
3903.099 20855772 20834322 20660094 20324518 19855060 19303900 18728840 
3906.474 18180592 17689870 17274516 16939444 16681511 16492901 16363136 
3909.850 16280776 16233753 16212016 16208954 16223023 16258623 16325394 
3913.225 16435636 16599124 16819328 17088750 17389412 17690526 17957142 
3916.600 18160620 18284636 18329702 18308032 18236532 18129562 17999514 
3919.975 17860150 17728870 17629204 17586280 17617954 17728596 17901030 
3923.351 18097124 18260134 18334300 18285396 18115052 17860564 17582002 
3926.726 17342996 17189776 17148550 17222214 17394794 17635932 17909110 
3930.101 18179244 18411656 18578036 18656234 18631850 18503242 18283806 
3933.476 18002002 17692978 17394726 17138210 16941272 16809306 16735503 
3936.852 16705304 16702652 16717458 16749140 16807618 16908198 17065524 
3940.227 17284032 17553502 17843820 18109422 18302676 18385662 18348124 
3943.602 18210962 18021964 17835362 17700534 17650356 17694392 17820654 
3946.977 17997478 18184668 18338378 18424552 18426074 18342904 18189092 
3950.353 17986738 17760660 17533148 17322994 17144966 17008112 16916432 
3953.728 16868790 16858940 16876574 16910264 16950092 16988920 17024308 
3957.103 17057838 17093678 17135900 17186950 17246142 17309788 17371412 
3960.478 17422488 17454876 17461224 17437354 17383034 17303306 17206772 
3963.854 17104606 17008700 16928764 16871408 16839856 16833278 16848088 
3967.229 16879674 16923082 16973346 17026064 17077102 17122216 17157788 
3970.604 17181470 17192946 17194222 17189638 17184124 17182296 17186466 
3973.979 17196154 17208356 17217768 17219320 17209734 17188638 17159028 
3977.354 17126800 17099470 17083168 17081548 17093886 17115290 17137452 
3980.730 17151032 17149274 17129386 17094404 17051186 17009734 16978032 
3984.105 16961460 16960874 16973658 16995572 17022688 17052772 17085134 
3987.480 17118942 17152996 17183882 17207184 17219974 17222180 17217870 
3990.855 17215046 17222974 17247590 17289582 17342996 17396760 17437216 
3994.231 17452360 17435698 17387172 17312754 17222352 17127388 17037748 
3997.606 16961702 16905478 16872510 16864898 16881640 16918774 16968834 
##END=
