##TITLE=mas_0 Sep 19 10:04:49 2026 (GMT+02:00)
##JCAMP-DX=5.01  $$ Nicolet v. 970
##DATATYPE=INFRARED SPECTRUM
##ORIGIN=Vojna akademija
##OWNER=Nicolet
##LONGDATE=2026/09/19
##TIME=10:05:12
##SPECTROMETER/DATA SYSTEM=Nicolet iS20
##DATA PROCESSING=
Ratio against background
%Transmittance->Absorbance
Truncated
ElementMultiply or ElementDivide
##COMMENTS=
Number of sample scans: 8
Collection length: 11,90 sec
Sample gain: 8,0
Background collected on: Sat Sep 19 10:04:02 2026 (GMT+02:00);
Number of background scans: 8
Background gain: 8,0
Sample spacing:  1,000
Number of scan points: 12415
Resolution points: 8286
Number of FFT points: 65536
Apodization: N-B strong;
Phase correction: Mertz;
Laser frequency: 15798,00 cm-1
Number of rejected sample scans: 0
Number of rejected background scans: 0
Bench serial number: BER2010005;
##RESOLUTION= 4,000
##XUNITS=1/CM
##YUNITS=ABSORBANCE
##FIRSTX=400.156891
##LASTX=4000.123047
##FIRSTY=0.013636
##MAXX=4000.123047
##MINX=400.156891
##MAXY=0.193029
##MINY=-0.001445
##XFACTOR=1.000000
##YFACTOR=1.000000E-009
##NPOINTS=7468
##DELTAX=0.482117
##ZPD=6100
##XYDATA=(X++(Y..Y))
400.157 13636040 14944717 16595578 18297076 19866506 21213326 22296904 
403.532 23072514 23490552 23527592 23242506 22809064 22497018 22596134 
406.907 23270192 24486644 25987840 27385252 28242282 28247128 27331296 
410.281 25688092 23697586 21767370 20241196 19283496 18883296 18881462 
413.656 19057610 19187768 19106876 18736692 18059024 17107500 15948670 
417.031 14711580 13592688 12838927 12674017 13139769 14021166 14950101 
420.406 15644057 15997861 16072845 16020723 16028354 16265089 16839926 
423.781 17781510 19015062 20387890 21705120 22797958 23547390 23897822 
427.155 23863832 23522380 22999144 22428768 21930648 21563378 21315804 
430.530 21122666 20907190 20627778 20308028 20026328 19880588 19936470 
433.905 20186210 20541790 20861578 21010742 20909416 20580980 20135120 
437.280 19728240 19486350 19471798 19684760 20086986 20626978 21254140 
440.655 21917544 22536522 22990584 23140482 22860190 22113512 20993110 
444.030 19717836 18549748 17714134 17326168 17354996 17643524 17971680 
447.404 18162522 18139444 17965188 17794452 17815856 18163248 18874678 
450.779 19878924 21021488 22100680 22918588 23347142 23342176 22948280 
454.154 22266384 21439956 20624512 19968076 19612062 19649536 20094654 
457.529 20850800 21732116 22519318 23036352 23202800 23007282 22467638 
460.904 21597502 20405080 18917004 17205046 15410680 13709693 12266668 
464.278 11189270 10495127 10124341 9974324 9956219 10022742 10187902 
467.653 10498319 10988791 11640873 12374520 13065018 13600859 13928094 
471.028 14076676 14146400 14261876 14500528 14845585 15194107 15420430 
474.403 15452429 15298227 15036738 14766527 14558394 14414785 14271908 
477.778 14031022 13622159 13042721 12368691 11714393 11190359 10846187 
481.152 10654594 10524694 10352279 10074691 9701111 9309910 9016005 8923594 
485.009 9079135 9468028 10031049 10702205 11425864 12163918 12880703 
488.384 13520661 14009428 14270848 14254412 13967852 13482960 12919170 
491.759 12391089 11974877 11673990 11427191 11141131 10746627 10236411 
495.134 9677631 9188094 8896537 8897011 9202105 9736080 10353195 10896605 
498.991 11228506 11272201 11027941 10573410 10045799 9604760 9397901 9497119 
502.848 9881268 10437561 11012308 11446207 11621065 11490060 11077871 
506.223 10470824 9783352 9135980 8613220 8250789 8043021 7962121 7979570 
510.079 8079847 8258219 8510116 8816359 9139567 9425362 9621088 9692573 
513.936 9633792 9469179 9247154 9032886 8887102 8857173 8962965 9191580 
517.793 9495493 9802974 10037152 10125595 10026166 9738959 9310012 8820585 
521.650 8367817 8046902 7921289 8017606 8319009 8777745 9323959 9885335 
525.507 10406610 10852269 11212390 11494074 11712112 11879007 12000014 
528.882 12072504 12089369 12042730 11928625 11751158 11523710 11267712 
532.257 11005783 10759432 10541838 10355265 10192686 10041154 9887098 
535.632 9722695 9548802 9376435 9223190 9107388 9044017 9038942 9086681 
539.489 9170665 9265872 9343155 9372812 9333506 9217369 9038266 8831067 
543.346 8652732 8572090 8649724 8927146 9405891 10042103 10743503 11394230 
547.203 11882788 12122690 12082521 11788096 11320594 10788881 10314648 
550.577 9996464 9883844 9973646 10215311 10536338 10859607 11133686 11341067 
554.434 11499280 11646250 11824867 12062931 12362588 12699127 13027288 
557.809 13297374 13459616 13478004 13335401 13036643 12613057 12125620 
561.184 11667591 11341408 11243638 11431647 11897976 12562441 13286510 
564.559 13917590 14316425 14410847 14208841 13792868 13279165 12778524 
567.934 12366134 12063749 11858610 11731890 11686889 11760417 12009756 
571.308 12482400 13190761 14093824 15106410 16116444 17027962 17779576 
574.683 18353794 18769836 19064326 19273554 19420096 19517854 19577746 
578.058 19613170 19640730 19671482 19703516 19718808 19691382 19600866 
581.433 19447784 19257484 19075542 18947980 18900496 18930362 19005682 
584.808 19082884 19121972 19105630 19041408 18953414 18863882 18782082 
588.182 18699470 18599166 18469358 18318608 18177586 18095952 18119926 
591.557 18271780 18533566 18848068 19129972 19287412 19253640 18996682 
594.932 18529968 17905450 17207736 16530003 15947226 15503041 15194038 
598.307 14977538 14785416 14558155 14267903 13938256 13636485 13454080 
601.682 13467033 13700666 14115901 14615447 15081675 15405256 15533672 
605.057 15482130 15323523 15147717 15027580 14987724 15000208 15001443 
608.431 14925924 14740818 14459007 14135137 13841063 13645818 13587457 
611.806 13669275 13866924 14143730 14462673 14791484 15102979 15365710 
615.181 15544798 15609811 15543630 15358089 15094196 14817059 14588685 
618.556 14446162 14386871 14369027 14325671 14190389 13927341 13541752 
621.931 13084583 12631921 12271064 12067940 12051757 12209685 12494301 
625.305 12836231 13159100 13402920 13529344 13529583 13422297 13247976 
628.680 13058291 12903366 12826846 12853296 12984679 13199471 13460232 
632.055 13719200 13929429 14058161 14090367 14033897 13914648 13771423 
635.430 13644588 13563527 13544623 13586876 13675600 13788592 13903564 
638.805 14001899 14069763 14098376 14081365 14014835 13899253 13742421 
642.180 13563048 13386996 13246506 13168185 13165828 13236190 13360891 
645.554 13513346 13670164 13821873 13973430 14140649 14338478 14571450 
648.929 14826864 15080784 15305229 15484464 15621936 15740141 15868690 
652.304 16034439 16246034 16491525 16740633 16958048 17119494 17217940 
655.679 17267896 17297962 17340650 17417418 17534148 17677240 17822864 
659.054 17943640 18018510 18040338 18018406 17976100 17944502 17959180 
662.428 18049526 18233146 18512888 18878002 19309476 19786564 20296326 
665.803 20830428 21382278 21939150 22466346 22907026 23208216 23367666 
669.178 23437008 23479920 23537668 23620716 23722608 23831804 23942496 
672.553 24059172 24201068 24394948 24669148 25040248 25506634 26047610 
675.928 26630792 27222204 27794958 28338474 28855014 29354410 29843376 
679.302 30322486 30786794 31232086 31661368 32086048 32521070 32976470 
682.677 33449962 33925004 34377116 34786940 35152132 35492032 35840728 
686.052 36237348 36708136 37256864 37863436 38491936 39103320 39666372 
689.427 40165936 40599564 40972116 41288360 41550580 41760060 41919864 
692.802 42037456 42124192 42191960 42251556 42310432 42374756 42451916 
696.177 42551740 42686360 42867204 43100296 43383276 43704800 44049700 
699.551 44400528 44745800 45081384 45410864 45742212 46084500 46445236 
702.926 46828596 47234796 47661084 48103260 48556636 49019124 49493324 
706.301 49989232 50521172 51104756 51750740 52458408 53214080 53993692 
709.676 54774480 55542708 56303128 57076708 57894488 58782088 59747544 
713.051 60777340 61843816 62919432 63991496 65072096 66193364 67394736 
716.425 68699248 70103464 71571072 73047624 74471224 75792392 76981120 
719.800 78018432 78885152 79550096 79966504 80087048 79878480 79337000 
723.175 78491648 77396544 76117720 74713184 73234904 71722584 70206240 
726.550 68710464 67252352 65838956 64467460 63128368 61811800 60514796 
729.925 59243452 58010012 56823640 55681636 54564788 53443052 52287988 
733.300 51084068 49838504 48578832 47343232 46161988 45048268 43994036 
736.674 42977880 41975664 40973316 39973788 38993476 38054512 37174484 
740.049 36362600 35616456 34927968 34284812 33675228 33085518 32497286 
743.424 31888560 31233116 30509272 29707682 28837558 27926524 27014258 
746.799 26146448 25360202 24680124 24116612 23665744 23312564 23036036 
750.174 22813708 22623080 22445410 22268198 22084294 21893534 21699130 
753.548 21504222 21307764 21102840 20878750 20627152 20349380 20060922 
756.923 19789928 19571784 19436038 19394562 19436244 19528356 19626588 
760.298 19686426 19680670 19604540 19474880 19320664 19174226 19058648 
763.673 18983908 18947220 18938012 18943482 18951130 18951060 18933720 
767.048 18888002 18801978 18664326 18468284 18214210 17911146 17574928 
770.423 17223664 16875472 16543085 16231690 15938289 15654327 15367632 
773.797 15067371 14749319 14418280 14090162 13786985 13534710 13353135 
777.172 13249410 13214876 13225499 13248283 13247600 13197763 13087451 
780.547 12922515 12720587 12506236 12301877 12122145 11973344 11854694 
783.922 11762665 11693357 11644310 11612591 11591764 11571108 11536061 
787.297 11471858 11370998 11236872 11085824 10941830 10831173 10771422 
790.671 10764119 10793602 10831173 10845407 10810451 10717657 10576025 
794.046 10410817 10252764 10131598 10068282 10068486 10126783 10230407 
797.421 10364801 10517091 10678738 10844795 11011527 11175127 11328552 
800.796 11461958 11564030 11622937 11630255 11585163 11496082 11381372 
804.171 11264924 11173359 11125323 11127261 11167546 11221129 11254519 
807.546 11237857 11157516 11021281 10858384 10710763 10623932 10629671 
810.920 10739597 10942712 11212662 11515475 11818262 12098329 12340089 
814.295 12534917 12676474 12758939 12778013 12734576 12639596 12514558 
817.670 12388634 12295026 12258011 12289402 12386351 12533860 12710829 
821.045 12897188 13078642 13247190 13398820 13530950 13638639 13715952 
824.420 13757708 13763728 13740779 13702649 13667189 13649819 13661034 
827.794 13702239 13767182 13843560 13918069 13981164 14028113 14061549 
831.169 14088724 14119940 14164987 14230821 14320225 14430988 14557710 
834.544 14693552 14832967 14972771 15111865 15250660 15388915 15524021 
837.919 15651373 15765533 15863227 15945267 16017215 16086392 16160222 
841.294 16240392 16322883 16399747 16463684 16514447 16562635 16626423 
844.669 16726963 16878366 17079412 17310618 17538116 17726144 17845408 
848.043 17886010 17858698 17791518 17716204 17656810 17622336 17604946 
851.418 17586418 17548188 17483162 17400416 17325788 17291688 17329686 
854.793 17456394 17666922 17931932 18205882 18436202 18575718 18598578 
858.168 18504208 18319300 18087452 17860530 17682416 17575654 17542290 
861.543 17567028 17629412 17713684 17817720 17951444 18129046 18356868 
864.917 18624448 18901394 19147078 19318726 19388776 19354546 19238782 
868.292 19081082 18925034 18808586 18752192 18760390 18823362 18923476 
871.667 19038570 19144100 19217826 19238676 19193584 19082260 18922368 
875.042 18747140 18598164 18515756 18522086 18613622 18759838 18913370 
878.417 19019736 19035558 18941404 18744476 18474682 18173820 17887736 
881.792 17651772 17485576 17390898 17352376 17343064 17331788 17295274 
885.166 17222284 17120286 17012868 16934760 16918050 16981650 17125008 
888.541 17326444 17551640 17761798 17930104 18045728 18115330 18155818 
891.916 18186154 18217286 18248316 18268498 18262692 18218460 18128424 
895.291 17993058 17817616 17610260 17380308 17138554 16898450 16674487 
898.666 16482852 16336542 16242491 16201491 16208233 16254770 16333032 
902.040 16437115 16562635 16704237 16853944 16999636 17127008 17224352 
905.415 17285238 17311582 17312928 17303340 17296790 17304754 17335548 
908.790 17393966 17483162 17602186 17744472 17894020 18024624 18106210 
912.165 18108628 18015022 17829354 17579276 17307582 17060870 16877264 
915.540 16772455 16739395 16752342 16781132 16799936 16796698 16774073 
918.914 16743699 16716804 16697729 16681511 16657168 16614374 16550003 
922.289 16470669 16391523 16329935 16297253 16295018 16313663 16336989 
925.664 16348651 16339982 16313663 16283320 16267773 16284250 16341977 
929.039 16438767 16562257 16695421 16824906 16944646 17059768 17182882 
932.414 17328444 17504652 17707818 17920400 18117264 18271124 18362814 
935.789 18388634 18362642 18312768 18270778 18266596 18318056 18429150 
939.163 18591246 18788692 19003260 19218036 19420930 19602634 19757124 
942.538 19880414 19972308 20037362 20085908 20134252 20200754 20301534 
945.913 20448562 20645394 20888730 21168654 21472956 21787960 22099530 
949.288 22394472 22658686 22878422 23043688 23148940 23196856 23197976 
952.663 23170084 23132200 23102252 23093726 23113504 23163234 23241562 
956.037 23346162 23474812 23625790 23796836 23982378 24173288 24356886 
959.412 24517528 24641444 24718566 24745118 24724984 24668306 24588948 
962.787 24499966 24410894 24325206 24241988 24158294 24074058 23994774 
966.162 23932590 23901568 23913892 23973974 24074582 24197388 24316236 
969.537 24405392 24442826 24416538 24325312 24178050 23989520 23778986 
972.912 23568800 23380498 23234780 23147752 23126084 23165122 23248798 
976.286 23354238 23455684 23533574 23579258 23595806 23595456 23593812 
979.661 23604132 23633170 23681210 23744724 23819832 23904334 23996768 
983.036 24094650 24190908 24273486 24327974 24341362 24309332 24239044 
986.411 24150098 24067544 24017394 24017568 24072726 24172938 24296472 
989.786 24417170 24509430 24557008 24556866 24520052 24467854 24427824 
993.160 24425124 24473744 24573170 24706220 24846606 24964122 25037230 
996.535 25060536 25046006 25018768 25008098 25038388 25119196 25244828 
999.910 25397826 25556920 25703032 25826512 25925790 26005744 26072554 
1003.285 26130612 26182484 26230420 26278924 26335178 26407742 26502894 
1006.660 26621246 26757040 26898338 27031570 27146964 27240726 27316724 
1010.035 27384230 27454746 27538758 27644008 27775742 27936842 28128402 
1013.409 28349544 28597978 28867834 29151286 29439358 29722476 29991720 
1016.784 30238182 30450874 30616634 30719716 30745572 30687000 30548232 
1020.159 30349312 30121360 29904958 29738090 29648682 29650918 29742348 
1023.534 29906592 30117668 30348850 30576564 30785406 30971288 31139952 
1026.909 31304192 31477008 31666394 31868984 32069210 32240726 32356616 
1030.284 32396958 32357938 32253072 32110340 31962272 31832974 31732582 
1033.660 31655774 31588100 31514060 31425248 31323704 31217168 31113146 
1037.035 31012034 30905358 30780320 30626552 30443376 30242230 30044976 
1040.410 29875036 29749726 29676000 29651592 29668868 29721732 29809308 
1043.785 29935130 30102220 30307280 30535932 30762928 30960400 31102752 
1047.161 31177222 31187154 31151520 31098802 31060112 31064206 31129876 
1050.536 31266198 31472232 31739678 32056044 32409094 32790552 33196558 
1053.911 33627608 34085284 34567700 35065772 35561504 36030372 36449832 
1057.286 36805316 37096996 37339000 37555056 37767100 37985688 38206044 
1060.661 38410628 38578544 38695848 38763336 38797500 38824604 38869280 
1064.037 38948316 39065868 39217360 39394260 39590872 39807396 40046304 
1067.412 40308320 40588720 40874760 41151740 41407460 41638716 41851852 
1070.787 42062132 42288988 42549292 42859080 43231752 43679920 44217212 
1074.162 44853724 45591852 46421488 47319140 48251124 49181512 50084264 
1077.538 50948984 51783332 52605888 53438968 54297452 55184344 56092208 
1080.913 57007900 57920344 58823328 59717432 60608276 61503584 62410268 
1084.288 63335144 64282424 65253496 66242688 67236576 68215448 69157088 
1087.663 70046384 70882352 71679824 72462248 73251408 74054112 74856144 
1091.039 75625152 76324408 76929264 77435032 77857272 78218536 78533936 
1094.414 78799896 78995552 79094928 79084392 78972616 78789608 78568952 
1097.789 78332928 78077880 77778152 77398240 76917672 76342816 75710064 
1101.164 75066816 74453488 73885656 73352344 72827320 72290176 71742584 
1104.540 71213656 70748336 70385704 70145912 70020848 69981840 69995584 
1107.915 70044320 70133720 70292432 70556160 70955960 71504584 72193760 
1111.290 72997800 73882440 74812528 75750296 76659384 77502792 78246152 
1114.665 78869584 79373800 79783704 80137416 80472832 80806432 81122032 
1118.041 81371008 81488872 81418368 81124152 80605816 79891624 79027464 
1121.416 78058488 77025392 75962032 74895592 73854432 72864864 71947608 
1124.791 71116848 70378496 69736232 69200296 68792640 68549376 68516480 
1128.166 68733824 69227616 70001848 71039264 72307080 73770424 75401320 
1131.542 77180512 79097464 81143040 83305864 85572632 87932104 90378616 
1134.917 92912216 95531960 98222440 100947632 103643968 106236104 108657976 
1138.292 110868400 112865832 114679792 116353376 117917096 119377192 
1141.185 120715488 121906136 122933856 123808656 124560424 125228376 
1144.078 125838440 126393992 126878616 127272632 127571984 127800760 
1146.971 128004672 128240136 128552616 128959760 129452480 130003288 
1149.864 130583752 131175000 131773088 132382752 133007720 133643792 
1152.757 134279456 134901568 135504096 136090288 136667872 137239648 
1155.651 137795504 138311264 138758032 139111184 139363296 139524048 
1158.544 139613040 139645856 139623280 139529792 139343520 139045088 
1161.437 138629904 138108256 137498096 136813872 136059520 135229200 
1164.330 134316752 133324656 132268848 131173240 130059392 128935144 
1167.223 127790272 126601400 125344528 124009504 122605184 121156240 
1170.116 119692256 118238504 116806896 115398752 114010920 112641560 
1173.009 111292248 109963728 108650448 107336968 106001312 104625480 
1175.902 103203520 101747752 100284160 98843872 97447736 96101296 94795296 
1179.277 93517000 92259296 91028792 89840896 88710968 87641392 86616416 
1182.652 85606200 84582232 83532392 82470152 81431232 80460192 79592832 
1186.028 78839024 78178832 77568544 76959640 76309520 75595256 74814808 
1189.403 73979976 73108864 72219344 71329688 70456896 69618920 68831696 
1192.778 68102952 67428440 66790564 66165628 65529444 64870344 64192376 
1196.153 63513784 62857352 62239836 61665476 61124100 60597912 60068900 
1199.529 59528144 58976556 58423660 57880632 57357676 56861636 56398152 
1202.904 55974592 55599720 55281200 55020828 54810980 54634676 54470724 
1206.279 54303268 54127436 53951860 53793716 53670196 53588396 53541204 
1209.654 53508896 53469100 53405132 53313492 53203328 53091624 52993908 
1213.030 52917216 52860028 52815312 52777484 52746728 52729556 52735428 
1216.405 52772092 52841244 52938700 53057816 53194156 53346684 53516916 
1219.780 53704916 53904328 54102440 54283900 54436284 54557880 54659104 
1223.155 54760948 54884212 55043508 55241648 55470792 55717344 55970296 
1226.531 56226336 56489584 56766884 57061212 57368528 57676816 57971728 
1229.906 58241716 58482568 58698144 58895612 59080068 59251808 59405908 
1233.281 59536012 59637828 59712412 59764348 59798948 59818304 59819332 
1236.656 59795452 59739636 59648204 59520732 59358648 59162000 58927636 
1240.032 58650924 58328796 57965288 57572012 57166728 56765676 56376196 
1243.407 55992872 55598816 55171140 54690216 54147856 53549116 52909504 
1246.782 52247664 51581760 50924024 50281904 49661236 49067908 48509396 
1250.157 47992600 47521112 47094184 46707156 46354940 46034764 45749316 
1253.533 45504384 45306364 45156380 45048336 44966420 44891052 44802476 
1256.908 44685820 44534692 44349080 44133028 43891312 43627124 43343144 
1260.283 43042708 42731836 42419104 42114520 41828392 41569064 41342480 
1263.658 41151556 40995204 40866932 40754500 40640892 40506400 40335480 
1267.034 40121704 39871316 39601796 39337852 39103500 38912584 38766740 
1270.409 38655284 38561524 38469268 38369508 38262096 38153516 38051292 
1273.784 37960088 37880572 37811200 37751056 37703384 37674076 37668548 
1277.159 37686436 37717948 37742848 37734936 37670428 37531832 37314268 
1280.535 37023956 36675396 36284244 35865412 35431200 34990668 34552344 
1283.910 34123600 33710212 33315354 32938798 32578208 32231088 31896834 
1287.285 31578764 31281792 31011642 30771570 30562168 30382040 30230934 
1290.660 30110672 30026052 29982418 29981458 30018526 30080132 30147926 
1294.036 30202588 30229016 30221414 30183052 30123350 30052932 29979684 
1297.411 29906520 29832518 29755192 29673870 29590258 29507940 29430034 
1300.786 29357318 29286562 29212240 29127724 29027250 28908204 28770110 
1304.161 28615742 28449792 28279838 28115782 27968646 27849854 27766522 
1307.536 27720218 27705314 27711212 27725410 27738514 27747908 27757622 
1310.912 27776164 27810818 27863350 27928150 27992676 28041730 28064140 
1314.287 28055762 28020382 27966700 27904546 27840704 27777048 27711918 
1317.662 27642174 27564990 27479418 27385640 27283202 27169538 27039928 
1321.037 26888996 26712604 26510290 26285930 26046766 25801300 25557800 
1324.413 25321248 25093780 24874816 24662976 24458530 24264726 24087436 
1327.788 23934864 23813216 23724568 23664522 23622114 23583912 23536688 
1331.163 23473380 23396652 23319066 23259390 23237472 23269386 23361196 
1334.538 23510068 23705074 23933604 24183622 24448014 24724458 25013152 
1337.914 25312294 25614946 25907466 26173968 26400560 26581616 26721942 
1341.289 26833938 26933238 27033018 27143542 27271278 27420156 27591998 
1344.664 27785984 27997342 28216188 28429308 28622468 28784094 28910718 
1348.039 29007306 29085668 29158410 29233682 29310772 29379758 29426914 
1351.415 29441416 29420318 29370966 29306340 29241620 29187254 29146504 
1354.790 29116776 29094136 29077130 29069124 29076670 29104552 29152456 
1358.165 29213764 29277026 29330374 29367066 29387134 29398088 29408832 
1361.540 29425992 29449218 29470210 29477940 29465208 29432160 29386566 
1364.916 29338386 29296912 29268130 29255478 29260476 29285038 29330694 
1368.291 29396812 29478720 29567170 29649392 29714600 29758704 29788334 
1371.666 29820594 29883200 30008656 30224468 30544642 30960970 31442914 
1375.041 31944334 32417484 32822606 33124528 33293742 33303116 33129714 
1378.417 32765326 32220670 31527028 30724588 29854522 28948472 28027344 
1381.792 27110072 26218136 25375764 24608550 23931224 23343750 22828062 
1385.167 22353692 21883568 21384506 20839224 20250708 19641806 19044074 
1388.542 18487820 17993850 17573650 17232420 16969902 16781478 16657891 
1391.918 16587110 16555957 16553272 16573513 16615579 16679617 16763570 
1395.293 16859180 16954328 17039056 17108878 17167854 17225456 17292860 
1398.668 17375034 17466742 17552640 17615298 17641558 17628272 17581242 
1402.043 17510620 17425592 17330204 17221664 17091370 16929488 16731026 
1405.419 16502092 16259275 16026532 15827142 15683251 15612112 15626641 
1408.794 15737806 15952382 16271625 16689120 17190500 17754654 18357734 
1412.169 18978682 19599410 20205508 20785276 21326626 21818026 22250552 
1415.544 22617706 22917610 23149464 23310780 23393366 23384380 23274666 
1418.920 23071748 22807316 22527310 22270012 22053304 21873706 21713516 
1422.295 21550252 21365988 21154530 20928400 20715034 20549434 20459016 
1425.670 20455334 20537796 20701446 20944220 21269416 21684466 22193148 
1429.045 22789612 23455332 24161376 24876534 25576248 26246152 26881840 
1432.421 27486478 28066578 28629404 29182472 29731170 30278786 30823822 
1435.796 31357326 31861282 32317102 32715234 33058666 33361506 33640496 
1439.171 33908560 34175860 34448348 34729040 35017752 35312220 35608584 
1442.546 35902660 36191428 36472388 36744912 37009380 37267908 37525544 
1445.922 37791500 38080228 38409432 38795868 39251052 39775840 40364096 
1449.297 41010096 41713812 42483812 43332640 44269016 45289044 46372856 
1452.672 47491720 48612404 49712876 50785116 51826560 52832896 53779656 
1456.047 54610968 55247820 55635688 55795140 55806296 55758596 55699000 
1459.422 55637268 55570160 55497220 55426820 55374008 55352292 55368888 
1462.798 55417524 55476664 55505508 55447676 55243416 54830788 54157460 
1466.173 53182808 51873004 50217364 48232872 45973024 43505916 40908292 
1469.548 38238896 35508752 32698478 29775524 26745692 23709590 20868042 
1472.923 18437480 16526975 15101813 14033349 13175083 12424298 11725252 
1476.299 11065022 10452088 9897098 9400000 8950382 8534242 8141795 7770953 
1480.156 7427863 7120778 6855278 6630379 6439526 6275313 6133307 6013890 
1484.014 5919563 5850812 5803160 5766325 5727612 5677019 5612301 5539907 
1487.871 5471351 5417031 5377443 5341315 5290062 5209943 5099429 4970040 
1491.728 4837842 4716235 4611238 4523108 4449523 4387799 4338031 4302558 
1495.586 4285458 4288537 4307979 4334484 4355635 4361391 4347736 4315509 
1499.443 4268091 4210207 4145473 4076802 4006168 3935312 3865772 3799485 
1503.301 3738488 3685486 3645890 3628582 3647260 3716431 3838427 3985001 
1507.158 4099747 4139485 4097740 3996738 3863031 3719205 3580538 3456744 
1511.016 3354189 3275226 3218242 3179389 3153722 3136601 3124086 3113140 
1514.873 3101626 3088578 3075064 3065320 3066187 3083373 3118913 3170878 
1518.730 3233564 3300032 3362537 3412460 3440780 3441014 3411759 3358863 
1522.588 3290884 3214837 3135166 3054942 2977702 2907147 2847376 2799552 
1526.445 2762737 2733594 2709988 2692517 2684383 2689017 2708088 2740230 
1530.303 2782145 2830401 2883165 2941172 3005794 3075230 3139004 3179856 
1534.160 3181659 3141007 3067255 2977569 2889335 2819829 2783512 2790382 
1538.017 2842707 2930364 3026847 3095887 3113574 3086776 3044965 3010298 
1541.875 2983974 2949879 2888701 2786947 2644977 2476294 2305778 2158005 
1545.732 2049962 1987780 1969240 1989444 2045768 2136560 2257680 2397891 
1549.590 2538113 2654711 2731827 2766439 2768206 2751567 2729793 2710355 
1553.447 2691517 2664146 2616275 2539847 2433376 2300815 2146883 1976030 
1557.305 1792801 1610314 1463774 1407459 1471454 1621422 1795129 1950534 
1561.162 2072168 2159070 2212785 2237031 2236298 2217914 2191105 2166995 
1565.019 2155440 2162733 2190406 2235565 2294252 2359211 2419814 2460932 
1568.877 2464031 2416449 2321167 2198898 2076829 1977528 1912227 1882043 
1572.734 1882242 1904805 1942280 1986382 2030887 2071302 2105329 2132598 
1576.592 2154608 2173755 2192570 2212952 2235965 2261411 2287158 2308942 
1580.449 2321534 2318769 2296717 2254982 2197299 2130001 2061215 1998964 
1584.307 1950235 1919948 1910829 1922810 1952897 1995369 2042871 2086251 
1588.164 2117448 2130334 2122542 2095973 2055921 2009682 1964713 1927769 
1592.021 1905072 1900945 1918284 1957291 2013843 2079459 2141888 2188008 
1595.879 2207024 2195101 2156206 2101400 2043937 1995669 1963315 1947439 
1599.736 1942713 1941648 1937687 1928202 1915389 1905172 1904573 1918850 
1603.594 1949469 1993372 2044137 2093009 2131066 2149913 2143320 2108225 
1607.451 2047133 1968807 1886901 1816856 1772406 1761261 1783851 1834158 
1611.308 1902143 1976629 2048731 2113553 2169127 2214850 2249320 2269371 
1615.166 2271303 2252784 2219479 2185244 2167495 2178184 2217181 2275799 
1619.023 2342587 2407853 2464764 2510385 2543446 2563710 2569876 2560477 
1622.881 2533881 2490423 2434175 2371138 2307810 2248721 2196300 2151511 
1626.738 2114119 2083687 2060549 2045934 2041740 2050861 2075963 2119113 
1630.596 2181714 2263642 2363742 2479393 2607009 2742864 2882297 3020107 
1634.453 3151686 3271020 3372788 3453672 3513192 3552108 3571518 3572119 
1638.310 3556719 3529760 3499096 3474647 3467866 3486838 3534537 3608134 
1642.168 3700457 3803262 3910002 4018709 4131356 4253569 4392217 4552438 
1646.025 4731677 4917424 5089774 5232075 5340241 5421560 5487524 5548230 
1649.883 5611630 5682928 5766526 5864380 5974081 6079442 6146279 6140701 
1653.740 6064119 5951944 5837111 5733891 5643383 5562628 5488095 5416326 
1657.598 5344066 5267692 5183284 5087293 4977045 4851847 4713656 4566702 
1661.455 4418459 4278364 4155140 4054527 3977109 3919297 3876269 3844043 
1665.312 3820944 3807106 3803362 3810916 3831206 3864335 3909133 3962630 
1669.170 4019010 4070413 4109480 4131758 4136709 4127075 4107206 4081986 
1673.027 4055330 4030013 4007138 3986505 3967178 3949088 3934343 3927656 
1676.885 3935212 3963834 4020649 4112457 4244234 4415413 4619108 4841930 
1680.742 5066475 5278324 5464640 5612335 5705521 5725363 5664263 5545780 
1684.599 5428370 5362482 5361609 5410555 5486786 5571522 5651742 5721065 
1688.457 5777170 5822133 5859645 5893969 5927893 5962895 6000352 6042616 
1692.314 6093655 6159689 6249765 6375837 6551794 6789947 7089961 7431233 
1696.172 7777497 8096388 8376531 8624475 8853183 9072335 9282729 9473683 
1700.029 9629828 9743704 9827681 9901945 9982902 10076488 10182951 10299956 
1703.887 10425513 10558642 10697043 10837763 10975742 11105981 11225310 
1707.262 11333381 11432974 11527690 11622053 11719091 11820985 11929136 
1710.637 12044195 12167837 12303309 12454916 12627998 12826983 13055252 
1714.012 13313944 13603594 13926281 14287968 14699686 15171735 15707985 
1717.388 16292850 16892662 17472848 18017128 18537610 19067026 19642602 
1720.763 20301602 21075014 21985610 23044110 24247452 25583032 27032488 
1724.138 28582760 30229868 31979286 33842540 35836444 37988036 40340824 
1727.513 42956408 45904704 49238404 52955016 56972732 61145804 65304904 
1730.889 69358632 73359168 77549616 82348216 88297016 95833752 104872528 
1734.264 114560896 123661552 131378520 137704416 143098000 148069792 
1737.157 153000640 158100672 163422672 168865632 174231728 179262672 
1740.050 183718992 187425152 190260832 192142496 193029312 192948032 
1742.943 192015792 190411360 188318896 185831568 182926240 179493536 
1745.836 175423952 170688576 165385952 159701584 153853536 147978512 
1748.729 142080464 136042304 129730720 123109888 116300232 109569104 
1751.622 103209280 97418712 92238232 87581720 83296352 79218168 75205792 
1754.997 71152256 66996268 62746540 58489548 54372400 50552400 47130120 
1758.373 44126936 41490716 39124600 36912156 34743544 32545924 30305930 
1761.748 28084076 25987594 24118328 22524936 21195130 20072514 19088284 
1765.123 18181316 17311238 16461996 15639968 14866225 14163447 13545683 
1768.498 13011514 12547468 12134104 11753949 11392324 11035929 10673136 
1771.874 10296089 9908691 9528921 9181258 8884870 8645836 8456866 8301446 
1775.731 8159350 8012307 7852289 7681909 7513113 7358502 7225069 7109158 
1779.589 6997150 6870931 6718198 6540627 6352099 6170880 6010430 5875027 
1783.446 5758770 5650634 5540210 5424344 5307873 5200084 5109084 5037612 
1787.303 4982139 4936593 4895407 4856505 4821458 4792612 4770133 4748258 
1791.161 4715599 4661306 4582038 4486816 4391882 4312028 4250826 4201475 
1795.018 4151126 4088341 4008911 3919866 3836220 3776923 3756402 3777993 
1798.876 3831942 3897732 3952399 3976842 3963968 3917960 3849926 3770473 
1802.733 3686188 3599815 3512424 3426586 3347811 3282471 3235867 3209062 
1806.590 3198381 3196345 3194276 3186165 3169376 3145546 3118546 3092316 
1810.448 3068990 3048902 3031385 3015670 3001123 2986944 2971430 2951547 
1814.305 2924026 2886767 2839572 2785380 2728560 2673547 2621976 2572710 
1818.163 2522549 2468996 2414150 2364741 2330928 2323866 2350416 2410485 
1822.020 2496288 2594242 2687216 2757602 2792382 2785246 2739296 2664879 
1825.878 2576009 2484925 2398691 2320535 2251585 2193969 2152943 2135295 
1829.735 2146017 2183213 2235199 2283460 2310208 2303546 2259978 2185411 
1833.592 2093709 2003857 1932162 1887866 1867501 1858682 1844207 1812531 
1837.450 1764355 1714554 1686313 1701248 1771075 1892559 2049929 2219612 
1841.307 2378001 2505386 2587509 2616742 2592009 2519383 2411951 2290922 
1845.165 2180349 2101133 2066908 2078727 2127037 2192504 2251752 2283294 
1849.022 2275033 2229404 2160868 2088981 2027825 1981256 1942480 1898915 
1852.880 1840248 1765386 1685016 1617963 1581514 1585804 1628339 1696525 
1856.737 1769678 1828568 1860812 1861444 1832628 1778927 1705672 1617397 
1860.594 1520595 1425144 1342444 1284848 1259925 1268864 1305652 1358962 
1864.452 1417764 1472950 1521593 1565386 1606921 1646432 1678496 1693664 
1868.309 1683219 1645667 1590194 1532233 1487712 1464605 1461746 1469958 
1872.167 1476541 1468429 1436015 1375715 1289933 1187721 1081083 984467 
1876.024 911612 870839 864166 885215 921606 958265 983404 992736 991573 
1880.364 992071 1007548 1045875 1104601 1171043 1227959 1262317 1272386 
1884.221 1271323 1282090 1330412 1431926 1586402 1775400 1970671 2137193 
1888.078 2245024 2276765 2229737 2115517 1953197 1763523 1563523 1366175 
1891.936 1183269 1025980 907992 843915 844413 912774 1039929 1204766 1375648 
1896.276 1519265 1608085 1624248 1564754 1441201 1281126 1119317 992503 
1900.133 929642 942426 1025083 1157654 1315190 1474712 1623816 1761028 
1903.990 1891926 2021300 2147482 2259545 2342354 2382598 2376235 2331128 
1907.848 2264375 2195201 2135828 2088015 2044569 1996101 1936922 1870728 
1911.705 1808904 1766151 1753409 1776199 1833160 1919316 2028657 2155274 
1915.563 2292054 2425779 2534147 2589342 2564377 2449536 2262243 2043204 
1919.420 1836355 1674471 1565851 1493996 1424878 1320076 1156558 938474 
1923.277 699724 490362 360349 336739 420575 587764 801190 1020965 1216462 
1927.617 1373687 1493430 1587433 1670646 1757468 1855787 1966743 2083421 
1931.474 2194102 2283061 2334859 2341122 2305078 2244558 2186276 2159670 
1935.332 2184678 2262843 2374603 2487124 2564410 2580409 2530381 2432043 
1939.189 2316837 2217447 2160569 2157672 2206491 2292087 2392793 2488057 
1943.047 2559711 2594375 2585609 2532348 2442272 2334392 2237031 2179150 
1946.904 2185177 2262710 2400123 2567410 2728093 2852846 2927462 2956785 
1950.762 2959554 2956718 2959887 2966893 2962756 2928529 2850178 2728293 
1954.619 2576643 2420447 2285759 2191405 2142554 2132265 2145218 2166962 
1958.476 2192071 2228305 2296684 2422413 2625876 2908882 3248786 3594302 
1962.334 3881451 4046634 4046233 3877673 3585716 3257132 2988945 2867655 
1966.191 2934501 3175017 3516532 3859119 4115000 4233962 4221114 4122659 
1970.049 4002925 3913647 3884126 3915920 3989214 4079009 4162300 4225732 
1973.906 4257384 4243498 4164507 4002457 3752191 3429659 3074763 2734294 
1977.764 2449669 2238463 2087216 1957357 1802749 1590326 1309175 974570 
1981.621 619352 285576 9774 -182463 -277508 -271879 -166168 39828 345062 
1985.961 737626 1190844 1658938 2081124 2400223 2577109 2598208 2478793 
1989.818 2255615 1978659 1696292 1447816 1255804 1126326 1056802 1044380 
1993.675 1094669 1221180 1438840 1753143 2149646 2590942 3015169 3347878 
1997.533 3523647 3504641 3296827 2951914 2560177 2219679 2010515 1979991 
2001.390 2128336 2413950 2764538 3105965 3372254 3522244 3539047 3426419 
2005.248 3204089 2900076 2556178 2219512 1936189 1747720 1678629 1734680 
2009.105 1902276 2152743 2447570 2744098 3003292 3183561 3245314 3149250 
2012.963 2866588 2393193 1758732 1033918 312234 -304792 -730818 -921241 
2016.820 -877694 -649570 -306646 78302 459547 825025 1182339 1541710 1901644 
2021.160 2238563 2517617 2706320 2788948 2773742 2691417 2582842 2485691 
2025.017 2431210 2437041 2511185 2652978 2854881 3096921 3342235 3541218 
2028.874 3637770 3586084 3371719 3017371 2580043 2130534 1740202 1456992 
2032.732 1295616 1240984 1261819 1326357 1412745 1508958 1604227 1678829 
2036.589 1702579 1640446 1468628 1189117 838736 482898 199347 59811 102164 
2040.929 318435 658176 1049229 1414207 1691003 1847169 1876319 1795562 
2044.786 1636721 1440104 1243709 1083142 989116 981710 1068992 1241981 
2048.644 1475876 1735312 1983652 2194136 2353015 2460232 2524749 2558811 
2052.501 2570676 2561844 2529182 2469230 2384664 2290988 2213418 2184878 
2056.358 2233933 2373736 2595242 2866121 3138570 3355858 3472676 3464226 
2060.216 3332719 3103328 2815860 2512285 2224142 1970638 1759065 1588763 
2064.073 1456959 1363283 1309806 1298241 1326324 1384822 1457524 1526248 
2067.931 1574863 1593419 1582911 1552849 1519165 1499581 1510953 1563324 
2071.788 1659936 1794630 1952598 2112188 2246423 2330661 2348018 2296351 
2075.646 2190173 2060549 1947106 1885637 1902742 2003757 2171791 2369939 
2079.503 2554378 2680882 2718023 2654278 2498988 2280329 2035348 1804279 
2083.360 1617697 1491170 1423914 1402872 1408722 1423947 1439040 1454931 
2087.218 1479666 1522623 1587067 1666788 1746922 1807407 1832528 1817688 
2091.075 1769212 1702545 1634525 1576326 1530504 1493430 1460250 1434253 
2094.933 1428103 1460549 1546897 1688608 1865471 2039077 2161035 2192903 
2098.790 2118314 1949669 1722604 1487612 1292093 1166923 1124532 1159647 
2102.647 1256967 1399149 1569409 1751247 1923010 2057952 2124108 2093009 
2106.505 1950235 1701614 1376645 1018839 681405 410990 236939 170740 205545 
2110.844 321817 493447 693485 895840 1076997 1220981 1319411 1375515 1401010 
2115.184 1413542 1427770 1448914 1468728 1469127 1429998 1338555 1199849 
2119.042 1038269 893682 805572 803746 894213 1058363 1256702 1443328 1580516 
2123.381 1645268 1635423 1565419 1458854 1336960 1213870 1094702 976862 
2127.239 858854 744563 646063 584446 581062 652070 799431 1007049 1242014 
2131.578 1458887 1616799 1687743 1668351 1579751 1461713 1357101 1295051 
2135.436 1284582 1312565 1354442 1387681 1405332 1417964 1446686 1509556 
2139.293 1609316 1728359 1836854 1904939 1920381 1894522 1858516 1845405 
2143.150 1870030 1914457 1931430 1858349 1643705 1275111 788078 260047 
2147.008 -218099 -563575 -733663 -726981 -575388 -315917 27999 451686 962250 
2151.347 1557538 2204293 2835003 3349547 3645856 3654577 3364573 2833402 
2155.205 2175454 1534494 1030862 731386 635611 687478 799796 898098 953583 
2159.544 986359 1046174 1174166 1380268 1633129 1872858 2032851 2069105 
2163.402 1972968 1772106 1514045 1249790 1017312 833590 700952 617095 583517 
2167.741 609066 704503 870707 1089022 1324463 1531767 1672043 1732650 
2171.599 1728858 1698021 1679660 1697389 1743895 1785448 1776199 1686978 
2175.456 1524918 1339419 1202606 1188120 1338954 1647330 2055522 2474628 
2179.314 2817628 3018239 3052373 2935034 2714056 2445138 2180416 1958722 
2183.171 1801251 1715652 1701514 1751646 1851328 1982054 2124674 2263209 
2187.029 2391127 2510252 2625209 2736662 2832568 2886667 2866721 2742664 
2190.886 2502221 2156639 1742963 1314260 923897 615536 411388 310311 294628 
2195.226 340088 421934 519919 621143 716816 801589 873064 928347 962947 
2199.565 971449 944020 870673 744662 566696 346455 104517 -136126 -357170 
2203.905 -550570 -721424 -882390 -1044321 -1205993 -1349207 -1440232 
2207.280 -1445152 -1342337 -1134947 -851967 -541470 -252739 -18057 154166 
2211.137 280238 388736 510497 662987 846936 1049296 1251584 1436746 1593951 
2215.477 1719777 1814394 1879680 1915522 1921912 1899348 1850896 1781954 
2219.334 1702313 1622752 1557970 1522557 1530038 1587101 1688807 1813296 
2223.192 1922511 1973201 1926205 1763290 1495924 1165229 827648 538496 
2227.049 336440 229646 200772 217712 252853 293070 344200 422001 541847 
2231.389 706528 902680 1105498 1290797 1442630 1557172 1639015 1693331 
2235.246 1719677 1711527 1660435 1565053 1434884 1290963 1156790 1048831 
2239.104 969423 907992 848529 782269 715190 668629 670421 737925 869047 
2243.443 1037073 1201510 1317484 1356636 1311568 1196360 1036542 858389 
2247.301 682865 522606 389300 298806 270789 325630 472450 701384 980382 
2251.640 1264178 1509656 1686911 1790971 1838750 1858882 1875354 1898050 
2255.498 1918484 1916187 1870529 1771374 1625080 1453601 1286377 1150810 
2259.355 1068527 1048964 1091746 1187223 1319378 1465769 1602432 1709065 
2263.213 1773737 1799255 1802349 1808738 1841512 1909964 2002526 2090146 
2267.070 2134862 2106294 1995902 1820982 1619892 1435449 1302761 1235501 
2270.927 1224669 1245470 1272154 1286842 1285613 1276441 1272386 1283419 
2274.785 1312432 1356071 1408523 1466135 1529806 1602099 1684749 1774701 
2278.642 1862875 1937754 1987913 2007419 1996168 1959754 1905271 1841080 
2282.500 1773604 1707768 1649359 1603596 1574497 1562858 1564355 1570407 
2286.357 1570307 1557471 1530304 1495026 1462910 1445656 1451407 1480963 
2290.215 1529273 1587300 1645834 1697157 1736077 1758300 1759265 1735112 
2294.072 1684816 1612475 1528741 1450077 1394030 1372158 1386983 1429732 
2297.929 1484686 1534328 1567248 1581015 1581414 1578222 1579519 1587600 
2301.787 1599006 1607587 1608917 1604527 1601168 1607620 1630701 1671112 
2305.644 1723170 1777430 1825108 1861943 1889597 1912926 1935723 1958056 
2309.502 1974299 1975930 1954628 1907435 1837685 1755339 1671178 1595780 
2313.359 1535957 1495093 1474978 1477039 1502507 1550255 1615568 1688674 
2317.217 1756037 1805244 1828435 1825906 1805344 1779026 1756503 1740002 
2321.074 1722903 1693065 1639548 1559001 1459053 1356569 1273284 1226065 
2324.931 1224303 1266604 1344903 1445190 1552683 1655080 1740901 1801451 
2328.789 1830299 1824476 1785348 1720908 1645568 1576825 1533064 1528209 
2332.646 1568212 1650191 1763922 1893890 2020601 2125339 2191838 2208689 
2336.504 2172690 2090513 1979491 1862642 1765752 1710296 1705872 1748552 
2340.361 1822479 1905538 1975331 2018371 2031886 2023098 2004257 1986814 
2344.219 1976928 1973067 1968774 1955593 1927769 1883773 1826139 1760063 
2348.076 1692500 1630701 1582778 1557737 1564321 1608983 1692466 1807673 
2351.933 1936755 2055189 2139191 2171324 2147582 2077195 1979591 1874688 
2355.791 1777130 1691169 1610380 1522457 1414939 1282090 1127722 964409 
2359.648 809887 683595 601965 576019 612516 712535 871636 1079455 1319943 
2363.988 1570640 1806342 2005155 2150646 2237264 2270870 2266340 2242759 
2367.845 2216448 2195701 2178584 2153309 2104463 2020401 1899015 1751380 
2371.703 1597842 1465569 1378274 1348094 1373986 1441201 1527179 1606822 
2375.560 1662397 1684284 1673906 1639514 1592854 1543804 1498251 1457325 
2379.417 1418629 1379072 1335830 1288504 1238924 1190379 1146358 1109982 
2383.275 1082578 1063777 1052285 1045742 1042653 1042387 1045709 1054378 
2387.132 1070221 1093971 1124300 1157488 1189250 1215997 1236631 1253678 
2390.990 1272519 1298806 1334567 1376546 1415271 1437577 1431061 1389542 
2394.847 1316752 1226596 1138419 1071948 1040096 1045111 1077662 1121642 
2398.705 1160245 1180944 1179914 1161209 1133867 1107491 1088324 1078592 
2402.562 1077064 1081349 1090118 1104236 1125463 1154730 1191310 1231580 
2406.419 1271190 1305951 1333769 1354475 1368901 1377310 1378141 1369100 
2410.277 1348194 1316586 1279996 1248228 1231813 1239622 1274015 1329814 
2414.134 1394661 1454199 1494960 1509390 1498052 1468129 1431228 1398019 
2417.992 1376246 1367671 1368768 1372424 1371360 1360890 1341081 1316653 
2421.849 1296181 1289900 1304921 1344039 1402938 1471786 1536888 1585105 
2425.707 1607786 1602831 1575362 1535292 1494162 1460616 1439040 1429067 
2429.564 1427504 1430596 1435915 1442830 1450775 1457923 1459951 1450543 
2433.421 1424080 1379072 1319411 1254409 1196892 1158352 1145362 1158086 
2437.279 1190745 1234704 1281758 1326490 1366707 1401409 1429034 1446453 
2441.136 1449512 1436081 1408490 1374285 1344604 1330445 1337691 1364148 
2444.994 1399348 1429532 1442464 1432491 1402672 1363583 1328219 1306350 
2448.851 1301697 1310936 1327188 1343374 1356037 1365942 1376114 1389177 
2452.708 1404600 1418296 1425144 1421554 1407958 1388811 1370662 1358364 
2456.566 1351883 1346199 1333470 1306815 1264544 1211245 1157222 1114201 
2460.423 1091115 1091247 1111577 1145163 1183303 1218721 1245902 1260390 
2464.281 1257865 1233906 1185794 1115430 1031493 950395 890661 870076 897600 
2468.620 969589 1069524 1174531 1262351 1318314 1340483 1338123 1327122 
2472.478 1321339 1327919 1343839 1359594 1363283 1347928 1314492 1272519 
2476.335 1236099 1217658 1223838 1252481 1293688 1333137 1358265 1360558 
2480.193 1338156 1295217 1240120 1182704 1132007 1096197 1080884 1089719 
2484.050 1123403 1178850 1248926 1322303 1385720 1426607 1435915 1411747 
2487.907 1359827 1292658 1225500 1174033 1148784 1153302 1183867 1231614 
2491.765 1285014 1333137 1369034 1390606 1400046 1402706 1405764 1415338 
2495.622 1435682 1467664 1508359 1551087 1585571 1601301 1587965 1539415 
2499.480 1455961 1344837 1219951 1097393 993699 920178 880932 872499 886245 
2503.819 911811 939570 964508 985297 1003330 1020600 1037671 1053115 1064143 
2508.159 1068627 1066534 1060722 1056171 1058197 1070155 1092045 1120546 
2512.016 1150079 1174664 1190612 1197656 1199516 1201909 1211943 1234970 
2515.874 1272719 1323034 1379903 1434884 1479899 1509490 1522756 1523820 
2519.731 1520695 1522524 1536655 1565086 1603463 1642109 1668950 1672775 
2523.589 1647696 1594450 1520462 1436646 1355007 1284383 1228955 1188120 
2527.446 1158584 1135861 1116294 1097858 1079887 1062017 1043849 1024884 
2531.303 1004990 985928 971515 967563 979884 1013459 1069889 1146890 1237794 
2535.643 1333503 1424014 1500147 1556307 1590426 1605026 1605525 1599738 
2539.500 1595049 1596179 1604460 1616167 1624049 1619193 1595016 1549757 
2543.358 1488310 1421454 1363882 1329714 1326656 1354874 1405332 1463475 
2547.215 1511352 1534660 1525549 1483689 1415304 1331243 1243742 1163202 
2551.073 1098190 1054876 1037206 1046705 1082445 1139249 1206893 1272386 
2554.930 1321405 1342178 1330213 1290265 1236332 1186924 1161242 1172704 
2558.788 1224204 1308078 1407792 1504336 1579386 1622386 1630867 1610314 
2562.645 1570673 1523588 1478702 1441766 1414673 1396456 1383991 1373986 
2566.502 1363782 1352049 1339618 1329282 1325427 1333736 1358497 1402041 
2570.360 1462544 1534660 1609615 1677631 1731054 1764954 1778794 1775300 
2574.217 1758998 1734147 1703610 1669216 1631998 1594483 1560730 1536323 
2578.075 1526879 1536023 1563158 1603064 1647098 1685348 1709132 1714820 
2581.932 1704109 1683785 1662797 1650390 1651920 1667819 1693464 1720708 
2585.790 1741666 1749850 1743163 1723835 1697256 1669382 1644869 1625546 
2589.647 1610214 1595913 1579818 1560464 1538783 1517337 1499116 1487313 
2593.504 1483755 1489973 1507794 1539980 1589495 1658273 1744227 1839915 
2597.362 1932961 2008118 2051228 2054024 2017838 1953430 1877683 1809037 
2601.219 1762092 1743030 1748885 1770177 1795595 1814727 1822579 1819485 
2605.077 1808871 1794830 1780058 1765519 1750216 1734347 1719677 1710130 
2608.934 1710263 1723236 1748020 1779925 1810401 1831031 1834558 1819152 
2612.792 1788242 1749151 1711094 1681323 1664027 1658606 1661034 1666189 
2616.649 1670447 1672808 1676068 1684849 1703776 1734613 1775467 1820383 
2620.506 1861677 1892126 1908100 1910763 1905072 1898349 1896552 1902576 
2624.364 1914789 1928601 1938386 1940549 1935291 1926837 1921179 1924042 
2628.221 1938486 1963415 1994836 2027159 2056254 2080158 2100534 2120312 
2632.079 2143220 2171158 2203727 2237996 2270270 2296118 2312340 2317237 
2635.936 2311074 2295652 2274134 2250753 2229670 2215016 2208989 2211819 
2639.793 2221411 2234066 2245757 2253517 2255948 2253917 2249753 2246090 
2643.651 2244957 2247355 2253450 2263176 2276399 2293286 2312973 2333160 
2647.508 2350016 2358378 2353514 2333460 2299682 2257514 2214683 2179017 
2651.366 2155374 2144186 2142021 2142887 2141056 2133564 2121077 2107959 
2655.223 2099802 2101400 2114452 2137393 2165797 2194302 2218546 2236498 
2659.081 2249387 2260811 2275400 2297350 2328863 2369072 2414683 2460599 
2662.938 2501021 2531448 2550278 2558944 2561177 2562277 2567210 2578476 
2666.795 2595675 2615909 2635043 2649411 2657378 2659879 2659712 2660345 
2670.653 2664379 2672614 2683982 2696785 2709488 2721991 2735261 2750700 
2674.510 2768940 2788748 2806589 2818228 2818795 2805622 2778643 2741130 
2678.368 2698119 2656011 2620609 2596042 2584142 2584842 2596109 2614742 
2682.225 2636976 2659445 2679015 2693651 2701453 2701319 2692184 2673414 
2686.083 2644744 2607375 2564244 2520083 2480559 2451802 2437540 2438573 
2689.940 2451535 2470696 2488924 2500354 2501987 2494122 2479526 2460766 
2693.797 2439973 2416882 2389795 2357145 2319169 2278597 2240627 2210720 
2697.655 2192770 2187575 2192437 2202295 2212552 2220578 2226673 2234066 
2701.512 2246789 2267373 2296018 2329529 2363076 2391994 2413184 2426345 
2705.370 2433309 2437141 2440439 2444605 2449336 2453101 2454201 2451369 
2709.227 2443638 2430976 2413550 2391927 2366973 2340755 2315771 2295751 
2713.084 2284027 2283061 2292654 2310608 2332327 2352115 2364941 2367906 
2716.942 2360710 2346085 2328863 2315505 2311307 2320968 2346085 2385863 
2720.799 2436141 2490690 2541780 2581942 2606042 2612009 2602108 2582076 
2724.657 2559977 2544113 2540113 2550345 2573210 2604409 2637943 2668513 
2728.514 2692717 2708788 2716590 2716289 2707487 2688917 2659479 2619042 
2732.372 2569377 2514518 2460466 2412951 2377334 2356246 2349650 2355546 
2736.229 2370938 2392893 2418748 2446970 2475628 2502221 2523816 2536947 
2740.086 2539013 2529715 2511052 2487724 2465597 2450269 2445338 2451435 
2743.944 2465931 2484325 2501054 2511785 2514284 2508819 2497955 2485558 
2747.801 2475961 2472129 2475694 2486225 2501887 2520217 2539013 2557211 
2751.659 2574976 2593575 2614575 2638810 2665546 2692084 2714489 2728926 
2755.516 2732661 2725492 2709321 2688083 2666213 2646777 2631309 2619175 
2759.374 2608842 2598309 2586976 2575509 2565677 2559611 2558844 2563877 
2763.231 2573710 2587109 2602408 2618675 2635476 2653045 2671514 2691184 
2767.088 2711988 2733828 2756702 2780811 2806455 2833502 2861351 2888701 
2770.946 2913885 2935101 2951047 2961455 2966493 2967727 2966293 2963557 
2774.803 2960187 2956384 2952048 2947544 2943674 2942373 2946944 2960855 
2778.661 2987611 3029383 3086042 3154657 3229658 3303938 3369916 3422345 
2782.518 3458281 3478655 3486905 3488441 3488307 3490412 3496624 3507647 
2786.375 3522979 3542421 3566306 3595438 3630887 3673757 3724452 3782572 
2790.233 3847586 3917759 3990619 4062554 4128814 4184212 4224895 4249019 
2794.090 4258756 4259860 4260696 4269263 4291314 4327757 4374879 4425187 
2797.948 4470947 4506769 4531444 4548219 4563186 4583712 4614319 4656851 
2801.805 4709704 4769162 4831342 4892861 4952579 5010763 5068721 5128496 
2805.663 5192271 5262024 5339671 5426558 5522927 5627473 5736711 5846749 
2809.520 5952851 6051889 6142919 6227681 6309670 6393591 6483784 6583011 
2813.377 6692456 6811588 6938800 7071808 7208056 7345190 7481289 7615171 
2817.235 7747206 7879752 8016492 8162356 8322352 8499810 8695728 8908679 
2821.092 9135371 9371661 9613635 9858930 10106535 10356283 10609468 10867659 
2824.950 11133074 11408516 11697169 12001956 12325261 12668013 13029302 
2828.325 13407055 13798853 14203364 14620999 15053854 15505306 15978266 
2831.700 16474351 16993228 17533630 18094328 18676432 19284432 19925300 
2835.075 20608738 21344618 22140566 23002638 23934724 24940328 26025692 
2838.451 27200616 28480288 29884762 31436112 33156536 35065488 37176432 
2841.826 39495456 42021176 44745028 47650284 50715364 53913744 57212388 
2845.201 60576428 63966884 67341296 70659040 73876616 76951176 79842048 
2848.576 82506368 84901200 86983992 88710728 90039952 90934944 91366640 
2851.952 91319168 90793056 89808176 88400208 86621104 84531552 82191080 
2855.327 79659144 76987176 74218952 71395880 68554376 65729036 62952332 
2858.702 60250432 57643100 55142848 52755220 50481612 48322560 46279260 
2862.077 44355276 42556056 40886996 39354064 37960772 36709612 35601532 
2865.453 34635912 33809768 33117198 32548278 32088186 31718076 31417872 
2868.828 31165758 30942574 30731702 30518942 30292536 30041782 29756398 
2872.203 29428402 29053110 28631138 28169554 27682748 27189750 26710984 
2875.578 26266850 25873038 25539702 25271588 25068400 24926748 24841590 
2878.954 24807980 24821276 24878290 24976404 25114598 25292448 25510078 
2882.329 25768178 26066750 26405278 26781812 27193666 27637300 28109490 
2885.704 28607214 29128718 29673090 30240454 30831398 31446192 32085224 
2889.079 32747674 33432140 34136148 34856768 35591136 36336800 37092668 
2892.455 37859028 38637464 39430436 40239760 41066436 41909648 42767152 
2895.830 43635512 44511748 45393424 46279520 47169932 48065804 48968608 
2899.205 49880208 50803480 51742120 52700712 53685272 54701832 55756672 
2902.580 56855180 58001148 59197084 60443348 61738156 63078096 64457504 
2905.956 65871344 67314712 68786080 70288152 71828712 73418408 75069056 
2909.331 76790648 78588208 80461312 82403448 84405896 86456880 88544288 
2912.706 90656104 92777136 94889856 96972728 98999120 100941864 102772584 
2916.081 104463360 105988664 107323648 108444624 109331264 109966888 
2918.974 110341624 110453520 110308776 109918488 109295680 108452664 
2921.867 107399120 106143352 104695304 103068984 101285296 99371592 97358304 
2925.243 95277632 93158632 91023152 88886992 86757880 84638360 82526920 
2928.618 80421992 78322496 76231040 74153424 72098960 70079520 68105584 
2931.993 66186504 64326996 62526464 60779476 59077448 57411828 55774872 
2935.368 54164184 52581280 51032192 49524220 48064844 46658900 45308276 
2938.744 44011600 42766164 41569576 40421040 39321704 38274472 37282928 
2942.119 36349196 35474164 34656508 33893552 33181890 32519140 31903822 
2945.494 31336456 30818770 30353078 29941664 29585328 29283016 29031464 
2948.869 28825308 28657860 28522180 28411444 28319304 28239630 28166370 
2952.245 28092098 28008756 27908574 27784784 27633628 27454568 27249544 
2955.620 27021170 26770746 26495780 26191106 25848630 25462188 25029474 
2958.995 24554728 24048246 23523920 22996104 22474582 21962364 21456038 
2962.370 20947176 20426334 19887456 19329742 18759006 18185810 17621578 
2965.746 17076826 16557816 16064970 15594321 15139483 14694203 14254481 
2969.121 13820505 13396598 12989596 12606406 12251944 11927059 11628893 
2972.496 11350488 11084464 10824651 10567809 10314309 10067095 9830493 
2975.871 9607809 9400914 9210194 9034917 8873947 8726086 8589224 8460042 
2979.729 8333532 8203987 8066649 7920345 7768659 7620398 7486616 7377442 
2983.586 7298115 7246160 7212099 7181915 7142773 7086323 7012639 6929878 
2987.444 6852114 6793750 6767095 6777831 6825220 6902474 7000113 7108249 
2991.301 7218601 7326387 7430660 7534048 7642182 7762317 7901786 8066548 
2995.158 8260042 8482477 8731562 9003556 9294203 9600424 9919370 10248658 
2999.016 10584614 10921544 11252648 11569816 11866442 12137954 12382703 
3002.391 12601187 12794529 12962762 13104629 13216686 13295564 13338784 
3005.766 13346232 13320538 13264954 13183076 13076798 12945591 12787602 
3009.142 12600402 12382804 12135331 11860619 11562091 11243774 10908667 
3012.517 10559117 10197468 9826223 9449471 9072673 8701475 8341808 7998469 
3016.374 7673815 7368410 7080867 6808492 6548228 6297400 6054342 5818943 
3020.232 5592230 5376202 5173124 4984385 4810134 4648612 4496960 4351652 
3024.089 4209805 4070280 3933674 3802593 3680307 3569981 3472876 3388984 
3027.947 3315557 3248653 3183695 3116644 3045432 2970463 2894705 2823897 
3031.804 2764538 2722625 2701453 2700686 2716123 2740063 2763504 2778977 
3035.661 2781245 2768773 2743264 2708288 2667080 2621609 2572176 2517950 
3039.519 2458100 2393926 2328663 2268005 2218247 2184245 2168361 2169759 
3043.376 2184012 2204926 2225940 2241860 2249454 2248021 2238962 2224308 
3047.234 2206158 2185910 2163899 2139857 2113886 2086484 2059117 2034283 
3051.091 2014409 2001094 1994870 1994237 1997133 2000894 2003724 2004922 
3054.948 2004456 2002992 2000362 1995968 1988578 1977794 1964380 1951400 
3058.806 1943245 1943977 1955760 1977295 2003890 2028191 2043238 2044902 
3062.663 2032951 2011347 1986681 1965712 1952631 1948337 1950867 1956858 
3066.521 1963348 1969606 1976329 1984917 1996101 2008650 2019003 2023231 
3070.378 2017738 2001261 1974898 1941947 1906969 1873657 1844374 1819951 
3074.236 1799854 1783185 1769478 1758765 1751746 1748752 1750083 1755206 
3078.093 1762758 1771009 1777563 1779792 1775699 1763889 1744028 1717880 
3081.950 1688309 1659204 1634060 1615236 1602665 1594949 1589029 1582112 
3085.808 1572469 1560032 1546165 1533131 1522524 1515574 1512116 1511651 
3089.665 1513546 1517869 1524452 1533230 1542940 1551918 1557904 1559267 
3093.523 1555775 1548526 1539681 1531535 1525017 1519431 1512682 1502408 
3097.380 1487645 1469692 1452338 1440835 1440170 1453302 1480131 1517071 
3101.238 1558735 1598840 1632164 1656244 1669914 1674039 1670380 1660402 
3105.095 1645634 1627508 1607719 1588098 1571504 1560397 1557371 1564055 
3108.952 1580017 1603862 1631599 1657841 1676534 1681556 1669083 1637885 
3112.810 1590925 1533696 1475244 1423848 1386085 1364945 1358663 1362087 
3116.667 1368103 1370529 1365544 1353113 1336494 1321239 1312831 1314958 
3120.525 1328252 1350587 1376878 1401143 1417532 1422219 1414008 1394063 
3124.382 1366640 1336893 1310405 1292027 1284682 1289202 1303858 1325659 
3128.240 1350454 1374086 1393498 1406595 1412645 1411614 1404202 1391105 
3132.097 1372856 1349855 1322801 1291927 1258263 1223008 1187721 1154265 
3135.954 1124599 1100183 1082412 1071583 1067099 1067929 1072546 1079688 
3139.812 1088690 1099884 1114567 1133768 1158219 1187290 1218854 1249125 
3143.669 1273417 1288205 1291129 1282688 1265807 1245536 1227959 1218322 
3147.527 1220283 1234538 1258496 1286676 1313097 1330678 1334500 1322701 
3151.384 1297078 1262849 1227925 1201012 1189183 1197058 1224802 1268631 
3155.241 1321837 1375981 1423349 1457657 1475244 1475477 1459851 1432025 
3159.099 1396789 1360259 1328219 1306317 1298474 1306317 1328318 1359561 
3162.956 1394030 1424679 1446586 1457823 1460416 1458821 1458255 1463043 
3166.814 1474513 1490039 1504669 1512216 1507428 1487246 1451739 1403570 
3170.671 1347761 1289002 1232743 1183236 1143535 1116460 1103372 1104468 
3174.529 1118785 1144066 1176757 1212475 1247131 1277072 1299969 1315091 
3178.386 1323632 1327321 1329116 1331542 1336295 1343474 1351418 1357001 
3182.243 1356536 1346731 1326224 1296247 1260756 1225466 1195994 1177189 
3186.101 1170611 1175063 1187223 1203204 1219452 1233906 1246035 1256469 
3189.958 1265375 1273084 1278900 1281791 1281392 1278069 1273383 1269263 
3193.816 1268365 1272519 1282788 1299205 1320774 1345269 1370130 1391603 
3197.673 1406395 1412213 1408589 1397886 1384889 1375316 1373920 1381897 
3201.531 1395925 1408822 1410783 1393465 1353777 1294818 1226596 1162604 
3205.388 1116792 1098057 1108155 1141475 1187755 1234538 1271788 1293788 
3209.245 1300567 1295749 1284250 1271290 1259194 1248893 1239555 1230318 
3213.103 1220682 1210780 1201277 1192838 1185628 1179814 1175927 1175129 
3216.960 1178850 1188984 1206062 1229188 1254907 1278435 1294220 1297876 
3220.818 1288105 1266538 1238126 1209119 1185030 1169282 1161574 1158651 
3224.675 1155328 1146591 1130047 1106395 1079821 1057002 1044114 1045908 
3228.532 1063678 1095300 1135927 1179448 1220416 1254010 1277305 1287906 
3232.390 1284782 1266870 1235103 1191210 1138950 1083707 1031659 987954 
3236.247 955111 933427 919182 907461 892487 870507 839765 801755 760694 
3240.587 722691 694082 681837 690797 723653 779647 854273 939238 1023821 
3244.927 1097924 1154299 1190413 1209584 1219220 1228258 1242911 1264411 
3248.784 1288670 1307812 1312964 1299105 1266936 1223971 1181475 1151840 
3252.641 1143502 1158086 1189881 1227526 1258297 1271124 1260855 1228955 
3256.499 1183236 1134266 1093672 1069989 1067498 1084604 1115165 1150511 
3260.356 1180678 1197490 1197257 1180611 1152903 1122572 1099419 1090483 
3264.214 1099353 1124366 1159182 1194433 1220748 1231281 1222974 1197157 
3268.071 1158817 1114666 1070919 1031892 999677 974006 953251 936117 922702 
3272.411 914268 913737 923665 945281 977858 1017046 1056603 1089653 1110315 
3276.750 1115663 1106295 1086597 1063047 1041956 1028205 1023522 1026777 
3280.608 1035147 1045144 1055839 1067498 1082013 1101910 1128253 1159514 
3284.465 1191742 1218887 1235634 1238326 1227261 1205896 1180844 1159880 
3288.323 1149315 1153335 1172272 1203105 1240486 1278169 1310072 1331609 
3292.180 1340416 1335830 1318747 1290598 1253345 1208853 1158850 1105896 
3296.037 1052983 1003629 962317 932165 915397 912674 922004 940500 964641 
3300.377 991640 1019537 1047768 1076665 1106229 1135827 1163933 1187821 
3304.234 1205364 1214933 1216296 1210581 1199815 1186592 1173103 1160578 
3308.092 1149847 1141043 1133801 1127522 1121875 1116527 1111112 1106528 
3311.949 1103903 1105299 1113138 1129250 1154431 1187024 1224004 1260623 
3315.807 1291495 1312133 1320109 1315257 1299936 1278368 1256037 1238027 
3319.664 1228856 1231082 1245437 1269794 1300036 1330645 1354974 1368402 
3323.521 1368003 1353777 1329116 1298740 1267933 1240220 1217326 1198785 
3327.379 1182771 1167521 1152970 1139781 1130545 1127489 1131475 1141741 
3331.236 1155926 1170179 1181442 1187655 1188685 1185728 1181043 1177023 
3335.094 1175262 1176757 1181841 1189881 1200214 1211445 1221147 1226530 
3338.951 1223772 1209816 1182538 1142305 1092011 1037605 986260 945879 
3342.809 922868 920012 937146 969722 1011101 1052484 1085999 1105797 1109351 
3347.148 1098090 1077396 1054776 1038069 1033420 1042952 1064143 1089653 
3351.006 1109916 1115563 1099984 1062349 1007714 945979 888303 844512 819647 
3355.345 813074 818684 828876 837275 841657 845077 853974 875554 913869 
3359.685 967696 1029799 1089620 1135429 1158784 1156757 1132306 1092609 
3363.542 1045576 998813 956804 920842 890893 866125 846869 834818 832063 
3367.882 840562 860846 891955 930438 971316 1009341 1039033 1056769 1060356 
3372.221 1051123 1032888 1011599 993931 984898 986293 996090 1008843 1017577 
3376.561 1016681 1004027 982208 957136 935784 924229 924993 936382 953716 
3380.901 971980 986957 996854 1001835 1003762 1004426 1004824 1005887 
3384.758 1008378 1013592 1023456 1039464 1062050 1089786 1119649 1148352 
3388.615 1172970 1192506 1207690 1219452 1228025 1231780 1227493 1211112 
3392.473 1180379 1136326 1083209 1028106 977924 938640 913405 903410 908092 
3396.813 926620 958000 1000673 1051355 1105066 1155594 1196792 1224470 
3400.670 1237794 1238891 1231979 1220549 1206328 1188020 1163235 1130379 
3404.527 1090350 1047137 1007116 976862 960125 957535 966966 984965 1008477 
3408.867 1035579 1065737 1097227 1126526 1148385 1157156 1149116 1125197 
3412.724 1091181 1055806 1027441 1011334 1006917 1009607 1013824 1015618 
3416.582 1015950 1018806 1030098 1053149 1086298 1123071 1154299 1172937 
3420.439 1176492 1168817 1157156 1148950 1147189 1149050 1147986 1136027 
3424.297 1109783 1070886 1026611 986193 957601 943355 940134 940467 936880 
3428.636 924229 902846 877546 856198 846039 851617 873661 909752 954945 
3432.976 1002931 1048499 1086829 1114334 1129250 1131974 1124732 1111245 
3436.833 1096629 1084604 1078027 1077628 1083076 1093473 1108056 1126459 
3440.691 1148518 1171741 1192705 1205995 1206793 1192041 1162737 1124101 
3444.548 1084338 1052551 1035545 1036508 1053115 1079954 1108587 1132339 
3448.406 1146857 1151209 1146990 1137322 1125895 1115763 1109119 1107458 
3452.263 1111677 1121443 1136093 1154365 1174631 1195263 1214933 1232378 
3456.120 1247231 1259327 1269263 1278335 1288670 1302528 1321040 1344172 
3459.978 1369931 1394828 1415171 1428701 1435782 1440004 1446121 1458787 
3463.835 1479599 1506497 1534261 1556274 1568345 1570141 1565452 1561362 
3467.693 1565219 1580583 1607187 1640080 1671943 1695726 1706138 1700782 
3471.550 1679394 1642474 1591657 1529074 1458754 1387315 1324463 1280229 
3475.407 1262218 1273217 1309208 1360790 1415105 1461746 1493563 1509589 
3479.265 1513579 1512748 1514178 1523122 1541942 1570706 1607420 1649226 
3483.122 1692832 1734414 1769312 1792834 1800885 1790937 1762824 1718845 
3486.980 1663162 1600569 1535458 1471587 1412313 1361023 1321139 1295649 
3490.837 1286178 1290963 1305021 1321073 1331741 1331010 1316420 1289567 
3494.695 1254110 1214236 1172804 1130977 1088922 1047535 1010171 981610 
3498.552 968726 976164 1005422 1052983 1110946 1169216 1216927 1246899 
3502.409 1256735 1248893 1230085 1208288 1190745 1181940 1183203 1193104 
3506.267 1208255 1223805 1235269 1239256 1233906 1220748 1202573 1184332 
3510.124 1169481 1160046 1154631 1150511 1144531 1134997 1122971 1111942 
3513.982 1105764 1107657 1117457 1131243 1142870 1145196 1133668 1108089 
3517.839 1072812 1036276 1008378 997551 1008477 1041026 1090982 1150711 
3521.697 1210880 1263580 1302894 1326490 1336328 1336960 1334567 1334002 
3525.554 1338522 1347994 1360026 1370463 1374983 1370463 1356436 1334666 
3529.411 1309175 1285048 1266671 1257499 1259327 1271290 1291129 1314027 
3533.269 1334567 1346399 1344404 1326158 1291894 1246434 1198054 1156192 
3537.126 1129615 1123901 1140312 1175860 1224004 1276773 1325792 1363616 
3540.984 1385387 1389044 1375349 1347861 1312432 1276274 1246566 1229553 
3544.841 1229022 1244971 1273682 1308876 1342510 1367006 1377543 1371859 
3548.698 1351285 1318879 1279897 1240585 1206095 1181309 1168817 1168418 
3552.556 1177222 1191642 1207856 1224104 1240153 1257067 1276009 1297410 
3556.413 1320043 1342576 1363350 1381465 1397753 1413842 1431593 1452072 
3560.271 1474346 1496523 1515907 1530338 1539382 1544237 1546830 1549391 
3564.128 1552384 1554711 1553414 1544602 1524618 1492001 1448780 1400213 
3567.986 1352248 1310471 1278135 1256801 1246766 1247862 1258994 1277836 
3571.843 1301232 1324463 1342676 1351052 1346698 1328119 1296845 1256502 
3575.700 1212774 1172604 1143568 1132306 1143402 1178252 1233906 1303426 
3579.558 1377576 1447185 1505732 1550654 1583609 1608983 1631466 1653750 
3583.415 1676733 1698421 1715652 1725831 1727394 1720442 1706437 1686745 
3587.273 1662397 1633960 1602066 1568312 1534926 1504702 1479865 1460749 
3591.130 1447451 1439505 1436380 1439705 1452105 1476674 1515242 1566549 
3594.988 1625047 1682255 1729590 1761094 1774968 1773604 1761959 1746057 
3598.845 1730322 1716716 1704741 1691768 1674604 1650956 1620258 1583908 
3602.702 1544636 1505899 1471820 1445921 1431361 1430031 1441201 1462444 
3606.560 1488011 1511551 1526647 1530171 1522823 1509290 1495326 1485950 
3610.417 1484387 1491835 1508525 1533995 1567281 1605392 1643938 1677032 
3614.275 1699718 1708965 1705506 1693165 1677864 1665291 1660269 1663063 
3618.132 1670147 1674771 1670846 1656610 1636488 1618295 1609881 1615335 
3621.990 1634027 1662530 1696026 1730688 1765386 1801684 1843875 1896852 
3625.847 1964447 2047599 2142121 2237497 2314172 2347751 2320834 2236431 
3629.704 2117848 1995036 1889797 1811167 1760728 1735844 1731553 1741300 
3633.562 1757568 1773271 1782986 1784250 1777529 1764521 1747388 1728126 
3637.419 1708367 1690737 1678729 1676899 1688974 1717348 1760762 1814327 
3641.277 1870396 1920880 1961351 1991341 2015974 2042938 2079825 2130867 
3645.134 2195401 2266906 2334759 2385530 2408053 2397191 2356446 2294852 
3648.991 2222943 2147982 2073666 2002892 1939917 1890629 1860379 1852426 
3652.849 1866502 1900213 1948870 2005621 2060915 2103864 2124440 2117282 
3656.706 2084054 2032485 1972235 1910796 1852693 1800353 1753942 1713024 
3660.564 1677199 1645800 1618961 1596379 1578754 1565552 1556374 1549457 
3664.421 1542707 1534893 1526281 1519099 1517769 1528376 1556507 1605990 
3668.279 1675303 1756270 1833193 1887267 1907002 1893990 1862076 1828036 
3672.136 1806542 1807041 1834890 1892392 1978260 2083321 2187842 2267972 
3675.993 2308010 2308309 2279230 2230070 2165563 2086817 1994503 1892925 
3679.851 1790006 1697822 1627541 1587001 1578887 1601002 1646599 1707103 
3683.708 1773537 1838983 1899481 1954461 2005089 2053059 2099635 2144485 
3687.566 2187442 2228105 2267106 2303579 2333826 2349350 2340189 2297350 
3691.423 2218114 2108958 1984118 1860479 1754507 1677997 1635324 1624515 
3695.281 1638317 1667320 1702712 1738938 1774435 1810568 1848866 1888898 
3699.138 1927403 1958888 1976962 1977162 1959387 1927536 1888565 1848500 
3702.995 1810202 1773371 1735478 1695493 1653783 1613340 1579253 1556773 
3706.853 1550488 1563158 1595215 1645168 1709065 1782154 1857085 1925240 
3710.710 1978127 2008484 2014409 1998897 1969639 1935324 1902908 1875920 
3714.568 1855188 1839582 1827271 1817056 1808205 1800985 1796793 1797725 
3718.425 1805976 1823644 1851994 1891128 1939052 1991374 2041873 2083155 
3722.282 2109191 2117615 2110023 2092011 2069704 2048797 2032086 2019170 
3726.140 2007519 1994570 1979458 1964247 1952298 1947971 1954395 1973067 
3729.997 2003657 2043904 2090313 2138126 2182647 2220512 2249520 2269071 
3733.855 2279264 2280429 2273568 2261177 2246556 2232268 2218080 2200763 
3737.712 2175254 2136228 2081024 2009982 1927702 1842011 1762891 1700550 
3741.570 1663828 1661632 1702778 1794797 1937121 2110856 2278497 2399457 
3745.427 2456300 2457133 2422780 2373736 2327530 2298783 2297350 2328496 
3749.284 2386363 2454034 2505053 2515817 2475094 2389895 2280096 2169626 
3753.142 2077095 2010381 1968774 1946008 1934192 1925839 1915954 1903075 
3756.999 1889331 1879214 1877916 1888299 1908866 1933227 1951999 1957224 
3760.857 1944510 1916054 1877717 1838151 1805078 1784084 1777596 1784183 
3764.714 1798690 1814161 1825441 1831363 1836388 1846903 1869297 1906736 
3768.572 1956658 2009716 2051094 2067207 2049729 2000096 1927536 1845505 
3772.429 1766251 1701082 1658040 1641244 1651621 1685781 1737507 1797625 
3776.286 1856952 1906935 1941248 1955660 1949036 1923842 1885038 1840214 
3780.144 1796893 1760795 1735977 1724534 1726762 1742298 1768513 1800719 
3784.001 1831363 1852726 1857983 1844673 1814427 1772971 1727195 1683585 
3787.859 1647230 1621255 1607653 1607154 1620124 1645900 1681822 1723968 
3791.716 1766118 1801451 1824908 1834358 1831962 1823311 1817089 1821548 
3795.573 1842178 1878549 1923842 1968075 2001926 2020967 2025062 2017172 
3799.431 2001594 1982221 1962450 1944111 1928501 1916487 1908899 1906736 
3803.288 1910995 1922411 1941448 1967742 1999563 2032052 2058086 2069005 
3807.146 2058385 2026659 1980190 1928734 1881244 1845272 1824609 1820317 
3811.003 1829600 1847635 1867733 1883940 1892692 1893258 1886935 1876419 
3814.861 1864705 1853791 1844673 1838284 1836022 1841113 1857318 1887733 
3818.718 1933826 1992839 2057153 2111555 2138292 2126605 2081224 2019769 
3822.575 1962217 1921945 1902942 1904406 1922111 1950834 1985183 2020002 
3826.433 2051760 2077894 2098370 2114085 2126172 2135229 2140756 2141222 
3830.290 2134263 2117681 2091345 2057952 2024163 1998132 1988046 1999829 
3834.148 2035215 2091378 2160802 2233234 2297550 2343620 2366074 2364808 
3838.005 2344953 2314105 2279663 2246989 2218546 2194802 2175320 2158571 
3841.863 2142854 2125706 2104663 2078527 2047865 2015907 1986415 1962716 
3845.720 1945475 1932795 1920580 1903940 1879347 1846437 1808904 1773138 
3849.577 1747355 1739304 1754607 1795861 1863075 1953230 2058152 2163732 
3853.435 2252251 2310541 2335092 2330062 2302713 2259745 2208123 2155341 
3857.292 2108192 2073633 2055089 2053292 2065510 2087316 2113952 2142088 
3861.150 2170425 2199564 2229837 2260345 2288124 2307876 2314938 2307576 
3865.007 2289423 2268338 2253750 2252151 2266007 2293353 2328596 2362109 
3868.865 2381865 2378501 2349783 2304479 2256881 2220012 2199897 2195834 
3872.722 2202195 2210121 2209721 2193403 2159137 2111688 2060183 2014276 
3876.579 1982254 1969539 1978426 2008318 2054523 2108192 2156273 2185311 
3880.437 2186010 2158304 2110223 2055389 2007286 1976030 1967842 1984684 
3884.294 2023098 2072900 2118913 2145584 2144352 2117282 2074532 2028557 
3888.152 1989178 1962916 1952997 1958655 1976030 1998930 2020834 2036813 
3892.009 2045801 2049130 2049263 2048065 2046267 2044037 2041973 2041840 
3895.866 2046400 2058485 2080291 2111555 2149247 2186843 2216448 2231935 
3899.724 2230236 2213684 2188341 2161767 2139591 2124407 2115484 2109657 
3903.581 2102798 2091645 2074831 2052193 2025128 1994570 1961385 1926105 
3907.439 1889430 1852626 1817222 1785115 1758167 1737973 1726097 1723735 
3911.296 1731686 1750049 1777729 1812797 1851295 1889164 1922344 1947605 
3915.154 1963981 1972968 1978393 1985649 1999197 2021233 2050595 2083388 
3919.011 2114951 2141455 2161035 2174355 2184045 2192870 2203127 2215016 
3922.868 2226506 2234166 2233367 2220878 2195368 2158970 2115750 2071136 
3926.726 2030488 1997433 1974898 1964513 1965911 1978193 1998598 2023797 
3930.583 2049663 2072001 2087549 2093143 2087649 2071003 2045335 2013910 
3934.441 1981688 1953962 1935391 1929733 1938453 1959920 1990442 2024762 
3938.298 2058019 2087449 2113453 2138958 2168394 2205025 2249287 2297883 
3942.156 2343653 2377901 2393293 2387029 2361010 2320868 2273701 2226739 
3946.013 2185177 2152144 2128603 2113120 2102865 2093575 2081090 2062247 
3949.870 2035248 2000329 1959887 1917785 1878582 1847635 1829500 1827737 
3953.728 1844440 1879281 1929766 1990409 2053857 2111522 2155674 2181181 
3957.585 2186909 2175653 2152976 2125939 2098836 2073833 2049829 2024296 
3961.443 1995402 1964513 1936456 1918783 1918384 1938519 1977361 2028257 
3965.300 2081490 2127470 2159470 2175154 2176619 2167861 2153276 2136028 
3969.157 2117282 2098004 2079559 2064944 2057386 2059251 2070637 2087782 
3973.015 2105428 2117681 2121410 2117781 2112054 2111122 2120711 2142954 
3976.872 2175121 2210987 2243292 2265840 2275933 2273501 2260744 2239995 
3980.730 2212985 2181048 2145817 2110389 2079559 2058551 2051427 2058984 
3984.587 2077861 2101999 2123075 2134329 2132365 2117914 2094907 2069138 
3988.445 2047000 2032985 2030121 2039642 2060882 2091678 2128469 2166263 
3992.302 2199331 2222210 2231369 2226040 2208522 2182980 2154775 2127104 
3996.159 2101833 2078494 2056221 2034982 2016640 2004490 2001993 2010515 
4000.017 2028490 2051228 
##END=
