##TITLE=mas_5 Sep 20 Sep 20 09:07:38 2026 (GMT+02:00)
##JCAMP-DX=5.01  $$ Nicolet v. 970
##DATATYPE=INFRARED SPECTRUM
##ORIGIN=Vojna akademija
##OWNER=Nicolet
##LONGDATE=2026/09/20
##TIME=09:08:50
##SPECTROMETER/DATA SYSTEM=Nicolet iS20
##DATA PROCESSING=
Ratio against background
%Transmittance->Absorbance
Truncated
ElementMultiply or ElementDivide
##COMMENTS=
Number of sample scans: 8
Collection length: 11,90 sec
Sample gain: 8,0
Background collected on: Sun Sep 20 09:06:42 2026 (GMT+02:00);
Number of background scans: 8
Background gain: 8,0
Sample spacing:  1,000
Number of scan points: 12415
Resolution points: 8286
Number of FFT points: 65536
Apodization: N-B strong;
Phase correction: Mertz;
Laser frequency: 15798,00 cm-1
Number of rejected sample scans: 0
Number of rejected background scans: 0
Bench serial number: BER2010005;
##RESOLUTION= 4,000
##XUNITS=1/CM
##YUNITS=ABSORBANCE
##FIRSTX=400.156891
##LASTX=4000.123047
##FIRSTY=0.039317
##MAXX=4000.123047
##MINX=400.156891
##MAXY=0.227083
##MINY=0.002763
##XFACTOR=1.000000
##YFACTOR=1.000000E-009
##NPOINTS=7468
##DELTAX=0.482117
##ZPD=6100
##XYDATA=(X++(Y..Y))
400.157 39316880 33240874 27733532 23523186 21028026 20258970 20884834 
403.532 22339354 23995474 25335052 26016088 25968388 25350930 24451518 
406.907 23524410 22705150 21981428 21246870 20386258 19370864 18285464 
410.281 17316238 16661817 16448196 16690360 17282618 18030806 18701166 
413.656 19107984 19137174 18770042 18050666 17052670 15852882 14523962 
417.031 13169482 11935709 11016387 10604138 10780660 11449745 12382123 
420.406 13363726 14275984 15102979 15893642 16722452 17658984 18749078 
423.781 20002492 21375074 22771420 24041626 25019468 25539314 25468686 
427.155 24754554 23443652 21693558 19730632 17813162 16142614 14813837 
430.530 13815340 13056549 12432821 11879246 11406917 11091807 11044255 
433.905 11353821 12069166 13173854 14589199 16176384 17772880 19224650 
437.280 20407024 21254140 21758940 21977210 22015690 22021582 22147716 
440.655 22491366 23049908 23690588 24193746 24313712 23911442 23022902 
444.030 21859560 20711662 19841464 19397542 19368126 19614732 19940946 
447.404 20200372 20350978 20473638 20708084 21178500 21911934 22822752 
450.779 23729816 24443318 24839590 24929484 24853764 24829240 25037230 
454.154 25534782 26230280 26904224 27289800 27130104 26294976 24850746 
457.529 23099702 21464742 20339102 19917182 20133628 20732968 21380852 
460.904 21788204 21748524 21206680 20256678 19120102 18055294 17274240 
464.278 16893764 16911540 17237212 17731460 18261344 18711058 19004332 
467.653 19105352 19004506 18716316 18278484 17757934 17245694 16844954 
471.028 16647907 16694525 16948816 17294584 17586004 17691356 17550466 
474.403 17180434 16643878 16005734 15307529 14569702 13807131 13057301 
477.778 12394499 11908430 11674535 11709866 11954918 12279108 12524311 
481.152 12566602 12355055 11940137 11450086 11049761 10865179 10951956 
484.527 11285906 11793203 12392044 13032887 13708086 14435714 15227598 
487.902 16063733 16884188 17602738 18130150 18392334 18347158 17979172 
491.277 17297202 16334545 15163465 13905856 12713525 11753030 11144666 
494.652 10926166 11042556 11365930 11739175 12021167 12145417 12126233 
498.027 12039187 11968031 11963433 12020384 12093491 12131889 12121395 
501.401 12101838 12152197 12335453 12651331 13015031 13294505 13360925 
504.776 13152235 12703528 12142895 11638287 11325083 11261320 11399467 
508.151 11623482 11802429 11861743 11804609 11703569 11650709 11720112 
511.526 11930056 12242810 12585736 12891454 13124572 13284221 13389832 
514.901 13455618 13471887 13403570 13203091 12837050 12311557 11680661 
518.276 11041231 10502935 10174131 10128614 10391270 10931432 11665174 
521.650 12469033 13189531 13689107 13864701 13680422 13182154 12492767 
525.025 11778666 11188046 10818773 10679825 10710932 10820812 10944378 
528.400 11068557 11228914 11477302 11846556 12319500 12829782 13278072 
531.775 13575151 13679875 13605748 13408046 13150390 12878415 12601836 
535.150 12305115 11972833 11613715 11271079 11011356 10888349 10919811 
538.524 11067979 11254859 11388141 11409502 11320423 11186754 11109992 
541.899 11189168 11481962 11978998 12607702 13256789 13821770 14223666 
545.274 14436468 14485488 14437735 14375568 14374233 14487681 14733071 
548.649 15090869 15506028 15904194 16199462 16318135 16220236 15904915 
552.024 15411505 14805986 14171594 13586500 13114122 12800023 12666580 
555.398 12718983 12946684 13327338 13822421 14377212 14927811 15402304 
558.773 15738973 15898246 15866112 15657555 15309863 14878329 14421430 
562.148 13999436 13667428 13466350 13425031 13554332 13846262 14274443 
565.523 14799643 15376626 15957298 16501402 16974760 17349444 17605980 
568.898 17733738 17736810 17636588 17474262 17303238 17176194 17137106 
572.273 17207942 17386448 17649080 17963288 18294796 18614002 18899458 
575.647 19132880 19296694 19377240 19369304 19285160 19157916 19042654 
579.022 19002498 19092472 19344638 19751680 20265184 20806166 21294714 
582.397 21664300 21882244 21951384 21904824 21791130 21659146 21548894 
585.772 21480372 21454124 21455866 21464952 21461748 21435988 21389622 
589.147 21336788 21299516 21297324 21342254 21431392 21545794 21654688 
592.521 21727484 21741070 21685790 21565920 21394738 21188972 20964562 
595.896 20738286 20530120 20364068 20270634 20279730 20412094 20671422 
599.271 21038006 21470590 21913222 22314344 22634564 22854044 22968890 
602.646 22980838 22888934 22685428 22360320 21910782 21351824 20722262 
606.021 20076572 19478242 18983112 18622026 18395516 18272818 18204432 
609.396 18130702 17999272 17777608 17454774 17044262 16581429 16119918 
612.770 15715886 15422422 15276262 15284705 15423384 15638491 15865734 
616.145 16042175 16132366 16136425 16086908 16029352 15999064 16004015 
619.520 16018728 15994526 15880994 15653364 15324106 14946260 14593790 
622.895 14344882 14252324 14329814 14551851 14867186 15215107 15538376 
626.270 15798792 15973797 16055377 16046301 15960220 15821988 15666762 
629.644 15541227 15489958 15544901 15715405 15984900 16316243 16662678 
633.019 16985132 17256346 17463500 17602462 17669268 17655290 17549328 
636.394 17346236 17056218 16709883 16355086 16040284 15801370 15649380 
639.769 15569593 15531336 15506749 15485941 15484258 15535113 15672052 
643.144 15913198 16245965 16627217 16992986 17284238 17460016 17512310 
646.519 17463638 17358720 17248624 17176126 17171266 17245900 17397034 
649.893 17608224 17855628 18109422 18335890 18506974 18605044 18631192 
653.268 18608504 18580560 18601310 18717354 18960336 19333206 19810528 
656.643 20341428 20866028 21327182 21680810 21908938 22021268 22054314 
660.018 22058986 22092904 22200054 22397578 22670134 22973990 23252924 
663.393 23455404 23558900 23574748 23547812 23539486 23623376 23871218 
666.767 24334352 25006168 25776932 26446934 26835172 26908982 26765424 
670.142 26539736 26334544 26222640 26257276 26473700 26890546 27496396 
673.517 28247482 29067848 29873688 30597612 31203174 31697474 32122866 
676.892 32540280 32995954 33504612 34040668 34555072 34997856 35350064 
680.267 35638580 35934008 36320268 36857072 37555816 38368892 39205320 
683.642 39958092 40549828 40949324 41181388 41305596 41397216 41518532 
687.016 41707756 41981868 42338736 42764740 43232556 43703188 44124552 
690.391 44439396 44604376 44606396 44476908 44283724 44119196 44064956 
693.766 44164384 44414732 44771512 45170128 45549644 45878336 46155540 
697.141 46404968 46654876 46926632 47228184 47558964 47920112 48322408 
700.516 48783872 49322320 49941016 50620864 51317964 51980028 52559332 
703.890 53031532 53403520 53711104 54005172 54334848 54739752 55241012 
707.265 55842800 56537548 57311772 58151288 59041236 59968728 60920320 
710.640 61883244 62846364 63799336 64733556 65643892 66529728 67398256 
714.015 68267048 69164280 70119936 71159512 72293736 73515104 74801504 
717.390 76125616 77468056 78819880 80180576 81542360 82872320 84103904 
720.765 85143960 85888896 86265024 86245872 85859936 85170120 84249744 
724.139 83153040 81901784 80496680 78936056 77237072 75445160 73623352 
727.514 71831872 70110632 68465928 66879140 65323280 63783980 62270356 
730.889 60813472 59449600 58206404 57085892 56063968 55094776 54128672 
734.264 53124460 52058688 50930248 49758056 48577500 47428484 46352692 
737.639 45379376 44515272 43739720 43007512 42262840 41454660 40559908 
741.013 39594172 38610592 37678088 36860968 36193120 35666920 35236932 
744.388 34839640 34419900 33944748 33415358 32856878 32305892 31789478 
747.763 31315730 30871774 30432678 29968786 29458046 28892978 28280970 
751.138 27643656 27011718 26423272 25913306 25506424 25209854 25009186 
754.513 24870920 24750940 24612652 24434974 24222194 23997854 23794736 
757.888 23636914 23528118 23450228 23372770 23267850 23123708 22952156 
761.262 22783258 22651564 22578438 22563604 22583640 22603288 22587128 
764.637 22514606 22385262 22216514 22033538 21862138 21722780 21626826 
768.012 21578246 21574764 21606348 21654862 21694602 21698434 21642324 
771.387 21516650 21329514 21105100 20873362 20656376 20459016 20266572 
774.762 20051070 19784900 19455372 19070696 18657340 18247658 17869712 
778.136 17537358 17250658 17002842 16789778 16616097 16493006 16429581 
781.511 16422836 16449848 16472699 16444996 16330762 16117236 15819961 
784.886 15475743 15129087 14819184 14565214 14366801 14209868 14078456 
788.261 13964294 13872877 13820779 13829878 13916222 14083111 14317246 
791.636 14590912 14867425 15106410 15273928 15346761 15317139 15195034 
795.010 15008303 14794981 14594236 14439243 14346869 14316390 14331766 
798.385 14370705 14412285 14443832 14464386 14480178 14500596 14531258 
801.760 14572272 14618257 14662295 14698487 14724125 14739824 14748051 
805.135 14753467 14763134 14789804 14849870 14962208 15140993 15386855 
808.510 15680879 15984282 16247408 16419498 16468776 16391695 16217897 
811.885 15998652 15795667 15665181 15640656 15730349 15916085 16163282 
815.259 16425932 16658889 16824322 16893798 16855184 16714772 16499888 
818.634 16252225 16023507 15861955 15796799 15831850 15942276 16085291 
822.009 16210778 16283356 16293090 16259275 16220821 16221475 16294708 
825.384 16449194 16666843 16908438 17131076 17297032 17387552 17406106 
828.759 17374998 17327202 17297376 17314340 17393552 17536080 17727212 
832.133 17941568 18146110 18308206 18406542 18436998 18417258 18382656 
835.508 18381654 18459194 18645062 18945212 19339580 19789060 20244424 
838.883 20664610 21019958 21297394 21498406 21631840 21708918 21739502 
842.258 21733406 21700976 21654480 21608682 21575530 21561810 21566268 
845.633 21581694 21599000 21613696 21629474 21657752 21712158 21800676 
849.008 21921308 22060032 22195416 22304750 22372390 22391020 22360878 
852.382 22284940 22165566 22004502 21807818 21594578 21400552 21275958 
855.757 21278186 21450016 21805764 22319716 22933050 23560754 24113318 
859.132 24522436 24746906 24781774 24650946 24398136 24071886 23717708 
862.507 23377212 23082928 22861132 22730360 22698482 22763878 22915200 
865.882 23135590 23403822 23696328 23988646 24251974 24456112 24573872 
869.256 24585792 24490186 24307440 24079170 23853576 23674912 23564952 
872.631 23515420 23491532 23445786 23338750 23151316 22893264 22597530 
876.006 22308168 22061808 21879350 21763260 21702474 21680390 21682098 
879.381 21699444 21727240 21762912 21803150 21844194 21884264 21924478 
882.756 21967800 22015864 22065156 22105734 22124910 22112604 22069060 
886.131 22008058 21953962 21932740 21960900 22038140 22146668 22258780 
889.505 22346086 22393706 22402776 22389238 22373680 22373540 22395172 
892.880 22433198 22473954 22501730 22504174 22472280 22401626 22290696 
896.255 22143078 21968740 21789494 21637552 21547536 21549380 21654340 
899.630 21849488 22096428 22343888 22541618 22653518 22670066 22607162 
903.005 22499356 22384354 22294636 22248074 22246122 22276988 22320448 
906.379 22354808 22359204 22319472 22230532 22098624 21940684 21784022 
909.754 21658414 21587370 21584098 21646572 21761344 21907926 22067038 
913.129 22226314 22379890 22526542 22665458 22791882 22897842 22974270 
916.504 23014620 23017520 22984820 22917750 22812834 22661094 22451518 
919.879 22179828 21855796 21506136 21172204 20901488 20730744 20679866 
923.254 20744470 20900132 21107466 21324642 21516894 21658902 21738700 
926.628 21755386 21717452 21640270 21544924 21455934 21394462 21375490 
930.003 21401980 21465716 21548300 21630482 21699234 21753018 21803672 
933.378 21871442 21978988 22141926 22364192 22635578 22935424 23234920 
936.753 23503808 23718024 23860646 23927336 23926812 23880810 23819062 
940.128 23772826 23768068 23816786 23915608 24047896 24193220 24334808 
943.502 24468380 24603080 24757886 24951698 25193912 25479404 25790082 
946.877 26100140 26385208 26630864 26834962 27004808 27151266 27283310 
950.252 27404414 27512598 27604074 27676674 27732120 27776342 27817036 
953.627 27862820 27921118 27998366 28098602 28223578 28370200 28528336 
957.002 28681326 28809906 28895492 28929312 28916774 28878564 28844428 
960.377 28846092 28907426 29036034 29222268 29442302 29667412 29869712 
963.751 30031520 30147712 30223972 30272214 30305076 30331050 30350662 
967.126 30355672 30330834 30259460 30127646 29930870 29676816 29386458 
970.501 29088680 28812700 28583396 28413320 28302788 28243096 28221244 
973.876 28224780 28244970 28277362 28319694 28369846 28425348 28482942 
977.251 28541004 28599712 28661046 28727628 28800664 28880298 28966714 
980.625 29062498 29173578 29308432 29473436 29667484 29877734 30079032 
984.000 30241306 30339150 30361288 30317264 30235836 30156522 30114010 
987.375 30129280 30202056 30314456 30437228 30541940 30610304 30635406 
990.750 30621860 30580190 30523384 30462284 30405988 30361536 30332824 
994.125 30319608 30314670 30305786 30277648 30218360 30125550 30010536 
997.500 29895872 29810124 29780244 29821302 29935310 30110956 30329378 
1000.874 30568496 30808240 31033030 31228882 31384676 31492114 31548120 
1004.249 31558168 31536966 31507574 31493038 31512384 31573918 31675554 
1007.624 31807088 31956532 32115728 32280874 32451440 32625284 32794696 
1010.999 32945660 33060954 33125390 33132754 33088486 33010970 32925926 
1014.374 32865204 32859556 32933470 33102430 33366728 33709136 34093708 
1017.748 34474208 34803416 35045620 35191908 35263956 35309272 35381804 
1021.123 35526876 35759660 36060900 36381620 36664148 36862372 36956312 
1024.498 36958760 36906996 36849244 36824324 36856424 36950356 37095948 
1027.873 37273000 37456808 37621716 37738660 37781812 37732656 37588476 
1031.249 37366484 37105404 36856064 36662920 36554020 36529872 36565660 
1034.624 36619552 36650628 36631560 36552796 36420860 36250172 36053268 
1037.999 35835796 35598400 35341944 35073244 34808264 34569672 34379088 
1041.374 34252904 34194860 34196404 34237592 34295032 34344912 34368328 
1044.750 34356172 34310128 34245192 34186472 34168012 34222784 34373244 
1048.125 34625612 34966572 35367572 35792836 36213616 36615120 36999856 
1051.500 37383236 37784452 38216576 38679912 39162168 39643324 40102700 
1054.875 40521676 40886736 41186928 41412600 41557508 41623840 41628324 
1058.251 41602976 41593680 41648088 41800008 42062864 42423820 42851476 
1061.626 43303864 43746168 44155728 44523128 44846636 45124060 45347192 
1065.001 45503832 45584528 45591816 45544052 45477672 45436764 45462476 
1068.376 45586368 45821628 46164276 46595340 47090012 47620520 48163340 
1071.752 48703392 49235472 49764892 50305972 50877716 51496060 52167852 
1075.127 52887572 53640692 54411004 55191496 55990536 56833048 57750684 
1078.502 58764828 59875884 61054916 62251692 63404992 64468572 65423616 
1081.877 66284948 67090920 67889208 68720672 69605648 70545720 71527872 
1085.253 72535344 73552424 74568864 75579960 76582736 77577344 78567248 
1088.628 79559088 80558624 81564104 82558096 83507136 84362928 85078864 
1092.003 85628032 86013880 86272712 86459392 86632840 86831088 87064848 
1095.378 87318664 87564000 87770944 87916520 87987352 87971328 87854248 
1098.754 87619784 87255672 86763304 86162992 85490928 84784856 84072736 
1102.129 83364632 82655400 81936752 81211824 80501632 79844784 79282912 
1105.504 78844272 78536392 78346144 78250872 78232936 78291696 78444176 
1108.879 78716720 79129272 79686288 80372144 81159656 82017072 82919928 
1112.255 83853848 84806088 85760104 86689632 87559216 88338072 89008824 
1115.630 89575576 90057696 90478016 90845168 91145016 91341776 91392440 
1119.005 91264664 90946016 90445696 89784504 88981168 88044048 86975336 
1122.380 85782792 84492904 83160104 81859168 80665536 79644736 78833384 
1125.755 78238688 77847520 77640848 77605080 77739600 78054320 78563192 
1129.131 79278224 80205248 81346752 82705144 84284944 86089992 88118280 
1132.506 90354512 92766752 95314400 97956152 100661656 103420328 106234920 
1135.881 109110008 112036880 114982064 117889664 120697328 123346936 
1138.774 125803472 128054144 130099624 131940800 133572760 134986480 
1141.667 136181680 137177616 138018144 138757440 139448848 140124016 
1144.560 140788096 141428544 142032528 142602528 143163056 143749584 
1147.453 144393712 145105312 145867584 146643408 147394080 148097520 
1150.347 148753648 149378240 149986288 150578864 151138704 151640112 
1153.240 152066400 152424512 152748720 153088160 153482496 153948000 
1156.133 154467744 155003376 155509264 155955008 156330016 156638672 
1159.026 156885584 157062496 157144432 157101184 156908880 156564288 
1161.919 156083984 155496704 154825760 154080448 153256000 152344400 
1164.812 151347296 150281984 149174992 148048400 146903664 145717136 
1167.705 144446112 143049632 141509856 139842288 138092400 136316800 
1170.598 134567680 132874936 131245448 129671816 128144536 126658576 
1173.491 125214056 123808872 122431776 121060376 119669784 118240544 
1176.384 116770264 115273568 113775376 112296544 110844880 109413024 
1179.277 107986584 106556304 105128024 103723608 102372656 101098616 
1182.170 99906568 98783264 97703552 96644400 95592784 94550336 93526536 
1185.546 92528384 91553720 90589240 89619680 88637496 87650272 86678384 
1188.921 85744600 84863048 84029320 83222944 82416064 81589656 80742944 
1192.296 79893856 79069040 78290232 77561816 76869216 76185152 75483712 
1195.671 74753136 73998400 73235768 72481976 71743448 71013864 70278416 
1199.047 69525648 68757120 67991416 67258584 66588128 66000924 65501624 
1202.422 65082260 64728632 64429484 64179860 63978976 63824588 63706852 
1205.797 63606456 63501360 63372208 63211948 63027060 62833876 62649160 
1209.172 62480700 62325236 62170592 62003736 61818676 61620340 61422928 
1212.547 61243500 61093856 60978044 60893176 60834972 60803104 60803104 
1215.923 60843240 60929128 61057472 61214276 61377736 61528016 61653904 
1219.298 61757176 61851572 61955964 62086412 62249320 62441408 62653064 
1222.673 62874504 63101620 63337252 63590804 63873096 64191960 64548412 
1226.048 64936020 65342152 65747580 66131324 66473388 66756948 66974616 
1229.424 67130440 67241760 67333592 67433664 67564104 67733536 67937128 
1232.799 68159152 68381016 68587128 68769928 68929544 69069792 69192760 
1236.174 69295856 69371656 69411416 69408384 69359408 69264336 69123208 
1239.549 68933272 68688768 68383272 68012456 67578232 67088404 66553132 
1242.925 65982336 65382012 64754480 64100964 63425512 62736436 62046960 
1246.300 61369916 60713396 60078872 59459632 58845524 58227392 57602956 
1249.675 56977944 56366880 55787796 55260124 54799324 54413708 54103716 
1253.050 53860552 53669412 53509948 53362196 53210596 53046356 52870584 
1256.426 52690988 52518120 52358068 52208988 52059772 51895336 51702816 
1259.801 51479460 51235448 50991092 50766872 50574404 50410716 50259880 
1263.176 50099320 49909644 49684308 49429308 49160584 48894508 48642348 
1266.551 48405076 48175484 47941872 47694916 47429484 47146444 46851040 
1269.927 46551628 46259908 45989236 45756716 45579856 45470976 45434112 
1273.302 45459424 45525504 45601276 45657696 45673856 45641720 45566644 
1276.677 45462368 45342556 45214140 45075648 44918720 44733900 44514572 
1280.052 44258924 43969804 43650316 43300936 42919904 42505552 42059508 
1283.428 41589412 41108756 40631980 40171824 39735972 39325880 38940812 
1286.803 38580316 38246968 37945800 37681232 37454096 37259028 37087472 
1290.178 36929324 36778668 36636168 36508680 36405868 36335072 36298656 
1293.553 36292276 36308740 36339900 36381044 36431704 36492604 36563788 
1296.929 36640932 36714660 36773364 36804992 36801856 36761716 36687368 
1300.304 36584800 36460892 36323188 36178284 36033536 35896036 35771356 
1303.679 35661744 35565172 35474880 35381952 35278796 35162300 35035496 
1307.054 34906280 34785220 34681812 34600852 34543408 34507032 34488952 
1310.430 34486692 34499356 34526372 34565008 34611008 34657264 34696560 
1313.805 34723372 34735468 34733456 34719064 34693116 34654284 34598916 
1317.180 34522028 34419404 34289508 34134172 33957964 33767724 33571332 
1320.555 33375744 33187114 33009042 32842260 32684226 32528460 32367326 
1323.931 32192800 31999364 31785448 31553536 31308964 31058014 30806926 
1327.306 30560212 30322664 30099378 29896370 29720562 29578058 29471874 
1330.681 29402094 29365294 29356538 29370400 29403478 29454642 29524858 
1334.056 29616614 29732234 29874788 30047250 30252886 30494628 30773632 
1337.432 31085954 31421792 31764164 32090362 32380070 32619998 32809812 
1340.807 32961316 33093706 33225994 33370770 33533386 33712216 33902472 
1344.182 34098224 34295428 34491968 34686548 34877876 35063044 35238296 
1347.557 35400676 35548880 35684080 35808956 35925980 36035844 36137376 
1350.932 36227732 36303768 36363064 36403492 36421904 36414736 36378452 
1354.308 36312380 36222184 36121780 36030480 35970360 35957224 35997032 
1357.683 36084084 36204392 36340696 36477724 36606824 36725188 36832836 
1361.058 36928024 37005376 37057192 37079312 37077040 37066360 37067692 
1364.433 37098188 37163512 37257008 37361716 37459080 37533308 37577780 
1367.809 37597512 37606000 37618140 37644228 37687084 37744908 37816696 
1371.184 37908556 38035304 38220372 38490956 38868444 39361100 39956824 
1374.559 40624044 41318060 41989900 42594356 43082004 43402608 43504412 
1377.934 43341392 42892728 42172756 41232800 40141588 38970356 37772780 
1381.310 36579288 35409488 34279972 33210504 32224488 31337988 30553280 
1384.685 29855196 29214330 28594650 27963520 27305114 26622056 25933564 
1388.060 25264458 24634884 24056054 23533888 23073598 22680644 22360702 
1391.435 22117032 21947272 21843880 21795032 21788726 21812628 21857156 
1394.811 21915452 21982194 22054280 22130350 22211072 22298194 22393218 
1398.186 22494506 22596552 22690208 22766812 22822822 22860924 22887572 
1401.561 22907692 22920196 22914500 22871892 22768174 22585698 22322226 
1404.936 21998646 21653086 21331360 21072160 20896794 20813570 20820904 
1408.312 20914874 21093240 21355652 21701952 22128362 22627654 23189866 
1411.687 23806112 24471466 25182288 25931594 26703796 27469464 28190376 
1415.062 28828742 29352778 29747774 30013838 30161174 30197936 30124274 
1418.437 29932148 29617926 29200722 28725078 28244582 27803682 27425308 
1421.813 27112540 26857482 26647422 26473064 26334510 26242774 26215392 
1425.188 26268398 26409432 26638508 26951394 27344316 27815482 28364188 
1428.563 28988674 29681392 30428448 31210474 32006286 32797628 33571260 
1431.938 34320240 35043644 35745092 36431380 37111684 37792984 38479152 
1435.314 39164560 39830932 40448752 40990872 41449488 41838460 42187140 
1438.689 42525320 42873492 43244708 43642804 44064004 44496184 44923720 
1442.064 45330308 45703892 46041836 46350148 46642628 46935084 47244328 
1445.439 47583920 47965032 48397260 48888580 49445388 50071768 50768728 
1448.815 51537432 52384612 53321396 54363160 55521580 56796184 58165300 
1452.190 59587812 61016856 62408928 63742616 65019564 66251872 67448720 
1455.565 68592832 69622920 70438576 70956312 71178912 71194328 71118296 
1458.940 71025488 70944104 70881728 70841904 70833392 70868696 70957168 
1462.316 71099208 71279752 71467512 71611088 71644224 71498416 71101944 
1465.691 70388824 69302040 67788448 65823912 63421904 60645800 57584836 
1469.066 54343336 51007824 47603588 44113588 40493052 36732832 32928180 
1472.441 29300670 26111118 23513182 21497224 19935604 18668928 17580794 
1475.817 16607972 15735710 14973628 14330910 13801863 13364957 12991200 
1479.192 12653275 12329999 12006963 11676202 11335932 10991612 10655579 
1482.567 10345797 10081473 9875980 9734860 9651477 9609401 9585486 9558828 
1486.424 9517914 9463931 9407382 9359269 9320100 9276195 9202410 9078662 
1490.282 8905905 8707526 8517076 8359236 8244001 8165800 8111849 8068370 
1494.139 8026887 7984530 7944506 7911099 7884611 7857855 7819361 7759147 
1497.997 7675939 7576800 7472761 7371679 7276719 7186328 7098380 7014794 
1501.854 6942369 6891802 6874937 6901195 6975230 7095551 7254279 7438210 
1505.712 7625119 7786773 7895206 7936745 7917713 7853841 7758539 7640361 
1509.569 7506235 7362714 7216445 7074131 6940180 6817849 6710694 6623617 
1513.426 6563904 6540357 6559598 6622540 6718501 6825254 6910318 6947419 
1517.284 6929306 6872076 6803174 6746466 6715977 6711602 6721092 6723616 
1521.141 6700834 6646495 6572044 6494782 6427554 6372374 6325741 6283146 
1524.999 6243412 6208388 6181635 6163183 6146851 6121882 6077728 6009591 
1528.856 5922015 5826902 5742519 5686620 5673427 5712336 5804973 5943613 
1532.714 6106558 6260354 6369516 6413901 6397256 6339895 6265027 6190440 
1536.571 6131593 6101047 6110860 6170745 6281095 6421266 6542510 6587249 
1540.428 6525591 6380478 6205934 6054208 5952717 5902970 5889099 5886311 
1544.286 5870090 5824014 5747992 5656206 5570448 5509604 5485746 5500947 
1548.143 5548029 5609952 5665203 5695114 5692294 5666210 5636939 5627372 
1552.001 5652749 5716969 5810917 5916036 6008146 6069529 6097519 6104273 
1555.858 6110154 6135089 6193465 6286978 6395844 6466363 6431421 6271010 
1559.715 6044565 5826700 5653957 5528263 5440147 5382308 5350103 5342086 
1563.573 5357248 5392607 5442563 5500309 5561185 5624989 5695114 5774484 
1567.430 5861559 5945091 6003543 6009893 5946636 5821831 5669466 5529706 
1571.288 5430350 5379657 5370231 5386937 5413340 5437161 5450783 5453534 
1575.145 5449977 5446052 5443301 5436624 5417869 5383683 5335713 5279430 
1579.003 5219835 5159611 5099093 5036875 4972855 4910253 4855801 4820151 
1582.860 4812714 4838981 4898323 4982977 5080655 5177952 5264875 5336552 
1586.717 5391734 5431591 5457359 5469472 5468801 5458768 5444609 5433772 
1590.575 5433067 5444878 5466352 5488967 5502457 5497189 5468633 5418507 
1594.432 5354632 5287647 5227649 5182245 5154749 5144187 5146803 5158304 
1598.290 5174096 5190158 5204141 5214503 5221914 5228018 5235764 5247401 
1602.147 5263902 5284663 5307805 5331855 5356410 5382542 5412602 5447663 
1606.005 5487256 5527759 5563769 5589981 5603172 5603641 5594042 5577261 
1609.862 5554842 5525645 5488531 5444810 5400457 5366507 5355269 5379087 
1613.719 5446253 5558936 5711396 5887958 6063246 6205397 6289264 6309166 
1617.577 6279145 6220186 6150984 6081794 6017082 5959670 5912611 5879896 
1621.434 5864548 5866496 5880400 5895179 5900922 5892760 5875228 5858134 
1625.292 5852559 5865959 5900418 5952246 6012681 6070839 6116203 6142885 
1629.149 6150346 6141776 6122184 6096713 6069899 6045942 6029513 6026321 
1633.006 6043053 6088682 6173467 6305938 6485634 6694845 6898131 7057764 
1636.864 7154697 7190034 7178108 7135733 7080530 7029173 6997116 6997925 
1640.721 7039613 7122732 7241241 7385530 7546691 7719008 7902731 8101688 
1644.579 8321576 8564959 8825014 9080353 9298198 9448556 9523976 9542570 
1648.436 9536067 9531020 9544941 9586874 9661166 9768746 9905369 10056447 
1652.294 10182984 10225760 10147471 9981851 9801144 9652323 9542570 9459630 
1656.151 9388624 9317663 9240418 9156284 9068816 8984444 8909558 8847265 
1660.008 8797153 8754518 8713205 8667334 8613727 8554484 8495586 8444332 
1663.866 8404975 8378356 8362446 8355015 8355082 8362986 8380517 8409434 
1667.723 8449670 8497545 8544481 8579052 8591049 8576890 8541135 8493559 
1671.581 8444636 8401461 8369100 8349475 8342111 8344509 8351569 8356703 
1675.438 8353325 8339713 8318942 8298609 8286957 8292767 8324885 8390618 
1679.296 8494674 8636677 8810644 9006770 9215305 9427461 9632335 9813412 
1683.153 9940964 9979851 9917471 9790706 9665366 9590127 9581963 9635316 
1687.010 9738010 9876014 10036644 10205610 10369211 10517362 10644305 
1690.386 10750024 10840209 10924466 11013328 11117674 11249486 11421374 
1693.761 11646386 11935641 12290288 12689301 13087315 13435557 13709625 
1697.136 13920567 14097452 14271600 14464488 14682447 14913133 15126857 
1700.511 15294966 15415418 15510767 15610224 15732756 15885530 16067343 
1703.887 16269218 16476555 16667841 16824286 16937550 17015730 17078652 
1707.262 17150238 17249382 17385310 17558920 17762628 17985872 18217492 
1710.637 18451414 18689922 18942130 19221048 19539376 19903794 20313200 
1714.012 20756878 21220216 21693034 22177982 22694538 23272360 23939556 
1717.388 24696398 25505756 26310642 27066624 27765462 28433130 29110116 
1720.763 29841284 30668580 31626300 32740888 34028664 35494800 37135216 
1724.138 38941140 40900940 43002320 45235280 47595196 50093372 52767680 
1727.513 55685328 58931244 62578352 66645176 71063616 75692240 80357520 
1730.889 84961632 89556840 94397704 99927600 106717008 115211568 125282584 
1734.264 135981024 145972000 154418000 161336112 167236992 172682224 
1737.157 178095712 183725216 189660096 195832512 202061280 208074576 
1740.050 213583968 218345232 222170912 224929536 226558176 227082928 
1742.943 226636480 225422240 223649392 221427216 218736928 215463056 
1745.836 211485328 206761920 201378816 195507008 189344640 183002128 
1748.729 176455536 169564704 162193440 154332144 146160304 138024368 
1751.622 130295840 123227312 116878440 111152712 105869200 100831392 
1754.515 95868744 90852968 85712504 80462664 75213592 70147080 65453276 
1757.891 61250520 57557976 54305260 51368976 48604032 45875684 43098212 
1761.266 40260220 37442464 34781052 32404452 30375534 28681716 27258858 
1764.641 26027766 24918924 23885956 22908354 21986028 21128964 20345456 
1768.016 19633554 18981104 18372666 17795488 17244106 16717907 16216693 
1771.391 15736911 15271491 14816545 14379678 13976441 13624005 13330720 
1774.767 13093701 12898417 12723862 12548662 12359555 12154344 11941567 
1778.142 11732980 11537047 11354332 11177915 10999259 10816633 10638669 
1781.517 10482432 10363036 10285706 10241603 10209749 10164023 10082185 
1784.892 9957271 9799856 9632945 9479474 9355478 9265059 9203662 9163423 
1788.750 9137672 9122783 9116185 9113072 9102413 9066752 8988943 8860859 
1792.607 8690928 8499607 8309181 8133051 7974406 7831540 7702987 7593085 
1796.465 7512135 7471648 7479266 7532666 7617903 7710374 7782523 7813357 
1800.322 7793925 7729734 7634662 7524271 7407741 7288479 7167632 7048469 
1804.180 6938800 6848445 6785706 6753095 6745086 6750638 6757133 6757100 
1808.037 6750537 6744042 6745658 6759085 6778807 6791966 6782879 6741720 
1811.894 6670248 6581934 6496833 6432867 6402536 6409059 6447832 6507832 
1815.752 6575105 6633979 6668600 6666043 6617191 6519604 6378931 6210606 
1819.609 6035829 5876404 5751719 5671850 5637375 5641034 5671447 5715089 
1823.467 5759005 5792381 5806988 5799500 5773208 5738994 5711665 5705555 
1827.324 5729493 5782408 5850947 5909890 5931689 5897832 5813335 5705421 
1831.182 5610522 5553701 5539236 5551452 5563802 5550949 5497994 5409281 
1835.039 5306933 5222585 5181305 5192841 5246228 5318472 5383616 5427666 
1838.896 5453333 5476753 5516249 5582195 5670675 5765049 5840469 5873616 
1842.754 5852391 5783113 5689172 5599546 5535780 5499470 5476820 5446992 
1846.611 5394754 5313273 5205114 5078509 4945876 4821056 4715800 4640340 
1850.469 4601962 4603268 4642115 4709335 4789999 4863474 4911057 4921278 
1854.326 4893732 4839517 4777537 4728729 4708565 4723939 4770736 4836234 
1858.183 4901238 4947686 4961460 4934582 4866791 4765912 4645967 4523275 
1862.041 4414241 4331037 4280405 4264009 4280707 4328694 4407413 4518889 
1865.898 4668104 4859386 5093729 5363052 5646405 5913013 6127796 6263850 
1869.756 6311788 6278103 6178543 6030790 5853297 5662584 5475713 5310891 
1873.613 5183954 5106872 5085214 5115387 5185832 5278055 5370801 5440952 
1877.471 5468935 5441120 5351579 5205650 5019679 4822698 4647775 4526824 
1881.328 4482497 4519826 4627782 4779547 4943899 5087862 5188314 5236368 
1885.185 5234557 5194349 5130005 5055881 4983279 4923322 4886125 4878754 
1889.043 4902076 4947719 4999166 5035333 5039423 5006205 4943027 4866892 
1892.900 4799882 4761256 4760016 4793349 4845381 4896480 4928986 4935152 
1896.758 4918362 4890515 4864479 4849703 4850172 4863240 4882674 4901440 
1900.615 4914408 4919267 4916184 4906634 4892794 4876509 4858348 4836301 
1904.473 4806248 4760485 4690109 4588534 4454209 4295396 4128948 3979450 
1908.330 3872525 3826928 3849793 3932370 4053624 4183275 4294225 4367315 
1912.187 4395095 4381640 4340876 4292184 4255677 4250223 4288905 4376419 
1916.045 4507539 4666497 4828159 4960824 5037981 5047367 4996518 4907471 
1919.902 4809665 4731107 4690846 4700526 4761189 4864245 4991859 5122025 
1923.760 5233853 5312434 5351512 5356007 5340946 5327696 5339504 5393311 
1927.617 5489907 5610791 5719756 5773779 5734931 5589511 5354699 5078643 
1931.474 4822396 4643321 4575341 4615424 4722700 4830437 4872990 4800954 
1935.332 4602163 4301654 3957213 3638238 3409187 3313921 3363772 3541252 
1939.189 3808844 4126506 4455214 4763299 5030003 5240996 5390024 5477559 
1943.047 5510846 5500511 5459808 5402302 5339671 5282583 5238481 5212558 
1946.904 5207428 5222484 5253405 5290364 5318069 5317164 5268497 5159242 
1950.762 4990988 4785811 4584081 4442024 4417421 4545708 4828829 5226173 
1954.619 5661980 6036501 6258505 6270909 6068152 5700754 5260448 4856940 
1958.476 4578120 4474429 4545072 4745813 4999032 5224765 5363588 5381201 
1962.334 5273595 5057625 4764371 4431781 4105366 3836488 3673690 3657585 
1966.191 3803529 4091452 4455481 4796365 5013176 5028797 4822765 4433355 
1970.049 3946581 3462055 3073562 2838238 2762871 2812425 2931965 3079502 
1973.906 3242544 3442650 3717868 4096502 4568778 5076263 5521450 5804705 
1977.764 5849570 5636234 5208065 4665693 4138281 3740393 3562498 3644553 
1981.621 3979350 4516378 5172721 5842820 6415583 6806708 6967654 6896381 
1985.478 6634416 6256354 5851282 5497088 5248341 5121891 5101071 5146937 
1989.336 5218896 5279397 5297709 5249984 5114080 4873057 4524514 4092823 
1993.193 3634997 3233764 2987144 2969829 3211700 3675294 4265515 4844309 
1997.051 5267893 5436456 5316895 4959985 4476170 4011519 3692638 3596708 
2000.908 3744437 4101553 4595164 5135739 5643048 6053771 6328732 6449850 
2004.766 6417197 6250942 5988963 5692126 5429880 5263332 5232914 5343931 
2008.623 5562628 5825693 6060289 6196456 6191347 6039760 5772436 5447461 
2012.480 5131715 4889309 4761256 4757169 4854896 5012908 5185698 5338497 
2016.338 5462325 5571186 5690918 5841812 6021013 6197028 6320227 6338953 
2020.195 6225799 5992927 5699310 5425049 5254008 5237072 5375900 5622606 
2024.053 5900552 6135492 6275683 6311620 6272422 6209665 6171518 6187550 
2027.910 6263783 6386597 6533058 6683236 6824446 6952032 7063893 7154428 
2031.767 7216041 7241780 7226653 7171304 7076859 6942402 6760398 6522228 
2035.625 6227177 5891786 5554540 5273158 5109319 5108011 5289090 5638886 
2039.482 6113313 6645149 7165510 7612305 7940119 8126501 8162963 8053045 
2043.340 7813592 7476469 7088748 6708170 6395172 6192658 6116740 6151522 
2047.197 6253564 6365448 6431623 6419988 6324833 6164998 5970688 5775626 
2051.054 5604648 5473968 5393110 5366876 5395995 5477357 5600151 5744500 
2054.912 5882416 5985436 6028807 6000486 5902836 5750376 5565145 5368990 
2058.769 5182848 5023735 4906533 4846453 4856337 4945072 5112202 5345642 
2062.627 5617370 5891182 6131930 6312561 6425066 6479714 6498852 6504939 
2066.484 6510186 6508807 6480421 6393995 6220656 5945730 5574979 5138186 
2070.342 4682204 4267790 3951028 3772912 3752391 3880615 4124064 4428902 
2074.199 4737371 4995915 5169066 5247536 5247636 5202599 5149418 5121321 
2078.056 5135336 5191969 5282046 5392338 5515175 5650030 5800003 5966120 
2081.914 6140869 6306678 6438618 6514727 6523909 6471979 6379771 6274573 
2085.771 6181197 6110423 6055048 5993969 5904583 5771025 5597063 5405657 
2089.629 5235563 5127859 5111599 5195657 5364293 5581456 5798190 5968841 
2093.486 6057064 6045707 5940523 5768138 5568266 5382006 5244417 5172621 
2097.344 5162662 5188850 5212793 5192807 5095003 4905461 4634580 4315977 
2101.201 3997106 3733742 3573188 3543055 3648496 3870385 4169459 4493579 
2105.058 4792344 5024674 5168128 5222182 5205248 5146568 5074084 5010026 
2108.916 4964845 4939140 4930225 4938034 4967091 5025478 5117466 5235429 
2112.773 5357919 5455145 5496484 5465882 5370029 5238850 5115287 5037378 
2116.631 5025746 5072911 5147574 5207226 5220271 5177885 5099362 5022160 
2120.488 4988876 5028394 5145529 5322161 5526685 5729056 5906094 6047051 
2124.345 6146111 6196221 6185869 6100342 5932898 5692764 5413206 5144791 
2128.203 4939575 4837976 4851077 4960689 5126417 5307101 5473633 5619216 
2132.060 5754942 5899780 6065430 6248085 6430682 6594247 6729437 6844877 
2135.918 6962604 7103567 7272575 7449569 7591433 7646634 7581081 7390687 
2139.775 7112257 6809468 6558286 6420492 6426512 6570766 6818051 7114345 
2143.633 7397899 7618442 7741539 7753514 7662888 7498178 7303776 7127245 
2147.490 7014155 6990449 7058337 7194514 7360221 7514056 7620196 7659920 
2151.347 7629503 7535161 7385126 7186934 6945298 6666648 6364775 6058576 
2155.205 5768104 5508967 5287077 5104022 4967493 4898658 4938805 5135101 
2159.062 5514403 6064153 6724255 7405348 8008223 8458623 8719256 8791506 
2162.920 8704416 8494708 8194363 7822397 7394327 6936982 6491957 6119529 
2166.777 5878217 5802858 5891014 6101317 6365683 6605315 6761710 6802871 
2170.635 6726644 6552904 6308796 6017989 5699344 5373887 5071067 4829600 
2174.492 4693257 4693492 4838613 5106938 5458198 5846111 6235446 6614869 
2178.349 6993917 7388867 7802258 8208613 8547759 8741941 8710907 8409096 
2182.207 7840008 7064129 6176694 5292276 4519927 3933674 3575493 3446157 
2186.064 3513827 3721878 4007339 4310020 4580297 4788961 4925098 4995814 
2189.922 5019579 5018472 5011735 5009691 5014417 5022193 5027087 5023467 
2193.779 5009758 4986631 4956098 4920943 4883311 4844040 4802964 4759279 
2197.636 4710541 4654975 4593323 4530273 4476974 4451398 4471584 4552806 
2201.494 4699353 4901774 5137750 5376370 5588337 5750879 5853533 5897530 
2205.351 5893230 5853499 5789393 5711128 5627506 5551150 5499202 5489605 
2209.209 5537994 5651775 5825928 6043423 6280019 6509884 6710627 6868305 
2213.066 6975398 7030318 7035605 6993985 6913988 6807852 6695888 6600908 
2216.924 6542544 6531545 6563601 6620588 6672436 6688956 6648143 6541265 
2220.781 6376913 6176425 5968337 5779621 5633582 5545377 5522994 5567595 
2224.638 5674502 5834189 6029748 6238337 6432767 6582069 6660491 6650666 
2228.496 6548699 6364742 6125007 5864918 5623344 5440818 5349097 5368016 
2232.353 5503732 5745004 6066573 6426848 6777696 7066453 7244981 7282211 
2236.211 7167868 6918128 6571035 6184222 5819682 5531149 5357215 5310891 
2240.068 5380496 5535444 5737315 5945931 6127057 6258405 6325808 6325270 
2243.926 6259446 6136702 5971562 5783248 5595284 5431323 5311898 5251024 
2247.783 5253975 5318137 5434712 5593203 5780595 5982748 6185298 6370827 
2251.640 6521387 6622439 6663990 6645653 6577460 6478134 6369718 6273296 
2255.498 6203817 6166813 6159924 6174510 6199515 6223110 6235446 6228891 
2259.355 6200456 6150984 6086565 6017620 5955135 5909755 5886345 5883188 
2263.213 5891988 5902668 5906531 5900956 5890947 5886009 5897966 5934376 
2267.070 5995951 6076182 6163789 6245026 6307485 6343055 6346922 6318949 
2270.927 6262841 6186508 6101854 6023835 5969244 5950835 5975996 6042818 
2274.785 6141877 6258001 6375770 6483414 6573558 6642895 6690202 6712410 
2278.642 6705815 6666884 6595962 6499289 6390834 6288289 6206775 6154345 
2282.500 6128468 6116740 6100308 6063145 5995783 5900653 5790198 5684438 
2286.357 5605554 5570750 5590451 5665841 5788520 5942169 6105617 6256959 
2290.215 6374896 6445142 6462192 6430581 6364103 6282171 6206203 6152563 
2294.072 6130585 6140969 6177467 6229362 6285533 6337642 6380545 6413565 
2297.929 6438685 6460376 6484053 6514794 6555999 6608713 6669643 6731894 
2301.787 6786245 6822931 6835048 6821080 6786077 6739667 6695249 6665101 
2305.644 6657665 6674993 6712814 6761710 6808492 6840030 6845618 6819566 
2309.502 6762787 6683472 6596198 6518393 6466968 6454357 6484490 6552770 
2313.359 6647538 6754811 6861438 6958597 7042206 7110775 7163590 7197916 
2317.217 7209168 7192493 7145434 7069989 6972974 6864973 6756898 6656588 
2321.074 6568916 6495589 6438215 6399005 6381587 6388077 6417264 6462663 
2324.931 6513852 6559329 6590647 6606526 6612817 6621295 6645990 6697302 
2328.789 6778436 6883487 6999742 7110606 7198893 7251349 7259603 7221498 
2332.646 7140584 7027792 6900185 6777797 6682765 6630210 6624895 6656924 
2336.504 6705142 6742494 6746028 6705343 6626342 6528416 6433843 6361648 
2340.361 6318109 6296424 6281801 6261060 6229597 6195448 6173535 6179685 
2344.219 6221262 6291651 6372576 6441308 6481867 6489905 6473728 6448841 
2348.076 6432699 6438752 6474939 6542308 6635695 6743807 6850196 6937756 
2351.933 6990988 7001426 6970247 6909106 6836530 6772042 6733240 6729942 
2355.791 6762484 6822864 6897559 6970415 7024762 7047257 7028130 6962503 
2359.648 6852383 6708910 6551222 6403410 6290945 6229597 6222438 6254572 
2363.506 6299417 6324026 6302577 6226505 6107264 5974417 5862500 5804000 
2367.363 5816357 5897731 6030118 6187415 6342047 6472887 6569555 6630345 
2371.220 6660356 6667422 6659448 6643265 6622910 6601480 6580690 6561280 
2375.078 6543351 6526903 6511532 6496800 6482472 6468347 6454020 6438853 
2378.935 6422274 6404318 6385824 6369146 6356739 6351225 6353478 6362153 
2382.793 6374257 6385656 6393558 6397593 6401090 6409362 6428967 6464244 
2386.650 6514794 6575139 6635897 6685895 6715439 6720116 6700666 6664596 
2390.508 6620892 6580185 6549977 6532688 6526499 6525692 6522968 6510825 
2394.365 6484692 6442855 6387471 6324228 6261665 6210001 6178240 6174845 
2398.222 6204019 6265565 6354050 6459636 6569690 6669306 6745186 6787187 
2402.080 6789375 6751850 6680578 6586812 6485095 6392145 6323118 6288760 
2405.937 6294676 6338584 6412691 6504401 6601446 6693533 6775441 6847200 
2409.795 6912237 6974321 7034056 7087367 7125325 7137485 7115558 7057629 
2413.652 6971156 6872715 6782509 6721563 6704132 6733274 6800111 6886012 
2417.510 6968462 7025368 7042340 7015401 6950685 6861809 6766052 6679872 
2421.367 6614062 6573356 6555999 6556806 6568580 6586510 6609116 6637982 
2425.224 6676137 6725500 6783922 6844843 6897525 6929945 6933380 6905605 
2429.082 6852956 6788702 6729909 6692187 6683943 6704772 6745388 6791899 
2432.939 6830000 6851374 6855783 6850835 6848176 6859251 6890220 6939540 
2436.797 6997857 7051298 7086222 7092352 7066251 7011057 6936140 6852013 
2440.654 6768946 6694610 6632398 6582977 6545235 6517989 6500870 6495118 
2444.511 6501710 6521353 6552500 6591724 6633810 6673714 6707363 6733812 
2448.369 6754441 6773355 6795197 6823133 6857635 6896583 6935198 6967654 
2452.226 6989405 6997958 6993682 6978967 6958530 6937218 6919239 6907860 
2456.084 6904460 6908735 6918600 6930821 6941493 6946746 6944119 6932740 
2459.941 6913415 6888066 6859217 6829259 6799842 6772581 6749090 6731154 
2463.799 6721630 6722808 6735629 6758581 6787793 6817176 6840030 6851138 
2467.656 6847536 6829629 6800246 6764369 6727990 6696830 6677449 6675363 
2471.513 6695215 6739062 6805059 6886753 6973344 7053521 7117039 7159211 
2475.371 7181949 7192526 7200612 7212537 7228944 7243565 7245654 7223857 
2479.228 7173089 7096124 7004389 6913180 6837573 6786716 6761946 6757706 
2483.086 6764975 6776451 6788062 6800313 6815526 6834914 6855581 6871335 
2486.943 6873624 6856692 6819296 6766254 6706622 6651138 6607165 6577158 
2490.801 6558791 6546648 6536792 6528955 6527643 6541265 6578436 6644307 
2494.658 6738018 6851744 6972772 7085279 7175313 7233021 7254785 7243229 
2498.515 7205799 7153720 7097269 7045944 7005871 6979439 6966577 6965836 
2502.373 6976139 6997352 7030823 7078240 7139775 7213514 7293398 7370365 
2506.230 7434199 7474311 7483110 7457390 7398708 7313885 7213851 7113200 
2510.088 7027557 6971795 6957856 6990550 7066891 7174302 7293836 7402416 
2513.945 7478862 7509775 7491605 7431840 7345763 7252730 7169013 7105352 
2517.802 7065072 7044731 7037727 7037222 7038838 7041700 7047695 7059785 
2521.660 7080025 7109192 7145131 7183903 7220723 7250574 7269340 7275473 
2525.517 7270418 7259468 7250102 7251382 7270654 7310549 7367298 7431570 
2529.375 7489683 7527542 7535767 7512034 7462008 7397528 7333767 7284806 
2533.232 7259603 7261759 7288411 7333295 7387148 7440503 7485031 7513214 
2537.090 7520260 7504786 7469322 7421357 7372859 7337575 7327971 7353279 
2540.947 7414785 7506201 7613620 7719885 7807520 7862782 7879989 7861634 
2544.804 7818653 7766028 7720492 7694826 7693881 7713814 7743361 7766939 
2548.662 7769840 7744811 7692701 7624242 7553973 7496459 7459884 7443233 
2552.519 7437334 7429211 7409325 7374678 7332419 7295588 7279179 7291713 
2556.377 7332284 7389204 7445963 7485098 7496122 7479098 7444143 7406224 
2560.234 7380205 7376094 7395304 7433154 7480480 7529261 7574203 7613924 
2564.092 7650073 7685045 7720188 7755537 7790079 7823241 7855021 7886669 
2567.949 7919029 7951390 7980278 8000257 8004915 7989424 7953145 7900099 
2571.806 7839131 7780735 7735704 7710812 7707945 7723123 7748488 7774360 
2575.664 7791732 7794937 7782017 7755234 7718940 7678975 7640968 7609169 
2579.521 7587454 7578687 7585330 7608832 7649163 7703730 7766972 7832147 
2583.379 7891326 7938871 7972449 7993879 8007986 8020846 8037283 8058851 
2587.236 8084303 8110095 8132477 8149154 8159452 8164111 8163841 8157798 
2591.094 8144091 8120965 8088017 8048523 8009067 7977882 7962156 7965564 
2594.951 7986049 8017403 8051189 8080792 8103106 8119513 8134435 8152328 
2598.808 8175422 8201758 8226678 8244846 8253119 8251735 8244306 8235863 
2602.666 8230933 8230629 8232858 8232993 8227050 8211990 8187510 8155839 
2606.523 8119952 8082514 8045451 8009910 7977612 7951289 7934787 7932459 
2610.381 7947678 7981763 8033638 8100540 8178562 8264061 8352988 8441359 
2614.238 8523699 8592672 8640293 8658917 8644180 8597166 8524950 8439602 
2618.095 8355318 8286350 8242448 8228502 8243866 8284864 8344544 8415413 
2621.953 8489910 8560499 8619845 8661993 8683085 8682917 8665441 8638975 
2625.810 8613964 8600309 8605312 8630762 8673114 8724226 8774499 8814296 
2629.668 8836816 8839893 8824710 8795766 8759183 8722029 8690692 8670376 
2633.525 8664663 8674703 8699412 8735044 8776494 8817170 8850443 8871783 
2637.383 8878411 8870531 8850681 8823932 8796172 8773316 8760671 8760603 
2641.240 8773552 8796544 8824778 8851999 8872425 8882943 8883246 8876381 
2645.097 8867555 8863193 8867657 8883145 8908815 8941215 8975819 9008631 
2648.955 9036777 9059377 9076597 9089455 9099368 9108267 9118114 9132123 
2652.812 9153475 9184846 9227353 9278734 9333879 9385678 9427461 9454483 
2656.670 9466877 9469179 9469586 9476562 9496644 9531969 9579761 9633115 
2660.527 9683797 9724897 9752683 9767662 9774032 9777421 9782843 9792909 
2664.385 9806735 9820055 9827104 9821817 9800906 9765222 9720459 9675429 
2668.242 9641550 9629184 9644260 9687456 9752886 9830189 9906386 9970222 
2672.099 10014061 10035356 10035864 10020639 9995345 9964391 9930929 9896657 
2675.957 9862795 9831409 9804465 9784538 9772982 9769728 9773084 9780607 
2679.814 9790909 9803381 9819479 9841306 9870184 9905776 9945066 9982970 
2683.672 10014027 10033761 10039729 10032304 10013891 9988157 9958627 
2687.047 9928556 9900556 9876590 9858117 9845475 9838086 9833409 9827918 
2690.904 9818124 9801313 9777659 9749871 9722864 9701484 9689354 9686847 
2694.762 9691489 9698299 9702297 9699993 9691014 9677157 9661979 9648698 
2698.619 9639246 9633080 9628406 9623053 9615702 9606759 9598120 9592565 
2702.477 9592802 9600085 9614245 9633589 9655948 9678952 9701585 9723000 
2706.334 9743772 9763934 9783555 9801787 9817208 9827884 9832494 9829951 
2710.191 9820326 9804804 9785419 9764645 9745499 9730895 9723373 9724864 
2714.049 9736283 9756784 9784233 9814328 9842119 9862490 9872015 9869574 
2717.906 9857202 9839442 9822156 9810735 9808769 9817005 9833612 9855270 
2721.764 9878523 9900793 9921166 9940014 9958627 9977918 9998871 10021589 
2725.621 10046511 10073741 10103381 10134990 10166940 10197061 10222164 
2728.996 10239465 10247301 10245741 10236174 10220773 10201437 10179253 
2732.372 10154696 10128512 10103280 10082931 10072961 10078082 10100261 
2735.747 10136686 10180305 10221248 10249676 10259888 10251983 10232103 
2739.122 10209646 10194890 10194721 10210359 10237904 10269964 10298803 
2742.497 10318279 10326219 10323606 10313698 10300024 10285367 10271321 
2745.873 10258701 10248319 10241093 10238718 10242824 10253917 10271253 
2749.248 10292153 10312918 10329341 10337416 10335041 10321468 10298193 
2752.623 10268200 10236514 10208595 10189769 10184782 10196383 10224776 
2755.998 10267352 10319636 10375286 10427888 10472555 10506228 10529209 
2759.374 10543637 10553991 10564515 10578571 10597109 10618330 10638160 
2762.749 10651097 10652795 10641011 10617142 10585837 10554908 10532298 
2766.124 10524388 10534437 10561494 10601149 10646343 10689911 10725672 
2769.499 10749617 10760960 10761436 10755119 10746866 10742009 10744793 
2772.875 10757564 10780253 10810587 10844319 10877273 10906560 10932282 
2776.250 10958038 10989233 11032326 11091501 11166934 11253974 11344163 
2779.625 11427599 11495401 11542661 11569544 11580943 11583700 11585435 
2783.000 11591152 11602927 11619806 11639410 11660035 11681274 11705101 
2786.375 11734988 11774376 11825446 11888133 11960197 12037825 12117136 
2789.751 12194860 12269838 12341999 12411852 12480048 12546308 12609920 
2793.126 12669821 12725944 12779105 12831624 12886197 12944909 13008783 
2796.501 13076661 13146532 13216173 13284290 13351630 13420554 13493829 
2799.876 13573919 13661239 13754015 13848828 13941575 14029037 14109226 
2803.252 14182206 14248968 14311596 14372144 14433282 14498232 14571278 
2806.627 14656537 14757855 14876580 15010704 15154236 15299909 15439108 
2810.002 15566125 15679333 15781956 15880650 15983732 16098667 16230313 
2813.377 16380409 16548213 16731508 16927456 17133314 17346892 17565612 
2816.753 17787206 18010048 18233526 18458570 18687570 18923476 19168408 
2820.128 19422558 19684274 19950660 20219326 20490312 20766992 21056476 
2823.503 21367382 21707490 22082308 22492378 22934796 23403890 23893726 
2826.878 24399680 24919658 25453368 26002192 26568160 27152642 27757126 
2830.254 28383392 29034192 29713358 30424860 31172452 31958744 32784726 
2833.629 33650488 34556396 35504260 36498880 37548228 38662672 39854828 
2837.004 41138224 42526744 44035912 45681916 47483480 49461796 51637956 
2840.379 54032452 56662600 59539920 62668948 66047296 69667032 73513496 
2843.755 77567792 81807048 86200256 90712856 95302176 99917744 104507696 
2847.130 109014120 113376928 117538072 121435048 125005904 128189264 
2850.023 130922512 133148624 134816960 135887136 136333760 136148720 
2852.916 135344304 133950752 132018296 129611168 126798792 123656664 
2855.809 120255336 116658456 112926256 109110600 105260280 101423296 
2858.702 97641688 93955704 90399760 86997800 83767360 80716920 77848744 
2862.077 75162328 72656592 70332136 68191680 66238904 64476564 62905720 
2865.453 61524084 60326300 59304028 58447884 57745500 57181092 56735016 
2868.828 56380124 56084292 55812472 55527684 55199808 54806960 54337516 
2872.203 53790904 53174904 52502864 51789676 51052280 50308092 49575140 
2875.578 48873892 48224168 47645072 47151872 46753684 46453344 46248336 
2878.954 46132656 46099456 46142496 46257736 46441916 46691772 47003272 
2882.329 47371244 47790192 48254936 48762776 49313672 49910052 50556500 
2885.704 51256852 52013792 52826948 53692920 54605140 55555884 56537472 
2889.079 57543112 58568748 59612628 60673996 61753204 62849352 63960968 
2892.455 65085144 66219144 67360952 68510032 69667336 70834528 72013024 
2895.830 73203560 74406656 75623024 76855576 78110008 79395000 80720272 
2899.205 82093800 83519704 84995808 86514784 88065512 89637728 91225016 
2902.580 92827640 94451608 96108336 97810328 99568104 101388768 103276096 
2905.956 105231528 107256536 109355136 111532792 113797632 116156344 
2908.849 118613224 121168200 123817032 126551328 129361328 132238416 
2911.742 135175056 138165824 141206864 144292496 147413888 150556608 
2914.635 153697360 156805760 159843984 162766688 165528960 168085136 
2917.528 170393552 172421296 174141664 175534784 176586368 177284192 
2920.421 177618336 177581536 177171424 176392672 175258832 173792976 
2923.314 172021600 169975632 167685248 165177536 162479936 159619216 
2926.207 156622032 153516752 150329376 147082336 143794704 140480416 
2929.100 137152544 133823976 130508752 127222400 123980096 120793544 
2931.993 117670776 114614856 111625504 108700448 105838048 103037272 
2934.886 100298944 97625304 95020024 92487920 90034328 87665912 85388712 
2938.261 83206336 81120520 79129584 77230424 75419456 73694488 72055744 
2941.637 70505144 69044464 67673784 66391148 65192236 64073316 63032620 
2945.012 62072340 61198748 60419928 59743360 59172784 58706680 58338156 
2948.387 58055872 57847656 57700844 57603904 57546964 57519884 57511636 
2951.762 57511144 57505244 57481152 57427068 57330752 57181920 56970352 
2955.138 56685968 56320556 55867260 55323312 54690404 53975684 53190896 
2958.513 52349884 51469200 50563644 49645004 48721368 47795996 46866652 
2961.888 45927648 44971820 43992096 42984832 41951176 40897188 39833036 
2965.263 38769460 37717552 36684840 35675912 34693008 33737284 32810990 
2968.639 31917836 31062070 30249122 29482442 28763666 28091534 27462262 
2972.014 26871160 26312224 25780730 25271868 24781636 24306950 23844404 
2975.389 23391268 22945870 22507522 22077670 21658796 21255010 20870928 
2978.764 20509624 20172848 19860262 19569636 19298218 19044384 18807860 
2982.140 18590486 18395168 18224196 18077608 17952272 17841368 17737016 
2985.515 17631690 17520762 17404486 17287342 17177814 17084648 17016108 
2988.890 16977620 16970900 16994572 17044708 17116494 17204632 17304790 
2992.265 17414176 17532078 17659708 17800390 17958590 18138200 18342144 
2995.641 18570980 18823500 19096870 19388290 19695890 20018486 20355076 
2999.016 20703496 21058944 21414648 21761586 22090536 22395310 22672406 
3002.391 22921906 23146250 23347700 23526334 23679672 23801316 23884520 
3005.766 23922612 23911408 23849726 23739160 23583318 23386022 23151876 
3009.142 22884744 22588700 22267746 21925664 21565188 21188520 20796050 
3012.517 20387716 19963946 19526380 19079038 18627766 18179174 17739570 
3015.892 17313754 16903718 16509421 16129684 15763300 15410646 15073511 
3019.267 14755352 14460104 14190389 13947186 13728639 13530881 13347975 
3022.643 13174298 13005676 12839952 12677668 12521139 12373498 12237562 
3026.018 12114581 12004272 11904445 11812269 11724571 11638899 11552869 
3029.393 11465190 11374705 11281281 11185803 11090243 10997865 10912336 
3032.768 10836777 10773358 10721597 10679146 10642845 10609264 10575889 
3036.144 10542178 10508332 10475677 10445233 10417435 10392152 10369110 
3039.519 10348749 10331410 10317600 10306777 10296632 10284112 10264807 
3042.894 10236479 10198724 10154696 10109452 10068519 10036169 10013180 
3046.269 9997311 9983987 9969340 9951677 9932523 9916183 9908420 9913640 
3050.127 9932997 9963407 9999041 10032066 10055158 10063704 10056006 
3053.502 10033457 9999685 9959780 9919234 9882522 9853474 9834155 9825173 
3057.359 9825851 9834765 9849610 9868184 9888386 9908420 9926590 9941370 
3061.217 9951066 9954423 9951270 9942252 9929607 9916962 9908149 9906624 
3065.074 9913979 9929980 9951948 9975511 9995854 10008568 10010128 9999617 
3068.932 9977138 9945134 9906725 9866218 9827952 9795586 9771897 9758106 
3072.789 9753157 9753666 9754141 9748888 9731640 9699010 9650426 9589550 
3076.646 9523231 9460240 9409413 9376130 9362147 9364314 9376503 9391197 
3080.504 9402099 9406298 9403589 9396276 9386694 9376266 9364213 9348402 
3084.361 9327413 9301685 9274909 9252976 9242449 9248271 9271998 9310689 
3088.219 9358051 9406874 9450317 9484081 9506364 9517811 9520114 9515611 
3092.076 9506432 9495561 9485029 9477612 9474293 9474395 9475106 9472329 
3095.934 9462475 9444696 9421907 9400643 9389267 9393940 9416761 9453331 
3099.791 9494849 9529022 9545348 9538370 9508871 9462847 9409346 9357272 
3103.648 9311773 9274740 9245258 9220719 9200447 9184981 9176385 9176960 
3107.506 9187587 9206539 9229892 9252738 9271016 9281849 9285538 9283507 
3111.363 9278700 9273048 9267597 9261809 9255717 9249286 9244750 9245529 
3115.221 9255650 9278362 9313803 9358423 9405553 9445949 9471483 9476359 
3119.078 9459122 9423262 9374776 9321657 9270610 9226711 9192798 9170192 
3122.936 9160006 9163119 9179904 9209652 9249354 9293357 9334521 9365838 
3126.793 9382732 9384763 9375216 9359845 9344712 9333269 9326025 9320168 
3130.650 9311941 9297690 9276330 9248913 9218824 9189753 9165319 9148162 
3134.508 9140210 9143289 9158686 9186673 9225187 9269426 9312585 9346066 
3138.365 9363975 9363908 9348774 9325483 9302430 9287196 9283371 9289904 
3142.223 9302192 9315192 9325042 9330967 9334792 9339430 9346811 9356967 
3146.080 9366989 9373286 9372812 9364381 9349350 9330730 9311806 9295185 
3149.938 9281882 9271828 9264551 9260219 9259406 9263231 9272201 9286080 
3153.795 9303343 9321996 9340142 9356832 9370578 9380498 9384628 9380362 
3157.652 9364855 9336654 9297724 9253212 9212326 9185184 9180446 9202207 
3161.510 9247797 9307913 9368817 9417133 9442462 9441514 9418521 9384899 
3165.367 9354631 9340040 9349113 9381954 9431558 9485571 9530749 9555779 
3169.225 9554492 9526990 9478967 9419301 9357441 9301718 9256868 9225323 
3173.082 9206438 9198654 9199940 9207689 9220381 9236458 9254498 9273792 
3176.939 9293729 9314041 9335063 9356223 9376571 9394582 9407822 9413882 
3180.797 9411445 9400136 9381277 9357238 9332016 9309030 9292375 9284421 
3184.654 9287028 9300364 9322808 9351619 9383342 9414289 9441988 9465793 
3188.512 9487433 9509887 9537083 9571395 9612653 9657405 9699316 9730082 
3192.369 9742111 9730420 9694098 9637078 9567770 9497085 9436163 9394210 
3196.227 9376198 9381615 9404266 9434605 9461424 9475173 9471009 9449336 
3200.084 9415339 9377180 9343662 9321691 9314176 9321827 9342579 9374335 
3203.941 9414898 9462373 9513815 9564010 9606115 9631352 9632369 9605912 
3207.799 9553985 9484487 9408601 9338415 9282424 9244311 9222277 9212191 
3211.656 9209754 9213308 9224273 9245765 9280832 9328394 9383545 9437755 
3215.514 9481879 9508261 9513748 9499862 9472092 9437145 9401591 9370713 
3219.371 9347658 9334962 9334962 9350060 9381548 9428883 9488821 9554459 
3223.229 9617091 9668144 9700569 9712022 9703822 9681019 9649681 9616583 
3227.086 9586535 9562554 9546025 9537591 9536914 9542705 9552528 9562960 
3230.943 9569870 9569328 9559709 9541215 9517101 9492072 9470568 9455024 
3234.801 9445915 9441717 9440633 9442563 9448827 9462407 9486010 9519336 
3238.658 9558591 9596427 9625086 9638704 9637349 9626745 9617565 9620884 
3242.516 9643006 9683797 9734656 9781454 9809176 9807278 9773151 9712835 
3246.373 9637823 9562215 9497728 9450961 9423296 9412766 9415711 9428544 
3250.230 9448929 9475038 9505009 9536067 9564281 9585689 9597240 9598256 
3254.088 9589788 9574849 9556762 9538370 9520758 9503790 9486146 9467283 
3257.945 9447405 9428645 9415237 9412664 9425530 9456920 9505890 9566991 
3261.803 9630574 9684577 9718392 9725067 9704432 9663876 9616515 9576069 
3265.660 9554221 9556017 9578236 9611433 9642397 9660318 9657846 9634402 
3269.518 9594936 9548057 9502606 9466301 9444188 9438127 9447507 9469552 
3273.375 9499794 9532917 9563773 9588602 9605980 9617870 9629049 9645310 
3277.232 9671567 9709209 9756139 9807345 9856083 9897030 9927709 9948592 
3281.090 9961746 9969849 9974426 9974663 9969137 9956898 9937845 9914963 
3284.947 9892250 9873811 9862557 9859642 9863913 9873539 9886115 9899267 
3288.805 9911234 9919742 9922047 9915335 9897234 9866659 9824596 9773694 
3292.662 9718053 9662419 9611061 9568244 9537422 9521401 9521571 9537524 
3296.520 9564993 9596935 9624747 9639855 9637586 9618954 9590499 9561910 
3300.377 9542875 9539386 9551275 9573562 9598155 9618344 9631116 9638332 
3304.234 9645141 9657201 9677665 9706295 9739129 9772270 9802771 9830900 
3308.092 9858862 9889064 9921471 9952083 9973816 9978562 9961475 9922624 
3311.949 9868252 9808159 9753870 9713648 9690438 9682138 9682781 9685559 
3315.807 9685594 9681189 9673803 9666586 9662453 9663233 9668415 9676784 
3319.664 9686542 9697215 9708938 9723135 9740620 9761596 9784504 9806871 
3323.521 9825749 9839204 9847305 9852151 9857235 9865981 9880556 9900725 
3327.379 9923980 9946083 9963509 9973442 9976222 9973442 9968323 9963678 
3331.236 9961169 9961204 9963306 9967136 9973138 9981817 9993310 10006127 
3335.094 10016739 10019859 10009890 9983410 9940659 9886386 9828088 9775083 
3338.951 9735232 9712767 9708837 9721882 9748142 9784470 9827918 9875302 
3342.809 9923641 9968560 10005414 10030134 10040408 10036508 10021012 
3346.184 9998193 9972188 9945371 9918760 9892047 9864591 9837137 9811785 
3350.041 9791452 9779218 9776778 9784131 9799856 9821885 9848694 9879336 
3353.899 9913878 9952253 9993548 10035491 10074555 10106196 10126884 
3357.274 10133667 10125155 10102160 10067230 10024809 9981275 9944557 
3360.649 9921301 9917098 9933370 9966967 10009925 10052174 10084288 10100227 
3364.507 10098871 10084898 10066349 10051055 10044409 10047426 10057125 
3367.882 10068011 10074962 10075437 10070113 10062686 10057599 10058923 
3371.257 10068757 10086390 10109960 10136957 10165041 10193432 10221757 
3374.632 10249948 10277123 10301348 10319195 10327474 10323266 10305453 
3378.008 10275528 10237464 10197265 10161072 10134210 10119897 10118168 
3381.383 10126545 10140416 10155137 10166635 10172435 10172164 10166804 
3384.758 10157816 10147471 10137500 10129326 10123967 10122713 10126104 
3388.133 10134414 10146962 10162531 10179456 10195671 10209613 10219688 
3391.509 10225081 10224776 10218296 10206288 10190718 10174911 10163412 
3394.884 10161038 10171588 10195400 10229118 10266911 10299956 10320722 
3398.259 10324522 10311154 10284688 10252018 10221350 10199470 10190447 
3401.634 10195264 10211750 10236039 10262466 10286114 10302399 10308201 
3405.010 10302196 10285299 10259312 10227625 10193568 10159886 10128750 
3408.385 10101889 10081236 10068926 10067739 10079540 10105280 10142893 
3411.760 10188242 10235190 10277361 10310305 10332428 10344407 10348512 
3415.135 10346816 10340199 10327406 10307251 10278887 10244079 10207611 
3418.510 10175589 10154459 10148929 10159716 10184850 10219484 10258904 
3421.886 10299380 10339384 10378307 10416213 10451952 10483146 10505990 
3425.261 10516887 10513085 10494109 10462271 10423103 10384449 10354755 
3428.636 10342303 10352754 10387062 10441125 10506568 10571102 10622405 
3432.011 10651946 10656122 10637956 10605359 10568794 10537424 10517159 
3435.387 10509690 10513220 10524898 10541567 10561325 10583426 10606853 
3438.762 10629704 10649263 10662370 10667261 10664680 10658364 10653032 
3442.137 10653745 10662676 10678840 10698265 10716332 10729781 10738035 
3445.512 10743503 10750397 10762489 10780728 10802978 10823869 10838103 
3448.888 10841839 10834944 10820370 10803657 10790681 10785586 10790172 
3452.263 10803657 10823053 10845474 10869901 10897251 10930820 10973771 
3455.638 11027941 11091772 11159148 11220244 11264958 11284613 11275772 
3459.013 11241053 11189406 11133278 11085076 11054758 11046465 11058088 
3462.389 11082663 11111046 11134026 11144157 11137833 11114615 11077259 
3465.764 11031069 10984000 10944378 10920083 10916107 10932893 10965887 
3469.139 11005681 11041638 11064445 11069203 11057647 11037118 11018834 
3472.514 11012852 11026344 11060196 11108904 11162548 11209398 11239319 
3475.890 11245168 11225106 11182029 11123216 11057715 10996132 10947810 
3479.265 10919030 10911691 10923345 10947470 10975607 11000516 11017950 
3482.640 11027670 11032530 11036880 11044018 11055302 11069917 11086164 
3486.015 11102310 11117913 11132699 11146162 11156122 11158367 11147997 
3489.391 11120394 11074642 11013566 10944344 10875438 10816362 10773460 
3492.766 10749514 10743706 10752401 10770573 10792346 10812421 10825941 
3496.141 10829508 10821525 10802842 10776754 10748359 10722955 10704650 
3499.516 10694733 10692322 10695242 10701457 10711171 10726759 10751790 
3502.892 10788813 10837016 10891067 10943359 10986413 11015231 11029709 
3506.267 11032904 11030117 11026276 11023183 11019785 11012580 10997457 
3509.642 10971494 10933946 10885937 10829100 10765309 10696500 10625223 
3513.017 10556028 10496825 10456026 10441804 10458604 10505175 10573954 
3516.393 10652659 10727506 10786129 10820913 10830357 10819181 10795777 
3519.768 10769792 10750636 10744488 10754032 10778215 10812353 10848599 
3523.143 10878361 10894295 10891679 10870173 10832362 10783854 10730359 
3526.518 10677516 10630587 10593748 10570559 10563972 10575040 10602643 
3529.894 10642641 10688757 10732940 10768840 10792447 10803454 10804642 
3533.269 10799920 10792040 10781171 10765105 10741397 10709302 10673101 
3536.644 10641861 10626479 10636767 10677245 10744827 10829270 10916890 
3540.019 10993447 11047858 11075831 11079434 11066586 11046975 11031001 
3543.395 11026208 11035317 11056390 11082289 11103262 11108768 11092623 
3546.770 11054146 11000992 10945805 10903468 10886990 10902279 10948388 
3550.145 11016829 11094220 11164214 11213512 11234117 11225956 11194982 
3553.520 11149697 11098945 11047654 10999259 10956067 10920763 10897284 
3556.896 10889572 10900139 10928102 10969183 11015129 11055710 11082187 
3560.271 11089121 11076340 11048572 11014721 10986481 10974179 10986889 
3563.646 11029200 11100747 11194098 11295292 11384433 11438008 11437465 
3567.021 11376270 11265026 11126207 10986854 10867251 10777434 10719593 
3570.396 10690182 10684206 10696193 10722004 10758108 10800770 10846154 
3573.772 10889335 10925418 10950256 10961810 10960892 10950528 10935883 
3577.147 10922223 10913831 10913083 10920389 10934728 10954232 10976694 
3580.522 11001093 11026787 11053364 11080318 11106797 11131782 11153505 
3583.897 11170945 11183932 11192942 11199130 11203720 11207392 11209636 
3587.273 11208582 11201884 11188794 11170300 11148745 11127125 11107647 
3590.648 11090651 11075254 11059244 11040653 11017984 10992155 10965786 
3594.023 10943460 10929597 10926811 10935578 10954809 10982097 11015945 
3597.398 11054859 11097347 11140043 11177507 11201136 11201238 11170265 
3600.774 11105165 11010338 10896741 10780389 10677618 10602032 10563497 
3604.149 10565976 10608993 10687092 10791666 10911011 11031442 11140995 
3607.524 11230581 11297604 11345557 11383175 11418755 11457263 11498089 
3610.899 11536026 11563418 11572164 11557939 11521430 11468627 11408686 
3614.275 11350659 11300154 11259858 11231532 11217966 11224086 11256287 
3617.650 11318621 11408822 11513229 11610277 11674977 11690565 11654112 
3621.025 11576178 11474886 11369297 11276281 11206508 11164520 11150071 
3624.400 11159047 11185156 11222182 11265604 11312873 11362868 11414468 
3627.776 11464169 11505132 11528643 11530344 11513433 11486385 11458896 
3631.151 11435797 11418653 11405522 11392223 11373957 11347972 11314982 
3634.526 11279852 11250234 11232247 11229050 11237381 11249384 11253125 
3637.901 11239183 11202462 11145788 11078856 11015503 10968538 10945091 
3641.277 10946144 10966261 10997423 11032020 11067130 11103466 11144802 
3644.652 11194982 11255539 11324471 11397189 11467402 11530004 11583087 
3648.027 11628042 11666195 11695331 11709015 11701424 11671845 11628247 
3651.402 11582610 11545894 11523811 11515033 11514217 11512855 11502750 
3654.778 11476417 11431376 11370895 11303215 11237483 11179139 11128927 
3658.153 11085144 11046057 11012036 10985564 10970067 10967349 10977509 
3661.528 10997457 11023523 11051597 11078652 11103364 11124541 11141539 
3664.903 11154457 11164248 11174923 11192296 11224801 11280329 11362086 
3668.279 11464204 11569748 11651356 11683078 11657891 11593364 11523539 
3671.654 11478492 11477880 11526261 11618207 11737575 11859427 11950184 
3675.029 11977772 11932167 11835422 11725796 11629472 11554673 11495810 
3678.404 11443486 11389944 11333041 11274922 11221434 11177609 11145992 
3681.780 11126071 11115329 11110434 11109516 11112134 11119545 11134026 
3685.155 11158571 11195594 11248194 11318723 11408720 11517006 11637538 
3688.530 11758647 11865420 11943236 11982302 11979713 11939047 11869201 
3691.905 11782683 11693391 11613544 11552019 11512787 11494244 11489583 
3695.281 11488257 11479070 11452671 11406032 11342666 11272780 11208650 
3698.656 11160610 11134400 11129403 11138037 11147420 11144564 11121176 
3702.031 11078516 11026243 10979175 10950291 10947334 10971494 11019445 
3705.406 11084464 11158672 11235681 11310833 11382290 11451208 11520443 
3708.781 11593943 11674364 11761473 11850336 11930839 11989216 12013333 
3712.157 11998107 11947664 11874308 11793237 11718410 11658945 11619330 
3715.532 11599286 11595542 11603063 11616880 11633487 11652309 11674977 
3718.907 11704692 11744179 11793884 11851528 11912039 11969359 12018238 
3722.282 12055403 12080273 12094446 12099658 12096489 12084224 12061910 
3725.658 12029002 11987275 11940545 11894127 11853060 11820543 11798820 
3729.033 11789900 11796096 11820781 11867498 11938161 12030365 12136421 
3732.408 12244309 12340976 12416796 12466885 12489834 12486151 12456348 
3735.783 12402783 12329488 12242810 12150323 12058605 11973446 11899133 
3739.159 11838895 11794973 11767907 11758034 11764945 11789151 11831813 
3742.534 11893616 11972527 12057583 12128516 12163987 12156320 12118396 
3745.909 12073152 12042151 12038098 12067906 12131787 12223384 12326795 
3749.284 12418228 12471795 12467669 12401352 12284562 12141395 11997357 
3752.660 11873798 11783875 11731107 11714257 11728894 11769099 11828033 
3756.035 11897737 11969087 12032170 12078364 12100918 12096285 12064294 
3759.410 12008428 11936083 11857112 11782785 11722937 11683724 11667931 
3762.785 11674398 11699722 11736894 11777508 11813120 11837874 11851425 
3766.161 11859326 11869779 11890313 11924402 11969870 12018068 12054347 
3769.536 12062999 12033226 11964454 11866000 11754017 11645230 11552053 
3772.911 11483153 11442159 11428790 11439710 11469409 11512787 11564814 
3776.286 11621508 11679878 11735736 11783806 11817342 11830213 11820134 
3779.662 11791807 11756094 11725660 11711228 11718614 11747345 11792419 
3783.037 11845739 11898009 11939830 11965102 11971266 11959414 11932712 
3786.412 11894808 11849383 11799773 11749865 11704113 11666808 11641214 
3789.787 11629404 11631241 11645094 11669633 11703262 11745507 11796199 
3793.163 11854592 11918340 11983324 12042798 12089232 12117340 12125961 
3796.538 12120611 12112230 12112707 12130492 12168860 12224884 12290766 
3799.913 12351748 12388567 12383248 12329181 12239095 12140339 12060377 
3803.288 12014388 12005158 12026890 12068008 12112333 12140476 12135842 
3806.664 12090255 12011800 11921235 11842845 11791636 11771210 11776282 
3810.039 11797050 11823096 11846079 11862901 11875227 11889155 11911495 
3813.414 11948344 12001615 12067599 12135433 12190226 12219056 12218204 
3816.789 12196496 12169746 12153390 12157478 12186715 12240390 12311933 
3820.165 12386351 12443050 12464191 12444482 12394260 12331158 12270008 
3823.540 12218579 12179049 12149471 12125858 12103951 12080511 12054517 
3826.915 12028253 12005873 11992554 11992895 12009756 12043854 12093866 
3830.290 12156116 12223861 12288993 12344282 12384953 12410762 12425047 
3833.666 12433230 12440254 12449665 12462350 12477148 12491437 12502486 
3837.041 12509136 12512103 12513398 12515069 12517115 12517763 12514080 
3840.416 12502860 12482059 12450927 12409670 12358941 12300105 12234835 
3843.791 12165588 12097137 12034827 11984550 11951955 11941125 11953828 
3847.167 11989693 12046273 12119862 12206378 12302593 12406806 12518002 
3850.542 12636014 12757983 12875003 12969727 13014314 12982904 12871453 
3853.917 12708440 12536009 12385396 12268678 12183410 12123133 12081635 
3857.292 12054755 12040311 12037757 12046955 12068110 12101259 12146643 
3860.667 12203686 12271371 12346635 12424127 12496040 12552380 12583348 
3864.043 12582359 12550094 12495802 12435311 12386146 12361259 12367293 
3867.418 12404829 12468930 12548764 12626088 12681114 12698274 12677633 
3870.793 12633456 12586384 12552448 12539181 12545422 12563054 12579256 
3874.168 12579972 12558109 12515888 12464396 12418058 12390544 12391601 
3877.544 12424468 12485708 12564146 12641746 12696022 12708953 12674802 
3880.919 12604462 12518718 12439539 12382192 12351645 12345543 12356316 
3884.294 12373907 12387680 12390373 12379839 12360134 12336919 12315307 
3887.669 12296559 12280028 12264111 12247548 12230610 12214830 12202596 
3891.045 12195030 12191111 12188317 12183615 12175879 12167053 12161704 
3894.420 12165418 12183547 12219772 12275325 12349430 12438379 12537032 
3897.795 12639221 12737612 12825447 12896779 12947810 12977749 12989698 
3901.170 12989698 12984099 12979012 12976964 12976042 12970409 12952350 
3904.546 12916508 12861453 12791014 12711409 12629431 12549208 12472784 
3907.921 12400159 12330817 12265271 12205561 12155911 12121361 12106369 
3911.296 12112775 12139318 12181468 12233540 12289300 12344282 12395317 
3914.671 12439709 12475034 12497950 12505827 12498359 12478274 12452086 
3918.047 12428252 12414410 12415364 12432003 12461088 12497745 12536350 
3921.422 12572195 12602006 12623018 12632228 12626497 12602961 12561315 
3924.797 12505316 12442846 12383521 12336169 12306343 12295742 12302627 
3928.172 12323318 12354203 12392658 12437015 12486322 12538533 12589624 
3931.548 12632672 12660814 12668354 12654163 12622131 12579153 12533690 
3934.923 12492664 12459281 12434219 12415092 12398999 12383112 12366679 
3938.298 12350963 12339032 12334907 12341896 12362247 12395760 12438823 
3941.673 12485230 12526869 12555483 12566465 12559849 12541363 12519912 
3945.049 12505452 12506203 12526733 12566465 12619811 12677360 12727411 
3948.424 12759825 12768697 12753479 12719222 12674086 12628407 12590784 
3951.799 12566772 12558007 12561588 12571342 12579256 12578676 12565271 
3955.174 12539214 12504770 12468726 12437697 12415910 12404318 12400397 
3958.550 12400056 12399851 12398113 12395727 12394873 12397226 12403261 
3961.925 12411035 12418365 12423309 12426411 12430264 12439061 12456485 
3965.300 12483525 12518207 12556097 12591091 12618516 12636014 12643929 
3968.675 12645157 12642700 12639733 12638164 12639017 12643076 12650990 
3972.051 12663544 12680601 12701072 12721782 12738295 12746450 12743038 
3975.426 12726557 12698308 12661122 12618754 12575640 12535873 12503406 
3978.801 12481752 12473773 12480422 12500814 12530791 12564555 12595287 
3982.176 12617492 12628339 12628987 12623257 12616298 12613057 12615787 
3985.552 12624280 12636151 12647715 12656005 12659109 12656482 12649012 
3988.927 12637924 12624655 12610670 12597333 12585736 12577141 12572536 
3992.302 12572093 12575981 12583144 12592387 12602517 12612341 12621142 
3995.677 12628203 12633353 12636287 12637618 12637686 12638061 12640279 
3999.052 12646828 12659893 12681079 12711307 
##END=
