##TITLE=mas_4 Sep 19 19:50:33 2026 (GMT+02:00)
##JCAMP-DX=5.01  $$ Nicolet v. 970
##DATATYPE=INFRARED SPECTRUM
##ORIGIN=Vojna akademija
##OWNER=Nicolet
##LONGDATE=2026/09/19
##TIME=19:51:05
##SPECTROMETER/DATA SYSTEM=Nicolet iS20
##DATA PROCESSING=
Ratio against background
%Transmittance->Absorbance
Truncated
ElementMultiply or ElementDivide
##COMMENTS=
Number of sample scans: 8
Collection length: 11,90 sec
Sample gain: 8,0
Background collected on: Sat Sep 19 19:48:19 2026 (GMT+02:00);
Number of background scans: 8
Background gain: 8,0
Sample spacing:  1,000
Number of scan points: 12415
Resolution points: 8286
Number of FFT points: 65536
Apodization: N-B strong;
Phase correction: Mertz;
Laser frequency: 15798,00 cm-1
Number of rejected sample scans: 0
Number of rejected background scans: 0
Bench serial number: BER2010005;
##RESOLUTION= 4,000
##XUNITS=1/CM
##YUNITS=ABSORBANCE
##FIRSTX=400.156891
##LASTX=4000.123047
##FIRSTY=0.003253
##MAXX=4000.123047
##MINX=400.156891
##MAXY=0.080520
##MINY=-0.001540
##XFACTOR=1.000000
##YFACTOR=1.000000E-010
##NPOINTS=7468
##DELTAX=0.482117
##ZPD=6100
##XYDATA=(X++(Y..Y))
400.157 32527926 29008768 33493808 45825740 63928180 84099408 102141584 
403.532 113774600 115969712 107719992 90624216 68876280 48301696 34867044 
406.907 32291248 41479824 60465476 85590120 112434336 137195072 157655664 
410.281 172937216 183003952 187674480 186039040 176766528 159055328 
413.174 133879872 104316904 75181016 51558892 37017272 33441050 40809492 
416.549 57813676 81955120 110179504 139213536 165991248 188660624 207044352 
419.924 222149440 234939104 245879328 254890304 261611920 265417088 
422.816 265558320 261388816 252525552 239288416 222797072 204803776 
425.709 187074624 171056032 157560496 146674016 137899264 130300528 
428.602 122842208 114524664 104606416 92692560 78714192 63002912 46310640 
431.977 29826402 14907046 2929374 -4941449 -8005422 -5942498 1075332 
435.351 12455700 27163566 43971040 61712496 79354960 96081480 111109104 
438.726 123527704 132476000 137290832 137895840 135006992 130258880 
441.619 125816088 123628272 124920504 129547400 136087568 142246928 
444.512 145784048 145001152 138999712 127862032 112618304 95276336 78293808 
447.886 64353900 55472908 52495484 55067860 61793832 70736264 79762280 
451.261 87347736 92944408 97261856 101853928 108523704 118390312 131366272 
454.636 146093136 160306576 171525472 177368784 176395904 168529456 
457.529 155328480 139375376 123361008 108986776 96596416 85672576 75590984 
460.904 66181664 58012128 52228536 50075456 52434108 59239300 69438840 
464.278 81147872 92306024 100953440 105715432 106225744 103281184 98797080 
467.653 95115800 94522136 98356792 106701808 118366816 131281920 142928992 
471.028 150814352 153300784 149886848 141462960 129831432 117136448 
473.921 104977080 94042328 84311560 75498272 67483840 60640192 55729984 
477.296 53638240 54904108 59281960 65663596 72320432 77608672 80286424 
480.670 80032616 77499720 74196048 71900336 72030032 75228552 81093520 
484.045 88401976 95568968 101376696 105309064 107697576 109316016 110927584 
487.420 112763496 114379408 114744784 112736632 107629992 99522528 89387808 
490.795 78862992 69752304 63330700 60105648 59630964 60831380 62346056 
494.170 63109816 62614972 60861284 58207564 55083292 51794280 48392496 
497.544 44724204 40544272 35705828 30281488 24631984 19359568 15319673 
500.919 13419454 14427637 18813776 26579122 37280948 50111656 64140028 
504.294 78354200 91719864 103303240 112164704 117518392 118925264 116420640 
507.669 110660416 102805160 94341992 86581056 80422784 76211064 73721168 
511.044 72331888 71243152 69794056 67591864 64658584 61340472 58225024 
514.419 55934380 54999404 55760192 58224692 62011620 66325324 70161080 
517.793 72444080 72378048 69744896 65043004 59470064 54546752 51837200 
521.168 52323440 56179068 62672788 70446984 77784416 83067488 85318088 
524.543 84334536 80785984 75863080 70964608 67126120 64762168 63718700 
527.918 63527720 63732820 64087904 64609820 65470180 66816892 68630544 
531.293 70673960 72549536 73876536 74390528 74047416 73009456 71582680 
534.667 70076896 68735568 67683400 66918508 66370740 65956600 65639712 
538.042 65448312 65472532 65831460 66625772 67898120 69588328 71521712 
541.417 73441800 75058640 76110240 76459256 76104512 75174952 73858344 
544.792 72344352 70764216 69175896 67600280 66074012 64687844 63591604 
548.167 62945420 62846924 63291700 64150784 65206132 66245248 67165496 
551.542 67987320 68851032 69915944 71257976 72803584 74331880 75535688 
554.916 76171272 76144296 75568736 74708400 73901144 73417536 73356208 
558.291 73620408 73948664 74028200 73580640 72477440 70771288 68698544 
561.666 66591456 64819008 63691464 63368352 63855552 65009036 66591456 
565.041 68316160 69940184 71323992 72455536 73465392 74588056 76133848 
568.416 78393680 81613088 85925024 91317848 97609864 104455376 111390568 
571.790 117830912 123214088 127093624 129223104 129651520 128700872 
574.683 126928144 124945400 123336120 122510920 122626464 123613272 
577.576 125243448 127244768 129359312 131404520 133291480 135003568 
580.469 136587440 138134928 139725056 141369184 142976240 144338640 
583.361 145212880 145396528 144863440 143828976 142752640 142162704 
586.254 142448592 143684096 145537008 147316320 148194928 147552496 
589.147 145158752 141324688 136759088 132416216 129092376 127172088 
592.039 126512976 126558000 126599280 126093736 124905848 123301008 
594.932 121825928 120998624 121140696 122200784 123798392 125333144 
597.825 126249280 126196408 125098176 123148648 120713128 118215976 
600.717 115992856 114287560 113249464 112979440 113579024 115123792 
603.610 117619496 120928440 124738744 128593704 131921608 134202120 
606.503 135036048 134246208 131939712 128519992 124629976 120989088 
609.396 118331752 117184104 117751248 119851968 122934232 126209712 
612.288 128812144 130120264 129879232 128252424 125702856 122810176 
615.181 119993320 117339672 114587264 111287560 107104576 102078488 96759032 
618.556 92121232 89302232 89107416 91763512 96726168 102888616 108746232 
621.931 112895448 114442000 113119896 109359848 104043352 98281896 93012784 
625.305 88876432 86151464 84794360 84573056 85185968 86406984 88091904 
628.680 90226360 92878736 96176664 100220632 105017128 110383080 115938064 
632.055 121100488 125163312 127521816 127783200 125952864 122461840 
634.948 118105664 113805896 110323944 108121832 107223096 107300872 
637.840 107791664 108151392 107981544 107136832 105738184 104113944 
640.733 102687432 101842048 101854608 102803800 104553464 106763952 
643.626 108980320 110719904 111584344 111391928 110219264 108389856 
646.519 106347640 104562288 103377216 102924920 103127480 103762368 
649.411 104580616 105381712 106085168 106712672 107332112 107993096 
652.304 108712936 109480480 110301848 111253568 112489080 114201496 
655.197 116563936 119642160 123341232 127393528 131431848 135052784 
658.089 137900976 139763728 140578864 140455664 139628560 138431840 
660.982 137222432 136306384 135924144 136187392 137079152 138481440 
663.875 140226720 142143184 144104352 146049264 147950496 149781552 
666.767 151484032 152927008 153965360 154552448 154868672 155199696 
669.660 155761872 156654560 157897904 159526912 161632128 164350848 
672.553 167828208 172135632 177212080 182814560 188569952 194090096 
675.446 199036896 203271232 206868160 210082384 213210576 216471296 
678.338 219894448 223355872 226652832 229685072 232547760 235561712 
681.231 239141728 243599008 248995888 255079008 261338864 267173264 
684.124 272148672 276090528 279123552 281518752 283538240 285284064 
687.016 286689728 287625312 288059040 288184736 288461984 289436928 
689.909 291606080 295226912 300217568 306164896 312442624 318414560 
692.802 323524032 327425632 329999264 331303584 331548192 331028576 
695.694 330102176 329072704 328148480 327369568 326618624 325665664 
698.587 324299456 322459008 320320032 318296224 316924832 316769056 
701.480 318208160 321350656 325992096 331678720 337806144 343769376 
704.373 349163328 353815552 357849184 361598464 365550656 370171040 
707.265 375764096 382386432 389810464 397579776 405118528 411947968 
710.158 417789920 422663104 426843104 430756736 434805344 439211136 
713.051 444023264 449149728 454507008 460098976 466061472 472594016 
715.943 479856800 487860960 496453376 505379616 514402912 523373632 
718.836 532231072 540896832 549102656 556304896 561724480 564509056 
721.729 564095872 560403712 553908736 545424000 535868224 525962784 
724.621 516041856 506140896 496133568 485941344 475663968 465568672 
727.514 455967104 447072736 438876832 431150784 423519616 415619584 
730.407 407170496 398043456 388242368 377862976 367067648 356077184 
733.300 345212416 334838880 325329216 316984736 309938848 304143072 
736.192 299385760 295376576 291787136 288302976 284636608 280475968 
739.085 275507616 269470912 262248592 253981056 245118496 236371248 
741.978 228459408 221938800 216992352 213390848 210578304 207907664 
744.870 204894768 201334544 197342720 193214272 189266944 185670032 
747.763 182413696 179372512 176434560 173598576 171006064 168840496 
750.656 167244144 166180928 165428096 164609648 163363680 161462928 
753.548 158874896 155758096 152373440 148996224 145827920 143017680 
756.441 140685312 138952496 137960480 137807600 138494768 139850288 
759.334 141540672 143129312 144173552 144381808 143680000 142222960 
762.227 140312608 138327168 136599408 135338208 134617360 134369232 
765.119 134412640 134484752 134305328 133618128 132244744 130145864 
768.012 127429360 124340832 121165568 118177504 115556592 113358640 
770.905 111557488 110098272 108949064 108121832 107626928 107436048 
773.797 107414648 107350120 106982656 106118784 104725208 102953424 
776.690 101092488 99420144 98107008 97109032 96188520 95005392 93295792 
780.065 90992328 88290048 85571192 83304584 81872400 81431456 81885904 
783.440 82920576 84134200 85120080 85608704 85487728 84790976 83658576 
786.815 82287040 80889960 79645856 78688888 78080264 77798248 77763504 
790.189 77856264 77978048 78080600 78196312 78411552 78820472 79448104 
793.564 80212848 80914600 81323424 81246448 80623280 79576000 78367696 
796.939 77308136 76620456 76379336 76469712 76653840 76675416 76403616 
800.314 75885000 75344192 75078536 75345200 76215448 77528728 78898752 
803.689 79858128 80026536 79216616 77539856 75372176 73269936 71752792 
807.063 71203744 71746392 73252752 75405216 77826920 80217568 82392400 
810.438 84316632 86046352 87651344 89135496 90419528 91357768 91815632 
813.813 91736776 91198056 90393144 89611384 89141576 89190288 89861696 
817.188 91116848 92802568 94678920 96493416 98005672 99031656 99483888 
820.563 99385232 98869968 98152424 97501760 97140552 97196112 97662040 
823.938 98405600 99215048 99866984 100214192 100217584 99963288 99618136 
827.312 99394384 99494728 100057536 101157256 102767152 104765944 106920840 
830.687 108932416 110470432 111239288 111099920 110122400 108622912 
833.580 107066192 105995536 105837992 106772104 108688472 111225360 
836.473 113905224 116259328 118014760 119130960 119779760 120231424 
839.365 120746512 121486880 122466608 123594176 124737736 125784704 
842.258 126681152 127416728 127996128 128397808 128561624 128409752 
845.151 127885912 127007992 125890784 124746256 123825656 123378736 
848.043 123566232 124414136 125802784 127509880 129266120 130818512 
850.936 131993688 132714448 132976480 132812152 132246112 131268256 
853.829 129850544 127997160 125804832 123497368 121428944 119976296 
856.721 119432360 119901368 121239504 123078424 124920504 126330128 
859.614 127019584 126955440 126315800 125404432 124497672 123745544 
862.507 123154440 122625784 122059696 121447688 120901520 120641576 
865.400 120886192 121748912 123176248 124927320 126672968 128061992 
868.292 128863344 129011816 128614864 127872264 127028456 126289528 
871.185 125771064 125511176 125482184 125624752 125869296 126145928 
874.078 126383000 126498984 126402784 126001984 125218896 124015560 
876.970 122420600 120546872 118577248 116773592 115413352 114717904 
879.863 114811464 115665832 117105472 118822080 120468864 121732216 
882.756 122390272 122373232 121738008 120634080 119228352 117693368 
885.648 116177304 114818608 113783448 113250480 113379040 114261024 
888.541 115849584 117924536 120094160 121917592 122987752 123077064 
891.434 122206576 120656232 118864992 117284184 116277704 115993192 
894.327 116344064 117068368 117854064 118438664 118692688 118646712 
897.219 118445472 118275232 118264664 118454320 118766920 119063184 
900.112 119192936 119063864 118682120 118166272 117693368 117466648 
903.005 117651840 118321872 119448704 120899136 122477856 123953512 
905.897 125119656 125840984 126073960 125867928 125357016 124733296 
908.790 124190800 123908512 123998168 124495288 125353952 126465216 
911.683 127678784 128812144 129694192 130184104 130187176 129679848 
914.575 128727840 127479856 126143200 124966536 124186032 123958280 
917.468 124332648 125223680 126431448 127663088 128613504 129026832 
920.361 128734664 127711536 126067472 124040104 121921336 120015128 
923.254 118567032 117696432 117383240 117465280 117704608 117842824 
926.146 117710392 117268184 116627232 115988088 115571568 115529040 
929.039 115881568 116523088 117267504 117944280 118449560 118782920 
931.932 119033560 119309408 119683032 120147288 120630336 121039160 
934.824 121311064 121454848 121541728 121675992 121947240 122402544 
937.717 123049104 123896232 124986664 126416088 128294400 130686024 
940.610 133536808 136643856 139674416 142230496 143998512 144804864 
943.502 144685984 143852272 142636224 141370544 140315008 139648080 
946.395 139465712 139805808 140675728 142043568 143815968 145821056 
949.288 147842848 149642656 151043168 151989456 152567680 152964432 
952.181 153390032 154001072 154828160 155771488 156641504 157249216 
955.073 157457072 157230336 156636704 155819920 154959664 154233840 
957.966 153814656 153839024 154391088 155478544 157023504 158860112 
960.859 160761792 162527056 164009168 165168896 166061824 166791344 
963.751 167428032 167960448 168282816 168246672 167741072 166757248 
966.644 165416032 163941024 162572112 161467072 160674464 160128160 
969.537 159710816 159321712 158927472 158564560 158301312 158169024 
972.429 158130528 158076256 157880032 157448832 156772736 155932224 
975.322 155063712 154304896 153747040 153431232 153354000 153511552 
978.215 153912160 154575792 155507728 156671744 157973504 159282512 
981.108 160460960 161415824 162109488 162543232 162725536 162621664 
984.000 162162128 161276192 159958672 158331200 156665200 155332240 
986.893 154673296 154907824 156028384 157800320 159798816 161555440 
989.786 162708000 163057856 162635408 161637984 160370880 159117872 
992.678 158095136 157405552 157032080 156868224 156757280 156552544 
995.571 156146192 155508080 154695616 153850368 153143600 152728640 
998.464 152693296 153028944 153643024 154394512 155166736 155903024 
1001.356 156630512 157429936 158408544 159637600 161138304 162879664 
1004.249 164814752 166896384 169081984 171329696 173538592 175536400 
1007.142 177106816 178014256 178121280 177457152 176252352 174888192 
1010.035 173785168 173310304 173632720 174713296 176318608 178145456 
1012.927 179897744 181390640 182587856 183568688 184470576 185412080 
1015.820 186455456 187579008 188708384 189734208 190567088 191154624 
1018.713 191505408 191683728 191802512 191991936 192354208 192938880 
1021.605 193722848 194611232 195478000 196218736 196799744 197288640 
1024.498 197827152 198596032 199735904 201274496 203105952 204998976 
1027.391 206671472 207842656 208336960 208118320 207301856 206127328 
1030.284 204900336 203961568 203582000 203941072 205065680 206830624 
1033.177 208952304 211044736 212712256 213579152 213408960 212136400 
1036.070 209870240 206856000 203422960 199935056 196706144 193989616 
1038.964 191941392 190607248 189943280 189839776 190167248 190799408 
1041.857 191647040 192664896 193827824 195112336 196457232 197757088 
1044.750 198872128 199662368 200038464 199999936 199653008 199187792 
1047.643 198815248 198733376 199051824 199781360 200839664 202079392 
1050.536 203336160 204466528 205394976 206130112 206780240 207517680 
1053.429 208566064 210122016 212289152 215035248 218187584 221469472 
1056.322 224571696 227268320 229456944 231191312 232608928 233869312 
1059.215 235048208 236106048 236909728 237312144 237249504 236788320 
1062.108 236118640 235481600 235087408 235029328 235302864 235836320 
1065.001 236581168 237544528 238789904 240359200 242222272 244237936 
1067.894 246213840 247991744 249582624 251210928 253281680 256186704 
1070.787 260149968 265060288 270484992 275753696 280226816 283542496 
1073.680 285744096 287276640 288801216 291007968 294332960 298899808 
1076.573 304521888 310854528 317498368 324131296 330549120 336619808 
1079.466 342260864 347431872 352166624 356625312 361093984 365960128 
1082.359 371553184 378048768 385365024 393186592 401016480 408339552 
1085.253 414786848 420175296 424530464 428025824 430938176 433580832 
1088.146 436305344 439488288 443443424 448372672 454249536 460809984 
1091.039 467545696 473848768 479209632 483322208 486169280 487945504 
1093.932 488918048 489257728 488974784 487950656 486058432 483288544 
1096.825 479799808 475867264 471801280 467804384 463928768 460118496 
1099.718 456307520 452502496 448843648 445527872 442732672 440503232 
1102.611 438711136 437082432 435306016 433163488 430580704 427656160 
1105.504 424598048 421668032 419108160 417126784 415911264 415617760 
1108.397 416368928 418214560 421107584 424882688 429290816 434090912 
1111.290 439076992 444157952 449320608 454559296 459797696 464846912 
1114.183 469408448 473203616 476053984 477971424 479131936 479800928 
1117.076 480190976 480364192 480214656 479528224 478099424 475802944 
1119.969 472639424 468701952 464098368 458898240 453139424 446879904 
1122.862 440254624 433544576 427145056 421469408 416904640 413684992 
1125.755 411870368 411375680 412027776 413641952 416076096 419272736 
1128.649 423244896 428069728 433856544 440748608 448903168 458464832 
1131.542 469528064 482097664 496041056 511073632 526817472 542848384 
1134.435 558774336 574328128 589345792 603741952 617458368 630420800 
1137.328 642548416 653809280 664246144 673981760 683151360 691820736 
1140.221 699912960 707199872 713384000 718253824 721771648 724129600 
1143.114 725661568 726755136 727703872 728655232 729667200 730762048 
1146.007 732011328 733548096 735503040 737920256 740685760 743550976 
1148.900 746188672 748338624 749916288 751026112 751905024 752792704 
1151.793 753851264 755102848 756479040 757895936 759326656 760812416 
1154.686 762417856 764147200 765902464 767485376 768672832 769285504 
1157.579 769256192 768602048 767360384 765488640 762855424 759256384 
1160.472 754555264 748762240 742108928 734968512 727773248 720858560 
1163.365 714380224 708327296 702578880 696994752 691450432 685851136 
1166.258 680076480 673938496 667217792 659704960 651311040 642133504 
1169.151 632462848 622682880 613144704 604070592 595494976 587298176 
1172.045 579286336 571300288 563248192 555124352 546977728 538878208 
1174.938 530911008 523172544 515797824 508928768 502660576 496986112 
1177.831 491748704 486654016 481338016 475510176 469033376 461990976 
1180.724 454633600 447294912 440264544 433706784 427675904 422156960 
1183.617 417137376 412640576 408703200 405320064 402373216 399639424 
1186.510 396803520 393565664 389757184 385370464 380569696 375588544 
1189.403 370670784 365979584 361589824 357540128 353868768 350648000 
1192.296 347959520 345831616 344185056 342796480 341359296 339537024 
1195.189 337083104 333917760 330127936 325918880 321537632 317216416 
1198.082 313119168 309370592 306068896 303293792 301100320 299471296 
1200.975 298295712 297354272 296377216 295121952 293446272 291368672 
1203.868 289050880 286748864 284695328 283037792 281797696 280876448 
1206.761 280122528 279382528 278574144 277689952 276792864 275980352 
1209.654 275355456 274985504 274883456 274996800 275222368 275411936 
1212.547 275420416 275156704 274611328 273880768 273132992 272568128 
1215.441 272326464 272442176 272829216 273330240 273787232 274115776 
1218.334 274353312 274644160 275172224 276065088 277349120 278918624 
1221.227 280594720 282180288 283540000 284642976 285540608 286329440 
1224.120 287119808 288001312 289041312 290300832 291841024 293695136 
1227.013 295838752 298161568 300471072 302520352 304095424 305090944 
1229.906 305536352 305582208 305435040 305268672 305160608 305099840 
1232.799 305032640 304934208 304853152 304900768 305180512 305726560 
1235.692 306435136 307079808 307363968 307052448 306036928 304386496 
1238.585 302293344 300007360 297739264 295599680 293605792 291714144 
1241.478 289868672 288027168 286168768 284264800 282257344 280074464 
1244.371 277646848 274944192 272002976 268912864 265781984 262678720 
1247.264 259615280 256542416 253398656 250166976 246905072 243760928 
1250.157 240939152 238621168 236926528 235863600 235343776 235187072 
1253.050 235186736 235145824 234899584 234341744 233435056 232211152 
1255.943 230779664 229300448 227958992 226892656 226145280 225626272 
1258.837 225143616 224433872 223273184 221558032 219343056 216827248 
1261.730 214275296 211947488 210018384 208561536 207558352 206925856 
1264.623 206543248 206267376 205950144 205429376 204574544 203315344 
1267.516 201669824 199753248 197756064 195891840 194324672 193133552 
1270.409 192311264 191791792 191507136 191429568 191586432 192027616 
1273.302 192777120 193790400 194933856 196029456 196895104 197409984 
1276.195 197551120 197372544 196968592 196400016 195672768 194722128 
1279.088 193463008 191827792 189812432 187483168 184957728 182355648 
1281.981 179767216 177232096 174750208 172297296 169858544 167437328 
1284.874 165067040 162806032 160724672 158907888 157437824 156378400 
1287.767 155758432 155555808 155684592 156011216 156401392 156740784 
1290.660 156977136 157122448 157233760 157368448 157535408 157676624 
1293.553 157690032 157470480 156964416 156215920 155361104 154592624 
1296.446 154067328 153861696 153928288 154119856 154234512 154096496 
1299.339 153618304 152810656 151764688 150617440 149502384 148512752 
1302.233 147700928 147088384 146670240 146435488 146363168 146411840 
1305.126 146521840 146613696 146615408 146477280 146186336 145778224 
1308.019 145315328 144867904 144493472 144218752 144046816 143958448 
1310.912 143931728 143953312 144021136 144142384 144327344 144573968 
1313.805 144866880 145166288 145414688 145542832 145478768 145164928 
1316.698 144583232 143758080 142768048 141724496 140755472 139956368 
1319.591 139368192 138968240 138683952 138412336 138051808 137530560 
1322.484 136807632 135884144 134795088 133602752 132387184 131232056 
1325.377 130215520 129384224 128750360 128281768 127923448 127602008 
1328.270 127255000 126856848 126412000 125957296 125534368 125182064 
1331.163 124916416 124737736 124646344 124652144 124783424 125081808 
1334.056 125577000 126273160 127132168 128084856 129043560 129938280 
1336.949 130751936 131517568 132316472 133230664 134307728 135521776 
1339.842 136774128 137931072 138881680 139581696 140053216 140377296 
1342.735 140661696 141022432 141559504 142354096 143441280 144813088 
1345.629 146406016 148120880 149831968 151409920 152754032 153807104 
1348.522 154557248 155036928 155291376 155354224 155228896 154896832 
1351.415 154335456 153547248 152579008 151522464 150495664 149623440 
1354.308 148994176 148653680 148602256 148801120 149200944 149752736 
1357.201 150415056 151145056 151890288 152583472 153139120 153482032 
1360.094 153548624 153324816 152854944 152249552 151676512 151307344 
1362.987 151273024 151606512 152240640 153046800 153901504 154710384 
1365.880 155435952 156086784 156704368 157334768 157998928 158674864 
1368.773 159303152 159823216 160207232 160491536 160780368 161221184 
1371.666 161955744 163081920 164612400 166468400 168488112 170491184 
1374.559 172353504 174028304 175522960 176815536 177786784 178213456 
1377.452 177812672 176324144 173641344 169874720 165349952 160467824 
1380.345 155600464 150982112 146666816 142620128 138770496 135071248 
1383.238 131518592 128121376 124862192 121681440 118482240 115169376 
1386.131 111704016 108148328 104651552 101389920 98476104 95924296 93680720 
1389.507 91683304 89907024 88376952 87141864 86248128 85699616 85451912 
1392.882 85417096 85511384 85668184 85876024 86174784 86610464 87192560 
1396.257 87878880 88591688 89262320 89854256 90387056 90928040 91560808 
1399.632 92330736 93207432 94085664 94817776 95254656 95249584 94689432 
1403.008 93518888 91769264 89581616 87224344 85042696 83335320 82298528 
1406.383 81968288 82252936 82983056 83982184 85112984 86289704 87503248 
1409.758 88802368 90271024 91985856 93994584 96292192 98828608 101524576 
1413.133 104297216 107079784 109813496 112452704 114951968 117247080 
1416.026 119248784 120829976 121817400 122026296 121332864 119810424 
1418.920 117780528 115771320 114240952 113375296 113091328 113151176 
1421.813 113291640 113275656 112970936 112370752 111612560 110933024 
1424.706 110581232 110705288 111318504 112341848 113674264 115258192 
1427.599 117089472 119215752 121700184 124574056 127804352 131288416 
1430.492 134892496 138495808 142020976 145446560 148785008 152072832 
1433.385 155349072 158658720 162033824 165497264 169025488 172516240 
1436.278 175771024 178551104 180698368 182199808 183162928 183749808 
1439.171 184107232 184383808 184711888 185207024 185952912 186970832 
1442.064 188220128 189600608 191006096 192351792 193605392 194789712 
1444.957 195966368 197225536 198647712 200321936 202317184 204680464 
1447.850 207426640 210536240 213970704 217710288 221768640 226197296 
1450.743 231062368 236413568 242241552 248463616 254951456 261545424 
1453.636 268114176 274555232 280707136 286284480 290741888 293253408 
1456.529 293029728 290020992 285336416 280567168 276874464 274568640 
1459.422 273433632 273116064 273305536 273777696 274362496 274934304 
1462.316 275363936 275510080 275234720 274404832 272910368 270653536 
1465.209 267487232 263192304 257528480 250269456 241367872 230978832 
1468.102 219489808 207347392 195009072 182775168 170645920 158406128 
1470.995 145709008 132375232 118691328 105540928 94000000 84664616 77416744 
1474.370 71665208 66746900 62242868 58014476 54145144 50792804 48069852 
1477.745 45953324 44317812 42988436 41810676 40677044 39517636 38297692 
1481.120 37000232 35636340 34248168 32917192 31756844 30872438 30358232 
1484.496 30255130 30539416 31124392 31887018 32692842 33428696 34016068 
1487.871 34386096 34445880 34080852 33196976 31817926 30142022 28494112 
1491.246 27177904 26356100 26039420 26123756 26450442 26842828 27148562 
1494.621 27239918 27034868 26527114 25795428 25001212 24321430 23910946 
1497.997 23837982 24097192 24609326 25255826 25894758 26395102 26679468 
1501.372 26732808 26608126 26396436 26204758 26121088 26197424 26434772 
1504.747 26780150 27132892 27348618 27302604 26988858 26560452 26186422 
1508.122 25925758 25735432 25565114 25397470 25252828 25154180 25118520 
1511.498 25120520 25105856 24995880 24738284 24312102 23743364 23091094 
1514.873 22436588 21875754 21487812 21324654 21380594 21598032 21881416 
1518.248 22134848 22264732 22165486 21722572 20842538 19538962 18020504 
1521.623 16689835 15921560 15827779 16273753 17016810 17831524 18545232 
1524.999 19052052 19304654 19301658 19082670 18693978 18179546 17575682 
1528.374 16926000 16285726 15719702 15289414 15032393 14947942 15008786 
1531.749 15165723 15373540 15615618 15905264 16279739 16748377 17270954 
1535.124 17775630 18185536 18444408 18508962 18349242 17945976 17298232 
1538.500 16427076 15400806 14345857 13437734 12821237 12551734 12599253 
1541.875 12876402 13274213 13690674 14016425 14165679 14102188 13850222 
1545.250 13490581 13119670 12815919 12609886 12506209 12496241 12575327 
1548.625 12749457 13026283 13397186 13820638 14230503 14561614 14760757 
1552.001 14805973 14698586 14468860 14171996 13893766 13730227 13762137 
1555.376 14053654 14646723 15586022 16896062 18536580 20254948 21394910 
1558.751 21139192 19390520 17135896 15373873 14465203 14303969 14649382 
1562.126 15267136 15957144 16558121 16953276 17121260 17142882 17203092 
1565.502 17497170 18158252 19195490 20503956 21850446 22906220 23294624 
1568.877 22683056 21001350 18557212 15932866 13641148 11947324 10878928 
1572.252 10333537 10180428 10310620 10653723 11157297 11781200 12467663 
1575.627 13132632 13690009 14110166 14443594 14785692 15217260 15769916 
1579.003 16418096 17092652 17693454 18130968 18346246 18353236 18239438 
1582.378 18143944 18192522 18444074 18862696 19322958 19640144 19633488 
1585.753 19201148 18346580 17185462 15905264 14739812 13898420 13520827 
1589.128 13657768 14257429 15192656 16289717 17383728 18325950 19005794 
1592.504 19360566 19368554 19056046 18480012 17734376 16930990 16190608 
1595.879 15633574 15348601 15373540 15692434 16237501 16895730 17536426 
1599.254 18037806 18305320 18304322 18055438 17641888 17164504 16715446 
1602.629 16356899 16107131 15950493 15856046 15805832 15798183 15853386 
1606.005 15994724 16237834 16568764 16947954 17320854 17631242 17853150 
1609.380 17986900 18054442 18080394 18081392 18059432 18003536 17906050 
1612.755 17764984 17586662 17379070 17138558 16848164 16482287 16023323 
1616.130 15504221 15016433 14689610 14614806 14787023 15127818 15518852 
1619.505 15855714 16042945 16030973 15812150 15440043 15026408 14719531 
1622.881 14653704 14869808 15289081 15764263 16175308 16464993 16655243 
1626.256 16823882 17073026 17484194 18078730 18791480 19486708 20011612 
1629.631 20246294 20150422 19760968 19172860 18513620 17933666 17570692 
1633.006 17532766 17889414 18641734 19676424 20722682 21421548 21507458 
1636.382 21004014 20181380 19354242 18725258 18364548 18267056 18388838 
1639.757 18678004 19072020 19520990 19981654 20418732 20815902 21165496 
1643.132 21471828 21743884 21994642 22234758 22469226 22699710 22933870 
1646.507 23202018 23576456 24130842 24908570 25901424 27065876 28334024 
1649.883 29622564 30844408 31860650 32473512 32433454 31532890 29938168 
1653.258 28393056 27721412 27992526 28726250 29440082 29878782 29933830 
1656.633 29601546 28941054 28059558 27081880 26128756 25297820 24649646 
1660.008 24203812 23948594 23855640 23877628 23956256 24032220 24065872 
1663.384 24057210 24047214 24110852 24316764 24711960 25315816 26103756 
1666.759 27002194 27864804 28497782 28673886 28234308 27195910 25810428 
1670.134 24477704 23534146 23142058 23266310 23750028 24393402 25012878 
1673.509 25455796 25613776 25470126 25124186 24785604 24655976 24847586 
1676.885 25342480 26047088 26839494 27613706 28278662 28768610 29058802 
1680.260 29169880 29167544 29124180 29111504 29178220 29349678 29622564 
1683.635 29942172 30218096 30369910 30400606 30369242 30349222 30389596 
1687.010 30531072 30798690 31202818 31730144 32335310 32951580 33515846 
1690.386 33991024 34383760 34737784 35109212 35548484 36088028 36732232 
1693.761 37460416 38223820 38961948 39612596 40161680 40663000 41211544 
1697.136 41877584 42674892 43564384 44473136 45302728 45955664 46405752 
1700.511 46768124 47222644 47877212 48736944 49743972 50846444 52006204 
1703.887 53220612 54504140 55868596 57288212 58670672 59865108 60724864 
1707.262 61152284 61131116 60733264 60108000 59462672 58999816 58894016 
1710.637 59224856 59975972 61056516 62351100 63760728 65218244 66703164 
1714.012 68215512 69756344 71321632 72908712 74558056 76363824 78497920 
1717.388 81101952 84179128 87565128 91004512 94315240 97457368 100509872 
1720.763 103622208 106982992 110786864 115232328 120489640 126681840 
1723.656 133869288 142042192 151117616 160945408 171346592 182147984 
1726.549 193261392 204792304 217072464 230636752 246050784 263675696 
1729.442 283395360 304586944 326280000 347739840 368917376 390775808 
1732.335 415278304 445101312 482427552 526675328 573172544 615382464 
1735.228 649454464 675772672 696858624 715117760 732002688 747989504 
1738.121 762825408 775868544 786578560 794781888 800643840 804235072 
1741.014 805201280 802761536 796138880 784999040 769807232 751709568 
1743.907 732144256 712118976 691931456 671207296 649310592 625767872 
1746.800 600578688 574158336 547162240 520106176 493169376 466237408 
1749.693 439228384 412416864 386506144 362450560 340992608 322334432 
1752.587 306147136 291778304 278531392 265815104 253193888 240382992 
1755.480 227242480 213850976 200516240 187727088 175974928 165553728 
1758.373 156496560 148594704 141500288 134790304 128050736 120989768 
1761.266 113531072 105896728 98517112 91836272 86100776 81313288 77293968 
1764.641 73791608 70564176 67432688 64317580 61246712 58352300 55809864 
1768.016 53777788 52322432 51382868 50792136 50327188 49727548 48721864 
1771.391 47112112 44863808 42209472 39558092 37314368 35688792 34681672 
1774.767 34161004 33943936 33839748 33681468 33360582 32826382 32094300 
1778.142 31212164 30251460 29293304 28413068 27683732 27157898 26849496 
1781.517 26724140 26714806 26733144 26682136 26486776 26099422 25530786 
1784.892 24841588 24138172 23520156 23054784 22762996 22621770 22588130 
1788.268 22616108 22670066 22732682 22793306 22848930 22896564 22928208 
1791.643 22940530 22943860 22962848 23020806 23132730 23288962 23458858 
1795.018 23599444 23669738 23642420 23505164 23269308 22964180 22626100 
1798.393 22284714 21966004 21681946 21433204 21209780 20992028 20762634 
1801.769 20507952 20234640 19963346 19735670 19590220 19551608 19607858 
1805.144 19706714 19763964 19687076 19422472 18981168 18452394 17988230 
1808.519 17755668 17865792 18321290 18995478 19667438 20091836 20099492 
1811.894 19679422 18969852 18195516 17563374 17208416 17141552 17270954 
1815.270 17426310 17445272 17210410 16711123 16034964 15346274 14822597 
1818.645 14595191 14726514 15206288 15965125 16894732 17877770 18801796 
1822.020 19555604 20047564 20209008 20010280 19478386 18712612 17863464 
1825.395 17084670 16478297 16067887 15813147 15641223 15491917 15333305 
1828.771 15172706 15035385 14948606 14900729 14849528 14731168 14498115 
1832.146 14137756 13668736 13131967 12578983 12068265 11648638 11361268 
1835.521 11238353 11298814 11553621 11989188 12572004 13238318 13914043 
1838.896 14531693 15044363 15429403 15672814 15751293 15614621 15187336 
1842.272 14392065 13202092 11716081 10182753 8939481 8278804 8299719 8868428 
1846.129 9705526 10522191 11102818 11350305 11288847 11041363 10770642 
1849.504 10605892 10605892 10753038 10990207 11267586 11581860 11972574 
1852.880 12502554 13207742 14049666 14920677 15662838 16117773 16160343 
1856.255 15743313 14895742 13705631 12280918 10734769 9161609 7652085 
1859.630 6328903 5333878 4823680 4921535 5658339 6949458 8601826 10374390 
1863.487 12006465 13284184 14088226 14399047 14286018 13881800 13341681 
1866.863 12803957 12376948 12130067 12089863 12249020 12573998 13023957 
1870.238 13557055 14128780 14686285 15155416 15449687 15485932 15199305 
1873.613 14588875 13711281 12699942 11711430 10911814 10413914 10255488 
1876.988 10400628 10756359 11237024 11775884 12369305 13044230 13848559 
1880.364 14797661 15858707 16936644 17904386 18606792 18908286 18721930 
1883.739 18025162 16873442 15394489 13776763 12223767 10926762 10055221 
1887.114 9705857 9894484 10518538 11373227 12156648 12569346 12412170 
1890.489 11642326 10385017 8876396 7400494 6189208 5400892 5110950 5283784 
1894.347 5798349 6469267 7117056 7596654 7859543 7937882 7919625 7891741 
1898.204 7901700 7944521 7971741 7934894 7830665 7725773 7750004 8047758 
1902.062 8700098 9660362 10735433 11640665 12071255 11838678 10939717 
1905.437 9570702 8054397 6760627 5972208 5809962 6210776 6995920 7956803 
1909.294 8923875 9812125 10604564 11298814 11878880 12294209 12499563 
1912.670 12494578 12355682 12224099 12259652 12564029 13135291 13839917 
1916.045 14442930 14683625 14367797 13439729 12026068 10381364 8798373 
1919.420 7488118 6584747 6173613 6329567 7138960 8632370 10710189 13078128 
1923.277 15313022 17003836 17896734 18010190 17621260 17187458 17151532 
1926.653 17825204 19254066 21213442 23238328 24801600 25466460 24965554 
1930.028 23274972 20563214 17131572 13298807 9394708 5743938 2647554 381389 
1933.885 -874981 -1102560 -470477 728347 2180435 3647269 5072137 6575787 
1937.743 8380390 10657044 13412142 16402465 19204476 21268714 22096884 
1941.118 21433870 19378206 16398473 13189795 10456427 8643658 7897053 
1944.493 8104522 9047390 10489309 12251346 14203576 16197924 18032482 
1947.869 19448432 20163404 19968340 18820100 16896396 14562279 12299194 
1951.244 10628146 9928358 10398967 11992177 14445257 17323184 20139770 
1954.619 22468560 23974580 24494698 24045214 22816954 21094242 19190830 
1957.994 17365764 15741982 14315605 12993050 11660599 10279401 8939148 
1961.370 7870829 7400826 7834980 9347556 11885525 15153087 18628090 21694934 
1965.227 23855972 24820262 24626320 23607772 22349994 21431872 21260058 
1968.602 21934368 23244990 24789934 26107422 26864834 26919844 26371102 
1971.977 25502788 24709294 24360748 24668972 25682102 27256924 29114172 
1975.353 30844074 32047236 32350666 31501852 29411060 26143756 21930370 
1978.728 17104628 12071588 7199032 2750333 -1093948 -4216247 -6474533 
1982.103 -7651857 -7513929 -5866394 -2705214 1731598 6928881 12176916 
1985.478 16735736 19884126 21119216 20245960 17410010 13052538 7753655 
1988.854 2133362 -3295586 -8080827 -11858703 -14348823 -15398222 -15029409 
1992.229 -13470275 -11137960 -8541172 -6128453 -4229157 -2948591 -2151191 
1995.604 -1488788 -543695 1090578 3644616 7078225 10994193 14738149 17568364 
1999.462 18798468 18048452 15331976 11106472 6137445 1353736 -2342938 
2002.837 -4382746 -4578367 -3162155 -620556 2418795 5389281 7903360 9766297 
2006.694 10956326 11536678 11552292 10994526 9812125 7944521 5419138 2379344 
2010.552 -903802 -4091120 -6799081 -8668485 -9432288 -8964434 -7354826 
2013.927 -4915964 -2163445 365152 2236460 3318647 3880735 4584857 6269839 
2017.784 9566717 14637081 20935758 27390298 32559640 35172676 34478944 
2021.160 30506046 24058874 16483285 9213740 3202591 -1144961 -4016638 
2024.535 -5888563 -7215235 -8155240 -8521661 -7913809 -6003381 -2743625 
2027.910 1533382 6227698 10676973 14415669 17336490 19625500 21544754 
2031.285 23194688 24355418 24567340 23357254 20522266 16360225 11625714 
2034.661 7374937 4523163 3653570 4805105 7511351 10977584 14359487 17021134 
2038.518 18546896 18778834 17716078 15464983 12208815 8260878 4049210 64611 
2042.375 -3186325 -5318731 -6210840 -6002058 -5098984 -4002734 -3197251 
2045.751 -2964484 -3352864 -4204992 -5270414 -6272711 -6998562 -7310171 
2049.126 -7095819 -6260469 -4706127 -2354860 789987 4608075 8845519 13175172 
2052.983 17234694 20681734 23252652 24734952 24973554 23871632 21420882 
2056.358 17743692 13129641 8068339 3178717 -908440 -3646195 -4767028 
2059.734 -4330778 -2721439 -472797 1871482 3934129 5612224 7034749 8482973 
2063.591 10238218 12479958 15203961 18235446 21266716 23965254 26036422 
2066.966 27258924 27542014 26883504 25387472 23224004 20625470 17851486 
2070.342 15145440 12728521 10744734 9258898 8276149 7760294 7660383 7906015 
2074.199 8400308 8991609 9481708 9658370 9354529 8514512 7240186 5790718 
2078.056 4515534 3740787 3695354 4394471 5672606 7225915 8740603 9964225 
2081.914 10778946 11205133 11347980 11318413 11176565 10917129 10499938 
2085.289 9903450 9169579 8414251 7795148 7433353 7347057 7414434 7386222 
2089.146 6983640 5960595 4228636 1885736 -787856 -3420405 -5640057 -7144777 
2093.004 -7781181 -7551636 -6594959 -5133734 -3434310 -1746806 -252474 
2096.379 938788 1811152 2427746 2926058 3457256 4160314 5095358 6208785 
2100.237 7325816 8178882 8512188 8134399 7026120 5340845 3412489 1641107 
2104.094 406242 -662 549728 2035238 4311221 7181773 10420557 13791720 
2107.951 17061716 19946704 22160492 23456858 23682064 22853594 21169824 
2111.327 18989486 16713118 14710554 13217380 12286899 11838678 11722394 
2114.702 11819740 12092520 12576657 13323734 14316603 15417100 16372531 
2118.077 16877768 16720769 15866356 14513740 13026616 11861935 11380869 
2121.452 11734022 12826887 14365470 15984746 17338152 18224132 18592816 
2124.828 18507632 18082390 17432630 16657572 15847067 15131475 14673984 
2128.203 14630100 15079274 15957808 17034440 17955624 18367210 18026826 
2131.578 16901716 15172706 13161546 11206130 9495655 8052073 6741711 5409517 
2135.436 3984538 2550081 1307666 481464 178264 328039 702167 1029265 1101515 
2139.775 876483 450646 6958 -316749 -502614 -646065 -870675 -1207236 
2143.633 -1518598 -1522242 -878957 642516 3055370 6094974 9309702 12221108 
2147.490 14439272 15767921 16197924 15819798 14726181 13011993 10821131 
2150.865 8404624 6186553 4694648 4358318 5385631 7584373 10408931 13054532 
2154.723 14779043 15129481 14076259 11937023 9189833 6215421 3145559 -83496 
2158.580 -3510788 -6916522 -9686198 -11000474 -10160917 -6839772 -1287397 
2161.955 5749246 13196110 20045566 25532452 29270622 31235524 31631014 
2165.331 30752306 28928378 26531114 23962254 21604358 19759968 18522938 
2168.706 17739698 17047744 16064229 14572252 12678674 10826446 9663019 
2172.081 9748696 11283200 13961577 17045416 19629492 20914786 20577530 
2175.456 18829084 16304018 13733883 11716746 10540127 10158508 10349479 
2178.832 10894209 11687841 12703597 13929666 15224576 16298364 16805588 
2182.207 16505570 15430067 13885788 12390240 11444653 11297484 11861935 
2185.582 12723204 13361623 13324398 12438754 10842058 8898974 7023797 
2188.957 5543216 4625655 4277059 4439579 5061190 6134791 7650758 9537163 
2192.815 11610432 13563038 15076614 15925218 16047601 15586022 14840551 
2196.190 14179641 13902409 14208895 15139455 16617659 18459714 20415070 
2199.565 22197126 23482510 23984576 23522486 22084226 19842516 17125918 
2202.940 14315605 11697809 9417620 7435012 5612224 3837623 2148942 763806 
2206.798 43074 301530 1661327 3918542 6598020 9051374 10699227 11254631 
2210.655 10794558 9742387 8667894 8138714 8487621 9732756 11604120 13694994 
2214.513 15581035 16949616 17680480 17807236 17482532 16888744 16202247 
2217.888 15551772 15013773 14642067 14462211 14486812 14709890 15100221 
2221.263 15592008 16073541 16411777 16452022 16055582 15155083 13779089 
2224.638 12079562 10287703 8707070 7588688 7081876 7157878 7625863 8156972 
2228.496 8377069 7998629 6872464 5041287 2720494 254476 -1982950 -3678970 
2232.353 -4608818 -4700501 -4007369 -2684684 -930635 1041196 3058686 5021383 
2236.211 6897354 8715371 10520198 12340397 14164682 15923555 17517796 
2239.586 18855374 19869478 20529258 20836212 20807578 20457018 19807900 
2242.961 18911948 17891744 16926664 16260782 16109126 16591382 17654196 
2246.336 19063034 20431716 21323654 21417220 20581856 18939236 16807916 
2249.712 14624780 12787008 11535682 10909821 10763998 10856341 10952671 
2253.087 10924436 10771307 10603567 10544113 10669334 10936727 11201812 
2256.462 11269579 10992200 10351804 9507277 8748239 8413256 8767496 9885849 
2260.320 11598803 13521159 15180353 16126753 16105135 15127485 13473298 
2263.695 11588505 9931015 8870088 8556343 8932508 9771942 10803859 11784523 
2267.552 12562035 13093748 13407489 13557055 13584644 13516174 13359961 
2270.927 13127314 12837853 12509532 12139702 11701795 11150321 10445466 
2274.303 9587970 8641666 7730088 7008199 6587070 6502119 6680650 6963396 
2278.160 7150576 7096147 6742043 6170294 5554164 5126209 5091046 5559140 
2282.018 6524683 7863195 9385410 10874942 12156648 13129641 13774103 
2285.393 14145402 14339873 14462876 14591534 14762087 14967226 15171375 
2288.768 15329648 15404796 15380522 15253504 15034388 14738149 14377106 
2292.143 13971882 13558053 13190128 12924590 12813593 12875738 13083445 
2295.519 13363617 13629847 13808672 13875484 13865512 13861523 13948946 
2298.894 14166012 14477171 14773724 14924335 14822597 14454565 13914043 
2302.269 13391868 13102388 13199766 13733219 14613477 15647874 16591049 
2305.644 17244674 17494508 17333496 16842508 16149700 15379526 14612811 
2309.020 13897422 13241642 12649099 12135050 11724719 11453956 11361600 
2312.395 11468241 11778541 12279921 12942535 13717264 14542331 15343946 
2315.770 16044941 16587058 16940636 17113608 17143548 17083006 16974564 
2319.145 16835524 16652582 16405458 16083185 15706400 15334636 15037713 
2322.521 14867814 14835895 14896074 14964897 14963900 14848863 14621455 
2325.896 14329235 14031716 13770114 13535784 13274545 12906976 12371631 
2329.271 11662260 10845379 10050240 9433891 9112136 9134383 9469422 10032970 
2333.128 10716168 11431032 12128073 12793322 13425105 14017754 14546653 
2336.504 14964233 15218923 15268798 15095898 14720529 14185625 13555394 
2339.879 12901659 12297864 11808444 11488174 11364591 11430036 11635348 
2343.254 11889512 12079229 12086539 11847981 11362265 10718161 10055221 
2346.629 9532514 9270852 9329625 9701872 10329551 11115109 11924065 12623179 
2350.487 13089760 13246627 13100727 12757432 12401870 12234732 12406189 
2353.862 12938215 13719591 14520389 15096896 15267801 14983184 14334886 
2357.237 13523818 12770060 12220776 11922404 11821734 11822397 11847981 
2360.613 11891505 12029058 12357010 12948185 13790723 14787023 15779227 
2363.988 16608677 17166168 17420322 17396038 17143548 16681519 16006030 
2367.363 15089914 13952934 12689308 11481197 10568360 10187735 10465727 
2370.738 11382529 12742478 14242138 15521845 16291379 16407453 15888970 
2374.114 14902059 13700313 12552731 11657276 11113448 10909821 10954333 
2377.489 11114776 11271241 11353295 11354291 11321071 11335688 11477874 
2380.864 11795487 12281251 12877067 13488587 14014429 14376773 14545656 
2384.239 14544991 14442597 14308292 14208895 14169336 14177647 14194601 
2387.615 14175320 14099861 13976535 13834599 13718593 13660758 13672392 
2390.990 13744520 13866510 14021742 14216208 14459551 14751449 15062982 
2394.365 15342616 15513198 15511203 15314020 14959245 14543661 14184627 
2397.740 13988169 14005122 14211887 14526041 14849195 15103879 15269131 
2401.115 15379526 15506548 15713384 16020663 16392154 16745382 16995854 
2404.491 17083338 17001508 16799600 16552800 16333951 16171650 16056913 
2407.866 15946502 15798183 15597993 15370215 15173702 15073621 15104210 
2411.241 15256496 15466645 15643218 15692101 15558089 15239870 14799323 
2414.616 14331229 13940635 13708622 13661423 13768785 13953599 14118475 
2417.992 14173326 14066618 13799033 13426766 13042900 12748792 12636138 
2421.367 12746133 13064502 13517835 14003792 14403368 14620790 14608821 
2424.742 14380098 14003461 13586970 13248289 13082449 13127314 13361290 
2428.117 13705964 14046674 14265075 14282694 14072935 13672060 13161213 
2431.493 12643449 12204828 11895492 11723058 11659269 11662260 11702459 
2434.868 11771233 11885857 12076572 12367644 12766736 13259257 13810666 
2438.243 14379100 14927660 15429403 15863695 16209232 16442375 16530515 
2441.618 16443041 16161008 15690771 15057995 14314607 13523486 12734502 
2444.994 11985864 11288847 10639108 10024668 9442192 8905282 8454090 8138714 
2448.851 8014563 8119793 8459401 8998581 9668997 10383024 11055315 11629036 
2452.708 12083881 12435431 12723204 12984077 13230010 13441390 13571016 
2456.084 13571348 13424107 13155896 12843835 12592607 12506209 12647104 
2459.459 13018972 13559383 14170001 14736155 15166388 15415438 15479614 
2462.834 15397813 15222580 15017431 14829579 14696592 14637413 14652706 
2466.209 14725183 14825589 14919348 14977532 14985512 14951931 14899067 
2469.585 14843876 14785361 14691937 14512411 14190611 13702639 13076466 
2472.960 12399876 11800469 11397479 11272902 11432029 11810105 12286567 
2476.335 12743807 13097404 13319080 13437402 13510856 13591623 13708622 
2479.710 13847563 13971217 14037034 14014097 13892105 13691005 13448702 
2483.086 13205416 13007340 12897006 12906644 13053535 13333373 13714938 
2486.461 14143407 14554299 14901061 15169380 15387173 15612292 15912248 
2489.836 16324971 16835856 17374746 17836848 18115330 18134960 17880432 
2493.211 17395704 16770329 16107464 15502890 15028735 14732165 14632759 
2496.587 14735489 15019758 15438049 15912914 16341932 16611005 16641273 
2499.962 16402797 15935195 15344943 14779709 14379765 14237483 14373449 
2503.337 14727510 15183678 15600321 15870678 15934197 15803172 15538138 
2506.712 15230894 14955588 14747126 14587877 14419658 14183631 13839252 
2510.088 13404165 12952838 12593603 12427124 12504880 12803957 13232669 
2513.463 13658764 13965233 14091218 14051660 13925012 13808007 13776430 
2516.838 13845236 13966231 14052658 14036702 13888780 13648460 13394194 
2520.213 13219707 13184478 13298142 13526145 13810666 14115152 14429964 
2523.589 14771064 15150096 15544789 15886641 16067222 15979093 15570726 
2526.964 14872135 14005455 13142602 12466334 12095511 12056304 12277595 
2530.339 12634145 12986071 13228016 13325396 13305454 13239316 13208075 
2533.714 13278201 13477618 13806013 14235489 14731168 15257162 15786211 
2537.090 16296369 16772990 17201430 17564038 17848492 18043130 18142946 
2540.465 18149934 18076400 17934996 17740364 17496172 17196106 16824548 
2543.840 16366212 15829775 15254501 14708560 14289343 14089555 14166012 
2547.215 14522384 15100886 15792862 16470980 17027122 17392376 17547736 
2550.591 17515800 17340482 17068368 16735404 16368540 15990067 15621603 
2553.966 15288417 15003134 14772726 14582225 14411679 14244796 14082574 
2557.341 13946950 13877478 13906397 14043349 14268067 14539672 14814285 
2560.716 15064311 15299722 15553434 15866356 16252800 16687507 17101302 
2564.092 17406682 17527112 17429970 17139888 16731080 16294040 15904600 
2567.467 15606307 15401804 15264144 15165057 15092241 15055335 15091576 
2570.842 15239206 15528162 15966456 16528186 17158848 17782284 18308646 
2574.217 18644062 18713278 18474022 17927344 17128910 16177304 15197975 
2577.593 14303304 13582981 13079125 12794983 12702933 12773715 12989726 
2580.968 13337693 13813990 14396387 15043365 15689109 16257789 16678526 
2584.343 16911362 16946622 16806918 16540826 16213887 15902937 15687445 
2587.718 15653195 15868683 16368207 17133568 18079728 19060040 19899104 
2591.094 20443700 20595840 20347158 19777944 19037410 18285688 17658190 
2594.469 17239684 17040760 17021134 17105294 17214070 17271620 17226378 
2597.844 17055064 16771993 16430070 16120434 15955813 16039952 16434061 
2601.219 17125584 18027824 18981168 19806236 20364136 20577198 20471332 
2604.594 20139770 19725686 19352912 19094650 18956874 18894310 18836072 
2607.970 18719934 18527264 18281030 18040134 17867124 17813558 17894072 
2611.345 18079064 18307982 18500976 18588490 18522272 18302326 17978248 
2614.720 17643552 17401360 17354786 17561710 18017510 18652714 19352246 
2618.095 19991972 20462676 20709700 20735666 20595174 20357146 20094498 
2621.471 19852836 19648134 19470732 19301326 19125268 18932580 18726922 
2624.846 18505634 18268718 18015514 17745022 17473882 17231036 17057392 
2628.221 16992526 17063712 17271288 17585330 17961280 18339260 18671350 
2631.596 18928920 19104302 19211798 19276030 19326952 19385196 19458418 
2634.972 19539628 19613518 19651128 19627164 19526646 19357238 19147566 
2638.347 18951882 18835740 18857704 19054050 19416148 19899770 20423062 
2641.722 20889482 21218770 21352624 21278370 21022326 20641116 20203350 
2645.097 19778276 19421806 19171860 19047726 19048724 19161212 19352578 
2648.473 19582896 19804240 19970336 20046564 20017272 19890450 19691070 
2651.848 19456752 19226442 19032418 18892646 18812444 18793808 18833078 
2655.223 18931248 19090990 19312308 19590552 19910088 20243964 20563880 
2658.598 20841540 21056286 21202454 21287694 21328316 21347628 21365276 
2661.974 21398240 21453514 21528104 21612350 21688938 21738224 21741220 
2665.349 21688272 21581382 21437866 21287694 21169158 21109892 21127206 
2668.724 21213442 21341634 21471162 21561402 21587708 21544088 21448520 
2672.099 21331646 21230756 21170490 21165162 21216438 21315662 21457844 
2675.475 21638988 21862102 22127188 22436588 22778316 23132398 23475848 
2678.850 23779012 24013896 24157164 24190152 24102522 23894286 23581786 
2682.225 23198354 22792640 22423266 22143508 21989648 21971998 22070574 
2685.600 22243084 22429926 22582468 22659074 22637758 22510192 22278056 
2688.976 21948020 21536094 21060948 20561216 20085844 19696728 19452094 
2692.351 19390854 19525982 19832532 20254616 20714028 21137860 21459176 
2695.726 21643650 21684610 21604358 21444858 21256394 21088914 20976378 
2699.101 20932096 20949076 21003014 21056620 21077928 21044300 20949410 
2702.477 20803916 20624138 20431716 20239968 20058882 19900436 19780606 
2705.852 19728016 19777278 19959684 20285574 20736998 21260390 21775518 
2709.227 22197792 22459900 22526180 22405612 22142842 21807822 21464504 
2712.602 21171156 20963060 20850860 20831884 20889814 21007676 21162498 
2715.978 21329314 21485148 21606688 21680614 21698928 21665962 21594370 
2719.353 21498802 21397574 21302676 21229424 21188138 21185472 21227092 
2722.728 21306006 21408230 21510454 21585378 21614016 21593368 21537426 
2726.103 21480154 21461506 21513784 21647316 21850446 22079566 22277390 
2729.479 22391956 22382298 22240754 21988650 21675954 21372934 21143188 
2732.854 21037974 21078594 21250068 21505460 21782846 22015956 22154496 
2736.229 22174478 22087226 21924376 21726568 21532764 21366940 21237082 
2739.604 21147850 21103898 21119216 21217770 21421216 21732894 22127854 
2742.979 22552826 22931536 23185362 23264646 23159048 22905556 22574808 
2746.355 22260070 22039602 21961340 22032940 22221106 22461898 22681058 
2749.730 22815954 22830276 22718694 22513192 22275056 22078234 21985650 
2753.105 22042266 22255742 22595458 23004484 23410886 23750028 23975246 
2756.480 24069872 24041550 23914610 23723376 23501500 23282300 23094422 
2759.856 22962848 22908886 22941862 23053118 23215010 23385568 23515156 
2763.231 23566794 23525152 23402224 23234330 23074436 22972174 22963846 
2766.606 23067776 23276636 23567128 23901616 24233466 24517356 24707960 
2769.981 24776940 24718624 24560676 24360080 24191816 24132176 24225136 
2773.357 24473704 24828592 25204504 25500122 25644106 25606778 25412802 
2776.732 25130184 24846254 24635650 24535684 24544348 24629320 24746614 
2780.107 24863248 24969888 25086862 25252160 25497790 25842092 26275762 
2783.482 26761482 27246922 27674728 28000194 28199290 28274996 28251316 
2786.858 28170610 28079232 28020872 28026542 28110580 28265656 28470766 
2790.233 28694230 28895024 29040122 29105500 29087156 29003096 28895024 
2793.608 28822644 28847660 29023444 29376032 29894128 30523732 31181126 
2796.983 31773868 32223484 32487868 32574662 32533936 32440796 32369026 
2800.359 32374032 32469506 32640430 32848750 33056748 33240382 33397312 
2803.734 33540556 33691152 33863124 34061152 34277888 34506328 34744132 
2807.109 34995644 35268880 35567860 35886568 36210312 36523724 36825128 
2810.484 37137244 37506868 37996188 38655716 39501584 40503800 41582188 
2813.860 42625372 43534264 44238484 44725548 45032872 45238444 45421252 
2817.235 45638224 45918496 46261076 46654584 47099044 47616248 48252108 
2820.610 49056956 50066408 51284628 52675912 54178696 55720588 57243560 
2823.985 58718700 60142604 61534712 62916848 64308836 65716072 67138912 
2827.361 68580048 70050632 71571560 73172552 74876264 76695656 78629840 
2830.736 80663448 82782104 84973768 87242256 89602928 92081296 94703984 
2834.111 97498376 100486472 103689736 107129368 110830368 114819968 
2837.004 119136752 123820888 128926832 134518240 140662384 147425664 
2839.897 154849456 162943968 171670944 180956048 190691040 200767808 
2842.790 211109792 221668912 232436240 243412560 254563200 265798912 
2845.683 276946496 287748192 297917760 307155936 315204000 321881952 
2848.576 327075168 330728960 332812224 333302688 332170880 329390464 
2851.469 324970720 318973312 311542240 302904736 293337792 283158016 
2854.363 272675744 262142640 251767760 241693984 232003872 222743024 
2857.256 213924752 205534640 197537952 189894816 182562640 175522272 
2860.149 168789872 162423536 156513728 151147808 146393680 142254800 
2863.042 138668896 135511872 132642024 129935552 127330072 124844808 
2865.935 122568176 120628632 119130608 118129496 117592264 117415240 
2868.828 117435328 117485368 117424096 117152784 116628256 115849248 
2871.721 114841744 113648416 112327568 110952056 109598728 108353168 
2874.614 107280832 106409096 105724944 105170904 104669880 104155688 
2877.507 103601168 103036208 102544592 102235888 102223336 102591760 
2880.400 103366360 104525632 105999952 107698600 109528384 111408920 
2883.293 113291640 115153056 116997904 118851032 120749920 122725984 
2886.186 124807296 127002184 129311512 131726592 134244160 136874656 
2889.079 139634736 142544800 145608608 148802496 152068032 155320240 
2891.972 158470736 161451920 164237296 166849888 169350352 171821584 
2894.865 174342512 176969120 179733728 182642112 185688032 188853376 
2897.759 192119744 195464816 198870400 202321360 205821936 209390384 
2900.652 213062336 216877056 220850608 224967744 229168416 233368960 
2903.545 237489584 241486976 245378992 249242912 253192480 257327392 
2906.438 261710800 266333296 271128576 275999424 280866208 285687104 
2909.331 290478688 295296448 300201248 305228512 310368032 315552096 
2912.224 320669248 325588160 330157952 334234432 337678656 340363680 
2915.117 342190592 343104864 343101984 342232544 340590880 338283584 
2918.010 335397952 331983072 328039168 323541536 318457376 312778752 
2920.903 306538592 299811040 292683424 285244448 277566688 269693376 
2923.796 261660496 253507200 245285728 237079808 228986096 221100928 
2926.689 213509888 206270144 199400448 192901472 186749104 180917712 
2929.582 175377360 170100096 165059456 160228896 155578480 151082960 
2932.475 146722336 142483168 138367520 134392816 130585984 126981720 
2935.368 123607136 120478400 117594304 114932584 112459840 110133960 
2938.261 107921416 105797936 103754216 101789480 99903272 98098200 96367728 
2941.637 94711104 93130928 91650824 90300784 89117904 88133488 87358560 
2945.012 86780488 86360344 86053784 85815528 85619184 85452920 85326200 
2948.387 85249832 85224824 85241048 85275176 85298496 85286664 85233272 
2951.762 85146440 85046760 84951808 84871056 84789632 84672384 84461224 
2955.138 84091976 83513328 82693632 81644152 80411312 79079616 77744272 
2958.513 76480840 75332728 74286384 73280720 72220376 71019840 69619976 
2961.888 68022320 66277548 64478660 62722876 61078356 59575876 58195476 
2965.263 56893396 55615540 54324972 53010640 51682284 50363724 49070356 
2968.639 47807864 46565164 45324488 44068108 42795688 41522640 40282408 
2972.014 39123096 38098468 37253880 36617952 36191268 35943696 35812064 
2975.389 35701152 35522424 35189380 34654620 33911544 32997986 31980478 
2978.764 30932172 29926490 29010102 28213964 27558018 27053204 26710140 
2982.140 26535782 26518114 26626794 26809156 26998194 27127224 27152896 
2985.515 27062542 26875834 26631128 26380434 26163424 26009756 25934090 
2988.890 25939756 26030754 26202092 26448774 26754146 27097550 27452652 
2992.265 27805112 28151600 28512456 28916038 29391712 29952180 30587464 
2995.641 31263222 31943762 32596030 33216342 33823388 34455564 35153636 
2999.016 35941360 36821116 37768904 38754672 39741332 40705480 41630024 
3002.391 42501232 43305016 44014888 44602352 45042584 45322484 45449380 
3005.766 45443688 45334532 45144028 44878540 44531048 44088528 43540620 
3009.142 42892732 42165308 41395188 40619524 39862048 39124768 38393300 
3012.517 37630200 36798060 35872536 34849008 33751924 32625072 31526214 
3015.892 30512386 29622564 28875012 28256318 27739752 27277930 26831828 
3019.267 26375768 25901092 25417134 24945228 24504362 24104522 23737036 
3022.643 23382904 23017810 22617774 22171814 21682612 21165828 20649440 
3026.018 20162738 19732344 19378872 19111956 18930584 18818768 18745890 
3029.393 18672680 18555548 18355896 18055108 17654196 17186128 16697819 
3032.768 16245815 15881986 15640891 15534480 15556760 15682790 15878660 
3036.144 16107464 16339272 16546147 16714117 16838184 16925334 16991862 
3039.519 17056394 17136894 17243344 17375078 17518462 17655860 17764984 
3042.894 17829196 17840840 17800916 17722730 17620928 17513804 17418990 
3046.269 17347134 17303888 17285592 17285592 17285258 17274282 17239684 
3049.645 17178476 17098308 17007164 16912694 16816564 16706799 16567102 
3053.020 16383174 16148703 15878328 15606972 15379526 15235881 15200968 
3056.395 15274119 15422753 15600986 15760937 15865025 15898281 15869016 
3059.770 15801176 15731009 15685783 15690438 15755950 15879658 16047934 
3063.146 16237501 16416434 16551469 16617990 16609343 16538497 16441378 
3066.521 16363884 16353574 16442375 16629965 16891406 17183134 17451592 
3069.896 17659186 17788272 17849156 17870118 17884756 17919358 17988230 
3073.271 18084386 18188196 18276040 18325950 18322956 18263728 18152594 
3076.646 17998544 17812892 17605624 17384726 17160512 16939970 16727421 
3080.022 16529517 16352575 16202913 16085847 16006696 15970113 15975102 
3083.397 16013680 16071546 16126420 16155354 16133405 16044941 15890632 
3086.772 15683123 15454342 15240868 15081601 15008786 15031395 15144442 
3090.147 15325991 15544124 15776234 16004367 16222867 16432398 16635619 
3093.523 16821552 16967912 17044752 17020468 16881094 16638612 16335613 
3096.898 16033300 15799846 15688443 15716044 15863695 16073873 16272755 
3100.273 16381844 16349250 16161341 15848731 15473628 15117178 14859502 
3103.648 14744134 14784363 14949604 15181351 15406791 15569729 15640891 
3107.024 15631247 15582697 15549444 15579039 15685118 15844740 16000710 
3110.399 16086511 16048931 15868351 15568066 15208615 14862827 14599513 
3113.774 14459218 14449578 14549312 14720529 14925997 15133803 15324993 
3117.149 15483603 15600654 15659846 15655189 15584360 15463652 15322665 
3120.525 15205623 15149098 15183678 15313022 15523840 15783218 16052589 
3123.900 16294705 16482953 16592380 16610008 16523531 16329627 16039952 
3127.275 15680130 15297062 14942288 14672986 14518728 14490469 14566600 
3130.650 14704902 14862494 15005128 15120503 15225905 15347603 15512201 
3134.026 15729679 15984081 16243155 16457343 16592047 16624311 16559119 
3137.401 16419759 16240827 16057910 15892294 15751293 15625261 15499565 
3140.776 15358910 15192656 15002468 14802648 14613477 14463541 14380763 
3144.151 14381760 14473514 14642400 14863492 15093571 15296397 15447692 
3147.527 15545787 15612957 15688776 15811818 15994058 16219541 16434394 
3150.902 16568432 16555793 16360558 16004035 15554100 15118509 14799323 
3154.277 14679304 14776384 15055999 15434058 15819466 16122097 16294040 
3157.652 16326633 16251137 16115112 15970113 15854384 15789204 15775902 
3161.028 15810487 15878993 15973106 16080192 16192603 16304683 16409117 
3164.403 16503242 16582734 16644599 16684846 16694160 16664889 16588721 
3167.778 16462664 16289384 16075204 15832103 15575049 15309697 15047687 
3171.153 14796996 14570589 14387744 14270727 14238148 14295991 14439938 
3174.529 14642067 14873798 15097894 15294070 15451682 15581700 15702411 
3177.904 15835428 15999712 16198256 16429737 16679191 16929326 17158848 
3181.279 17351126 17488520 17560380 17564038 17503824 17395040 17256318 
3184.654 17110948 16979554 16877434 16810910 16791284 16816896 16884088 
3188.030 16978556 17069700 17111614 17052070 16849160 16488939 16002705 
3191.405 15469638 15005793 14730170 14731833 15043365 15618610 16350248 
3194.780 17087996 17695118 18065420 18158252 18001206 17676154 17287256 
3198.155 16937974 16704804 16624311 16699148 16899388 17181470 17494508 
3201.531 17790934 18037140 18209492 18301992 18322290 18285356 18207828 
3204.906 18103684 17980246 17836182 17665508 17462904 17227708 16966580 
3208.281 16687507 16405125 16134402 15887639 15678799 15512867 15392826 
3211.656 15316015 15271459 15247851 15230228 15213271 15198308 15199970 
3215.031 15234550 15315351 15437716 15576046 15690771 15734667 15674477 
3218.407 15503223 15251841 14981854 14766742 14678306 14756103 15003134 
3221.782 15381853 15831437 16269096 16618656 16815898 16818892 16613002 
3225.157 16209232 15656187 15019758 14391401 13864182 13511521 13376579 
3228.532 13449035 13678375 13972546 14239479 14404366 14432623 14342865 
3231.908 14196928 14079250 14070608 14219200 14529697 14962570 15441374 
3235.283 15879326 16202580 16369871 16378518 16271757 16118438 15990400 
3238.658 15943841 16004367 16159677 16361555 16544817 16654246 16648591 
3242.033 16521203 16298364 16029975 15773242 15583695 15493580 15515527 
3245.409 15637233 15829775 16064894 16309007 16536169 16732410 16883090 
3248.784 16985208 17037766 17043754 17011820 16950282 16866790 16771660 
3252.159 16661895 16534174 16378850 16188279 15958474 15695760 15417765 
3255.534 15157410 14951266 14843876 14871138 15054670 15402136 15891630 
3258.910 16486944 17130906 17762322 18320960 18758202 19046062 19183176 
3262.285 19180846 19073684 18902962 18702298 18500310 18306318 18114998 
3265.660 17909044 17674158 17402026 17100302 16789954 16502909 16264440 
3269.035 16084849 15949495 15826117 15669157 15442371 15135133 14771397 
3272.411 14414006 14146399 14041355 14147396 14462543 14930652 15456669 
3275.786 15934862 16276413 16430402 16397808 16222867 15975767 15719037 
3279.161 15504221 15345609 15234218 15143778 15054004 14959578 14874795 
3282.536 14823595 14833901 14915690 15053672 15216595 15358577 15446694 
3285.912 15468973 15443701 15411114 15419427 15509209 15689441 15942511 
3289.287 16222203 16473307 16641273 16694491 16620652 16433395 16157349 
3292.662 15825784 15474958 15136795 14844873 14623117 14488806 14443594 
3296.037 14472516 14545989 14625777 14684290 14709225 14716206 14739147 
3299.413 14818275 14986842 15253504 15597993 15977762 16342598 16646928 
3302.788 16860804 16975894 16995188 16928660 16788290 16582069 16325304 
3306.163 16043943 15770581 15547449 15414440 15389168 15468973 15625594 
3309.538 15819466 16007693 16159677 16267765 16335613 16375524 16398141 
3312.914 16406123 16395147 16354572 16277743 16161673 16004035 15806496 
3316.289 15565406 15277776 14950933 14601175 14267735 14001133 13854875 
3319.664 13872160 14068614 14430629 14913031 15466312 16029642 16562112 
3323.039 17033108 17430302 17743358 17965606 18094036 18124312 18068082 
3326.415 17945976 17783282 17603296 17415332 17222386 17009158 16767336 
3329.790 16503907 16246148 16032303 15902937 15875667 15934197 16030307 
3333.165 16092497 16057577 15894956 15617613 15277112 14948938 14703906 
3336.540 14580231 14580896 14672654 14815615 14969220 15122165 15280769 
3339.916 15462987 15685118 15941514 16206903 16437387 16589719 16629965 
3343.291 16547146 16355901 16089173 15790202 15507545 15285092 15154418 
3346.666 15133803 15221251 15396151 15613955 15825452 15979093 16043610 
3350.041 16013680 15913912 15789204 15682790 15626259 15615618 15621936 
3353.417 15595999 15492914 15290079 15008786 14697921 14438275 14304967 
3356.792 14351840 14594527 15002136 15507878 16018335 16440713 16695822 
3360.167 16735736 16556126 16192935 15722695 15234218 14816945 14531693 
3363.542 14395722 14383422 14439605 14498115 14500442 14427304 14293332 
3366.917 14148061 14043682 14033377 14141080 14374779 14717869 15144442 
3370.293 15626925 16134069 16627304 17061716 17382064 17540086 17504488 
3373.668 17284594 16924670 16498917 16088507 15754619 15516191 15348934 
3377.043 15199638 15008121 14738149 14396055 14028391 13703968 13491578 
3380.418 13436072 13536781 13759146 14042684 14323916 14552304 14704902 
3383.794 14788019 14831906 14879783 14978863 15167053 15462654 15853719 
3387.169 16302355 16747711 17118266 17350794 17415998 17321186 17113276 
3390.544 16860470 16639611 16499583 16456012 16488608 16550472 16591049 
3393.919 16575417 16492931 16348917 16168989 15966787 15756615 15544789 
3397.295 15336631 15144442 14989834 14895076 14879450 14941624 15062649 
3400.670 15204957 15326656 15387838 15359574 15237876 15030397 14763084 
3404.045 14468860 14195598 13991161 13905732 13988169 14257429 14711552 
3407.420 15306704 15974769 16631295 17203758 17643552 17935994 18089044 
3410.796 18128306 18071410 17928010 17698112 17385390 17007164 16607015 
3414.171 16244485 15973771 15827448 15803172 15857044 15925883 15945171 
3417.546 15884646 15751293 15586022 15448024 15386508 15419427 15520182 
3420.921 15634572 15699085 15666164 15525502 15303380 15052010 14826918 
3424.297 14670992 14602838 14620790 14697921 14805973 14915358 15001803 
3427.672 15053339 15058991 15013773 14919348 14779376 14612146 14444924 
3431.047 14315938 14262416 14315605 14486812 14765412 15117178 15492250 
3434.422 15831437 16093163 16247146 16290714 16246481 16152360 16042279 
3437.798 15942178 15852721 15758610 15627921 15428073 15146771 14794669 
3441.173 14412345 14056314 13795043 13674719 13710948 13885456 14148394 
3444.548 14438940 14696923 14885435 14996151 15043365 15064311 15087586 
3447.923 15134801 15193321 15228565 15199638 15067304 14820270 14473181 
3451.299 14074929 13697321 13403833 13244966 13233665 13347664 13537445 
3454.674 13748177 13939305 14089223 14207897 14320924 14456891 14626775 
3458.049 14818608 14998147 15128150 15176031 15138458 15041038 14938964 
3461.424 14895742 14965895 15172706 15505883 15918234 16344594 16721433 
3464.800 16997848 17142882 17149868 17026124 16788956 16455348 16046603 
3468.175 15588017 15114851 14672654 14311948 14077256 14004790 14100857 
3471.550 14347186 14700248 15108866 15518852 15899278 16231515 16520870 
3474.925 16782304 17028784 17265964 17487190 17677486 17815222 17884756 
3478.301 17871450 17767978 17568364 17271952 16888744 16437387 15953818 
3481.676 15493580 15120503 14893414 14846534 14978863 15247851 15581367 
3485.051 15886641 16077865 16093828 15915906 15566403 15118176 14665340 
3488.426 14290672 14054319 13973876 14023405 14141413 14256432 14306629 
3491.802 14248121 14080580 13833601 13567359 13351319 13248621 13303128 
3495.177 13524151 13886786 14334886 14802981 15219920 15530158 15707398 
3498.552 15751293 15687778 15560085 15418098 15302382 15235881 15210944 
3501.927 15197643 15144442 15009451 14765745 14427637 14044015 13676380 
3505.302 13381897 13194449 13108371 13088098 13085771 13053868 12970451 
3508.678 12851810 12748459 12726859 12833200 13089428 13463992 13901411 
3512.053 14325578 14676311 14916356 15037380 15061984 15017763 14936305 
3515.428 14836893 14722856 14591534 14439272 14266404 14081909 13893434 
3518.803 13704633 13511853 13298142 13049546 12756435 12435431 12130399 
3522.179 11904130 11832698 11974900 12348704 12914952 13591291 14265740 
3525.554 14819937 15171708 15282099 15170377 14905717 14592864 14339208 
3528.929 14221859 14270727 14460549 14730503 14991829 15161068 15173038 
3532.304 14997481 14643398 14157702 13618878 13116015 12741813 12559709 
3535.680 12592607 12806947 13119006 13425436 13633170 13690674 13605250 
3539.055 13434078 13256598 13146258 13147588 13254272 13413471 13552402 
3542.430 13608907 13552071 13403833 13227684 13113356 13130638 13311105 
3545.805 13626856 14010108 14374779 14656363 14828914 14902392 14912698 
3549.181 14888759 14855179 14817942 14767407 14698919 14612811 14528036 
3552.556 14473846 14479498 14560948 14712217 14905717 15093571 15224908 
3555.931 15258824 15168383 14959245 14652042 14290672 13918031 13567359 
3559.306 13255602 12977098 12713567 12450716 12190540 11956294 11791500 
3562.682 11737344 11826718 12061287 12413831 12823895 13220039 13536116 
3566.057 13732554 13808007 13808007 13786069 13782080 13807343 13850887 
3569.432 13899750 13952934 14014762 14096869 14204241 14329567 14449245 
3572.807 14538674 14577571 14567598 14534020 14510084 14526041 14591867 
3576.183 14690940 14778711 14812956 14766409 14643398 14475508 14315605 
3579.558 14208562 14180306 14219200 14293664 14361814 14399712 14400709 
3582.933 14389406 14397053 14453568 14561946 14690275 14775053 14724851 
3586.308 14454565 13926009 13200098 12430114 11799473 11465583 11488505 
3589.684 11844990 12448722 13190128 13950940 14620790 15120836 15409120 
3593.059 15490587 15411780 15248848 15070961 14915358 14780705 14632759 
3596.434 14433288 14157702 13813325 13434743 13079790 12809273 12681000 
3599.809 12731844 12970451 13374253 13892769 14456226 14984182 15411447 
3603.185 15697089 15828445 15830772 15757944 15684452 15682790 15804169 
3606.560 16059241 16414438 16790952 17104960 17305552 17391380 17403688 
3609.935 17397368 17405684 17432630 17448932 17416662 17312206 17145876 
3613.310 16968244 16841178 16814236 16895730 17048078 17199434 17267960 
3616.686 17166168 16819224 16181960 15256164 14114154 12887369 11754289 
3620.061 10882250 10378043 10281726 10563709 11148992 11933701 12813262 
3623.436 13691005 14494458 15181018 15742980 16190608 16528519 16740393 
3626.811 16763677 16500914 15861035 14851855 13661756 12627499 12007129 
3630.187 11851635 12031717 12359669 12663056 12821237 12780362 12554392 
3633.562 12212137 11856287 11584186 11448307 11451961 11567906 11764256 
3636.937 12032713 12378942 12822899 13363949 13971882 14573581 15067304 
3640.312 15347603 15348601 15062317 14556627 13953932 13410812 13051209 
3643.688 12954832 13140609 13581652 14215875 14962570 15728681 16401134 
3647.063 16850160 16956268 16640276 15910919 14891420 13821968 12965798 
3650.438 12513187 12511193 12861448 13392864 13938640 14383422 14651044 
3653.813 14718202 14597186 14339540 14027726 13754492 13592620 13558053 
3657.188 13613560 13700977 13780086 13838587 13892436 13964900 14079250 
3660.564 14241805 14436613 14631761 14794004 14897072 14933976 14916023 
3663.939 14873466 14844207 14863492 14950933 15114186 15331976 15560085 
3667.314 15733003 15769916 15602650 15211608 14686617 14241473 14120138 
3670.689 14488142 15335965 16526524 17857808 19127930 20132446 20617146 
3674.065 20308876 19001134 16793280 14222192 12058297 10823788 10566699 
3677.440 11062955 12018426 13179826 14319594 15262149 15881653 16120101 
3680.815 15994724 15588350 15018428 14404366 13856204 13459671 13255602 
3684.190 13243636 13375250 13588964 13796706 13920690 13891772 13660758 
3687.566 13213393 12583635 11865922 11178558 10633129 10292353 10164486 
3690.941 10223936 10426866 10730451 11097171 11499136 11919746 12349701 
3694.316 12788670 13245962 13730893 14258095 14825589 15415769 15988736 
3697.691 16481623 16817894 16922340 16726423 16193601 15335301 14238148 
3701.067 13050544 11968255 11159290 10710520 10614528 10798543 11176897 
3704.442 11676213 12252011 12883049 13552735 14242802 14921010 15548114 
3707.817 16081190 16485946 16743387 16854816 16835524 16708461 16489938 
3711.192 16197924 15848398 15477951 15135466 14871471 14724851 14713547 
3714.568 14832239 15056997 15350929 15674144 15986076 16246813 16429404 
3717.943 16517211 16506568 16402797 16224863 15991065 15731341 15480611 
3721.318 15273787 15137461 15081269 15083929 15095234 15056332 14917352 
3724.693 14652706 14290340 13901744 13600597 13490581 13638156 14038363 
3728.069 14631429 15319673 15995388 16570761 16962588 17111280 16988868 
3731.444 16608677 16033300 15355584 14681631 14089887 13627188 13306452 
3734.819 13124988 13064834 13090424 13163207 13244966 13321739 13401506 
3738.194 13518833 13713276 14027726 14481160 15062649 15719037 16358895 
3741.570 16871448 17120262 16961258 16285060 15100554 13649458 12393894 
3744.945 11793161 11995168 12856130 14123463 15586022 17084004 18488996 
3748.320 19689072 20552562 20960730 20850860 20260606 19321960 18238772 
3751.695 17222386 16421090 15907260 15672814 15647874 15741318 15860037 
3755.071 15930539 15901939 15767256 15552769 15329316 15176031 15155416 
3758.446 15287419 15538471 15834430 16099481 16288719 16402132 16470647 
3761.821 16524196 16577413 16614664 16600695 16490936 16260782 15924885 
3765.196 15548114 15212938 14987175 14888427 14878453 14890089 14854182 
3768.572 14734825 14542331 14345192 14226845 14256099 14437942 14725848 
3771.947 15041702 15324327 15538471 15683456 15792530 15913579 16091833 
3775.322 16350913 16677196 17025124 17316528 17459578 17362438 16972568 
3778.697 16289384 15398811 14453235 13618546 13006344 12657739 12543759 
3782.073 12598255 12750453 12945194 13153569 13374918 13621205 13904736 
3785.448 14216208 14518728 14762087 14897404 14901061 14777713 14567929 
3788.823 14327572 14123794 14005787 14007449 14141080 14410682 14809631 
3792.198 15323996 15928211 16574087 17188122 17686468 17969930 17973258 
3795.573 17688798 17201762 16662893 16233510 16007693 15981753 16056913 
3798.949 16081523 15899278 15377197 14483155 13340684 12260982 11585514 
3802.324 11491163 11927388 12708914 13629182 14515735 15246188 15719037 
3805.699 15853719 15624263 15086256 14386746 13700313 13165866 12827219 
3809.074 12670367 12653751 12751450 12955164 13279862 13750171 14370125 
3812.450 15113520 15917236 16672539 17237022 17470222 17273282 16664889 
3815.825 15825119 15045692 14555297 14420988 14549977 14773391 14890089 
3819.200 14732498 14206235 13366276 12460685 11854958 11841004 12433104 
3822.575 13422446 14522384 15503556 16208566 16554462 16531181 16192603 
3825.951 15662173 15089249 14617798 14313943 14164017 14091218 14007449 
3829.326 13856204 13629515 13376247 13191790 13183148 13412142 13875151 
3832.701 14506759 15211275 15905264 16550139 17148870 17733710 18332604 
3836.076 18938904 19486374 19870810 19973332 19734008 19188502 18474022 
3839.452 17766980 17208748 16870116 16736734 16744385 16803924 16843840 
3842.827 16820556 16737067 16625973 16540493 16523531 16598367 16762014 
3846.202 16994854 17270290 17565368 17863132 18162908 18469032 18794142 
3849.577 19143906 19511670 19862488 20124792 20178384 19873140 19093320 
3852.953 17886088 16529850 15420758 14787023 14621788 14777048 15092241 
3856.328 15446029 15764596 16016673 16199587 16329627 16426411 16518541 
3859.703 16628967 16777314 16972902 17213404 17467562 17677818 17778292 
3863.078 17700440 17423316 16990198 16522865 16172648 16049264 16176306 
3866.454 16480292 16825212 17039762 16971904 16507898 15655189 14579566 
3869.829 13606580 13039910 12993050 13359961 13922686 14462543 14810627 
3873.204 14883108 14694264 14356162 14026064 13846565 13881135 14114819 
3876.579 14473846 14866152 15207950 15414107 15429403 15244859 14916023 
3879.955 14565270 14344527 14366800 14653039 15124494 15650202 16095159 
3883.330 16345924 16334283 16056913 15601319 15131808 14829579 14813287 
3886.705 15069965 15494577 15946169 16312333 16508896 16488608 16242822 
3890.080 15803172 15258824 14724185 14326243 14138089 14169669 14370125 
3893.456 14657694 14954591 15195981 15347936 15400806 15372875 15299722 
3896.831 15229896 15217593 15302382 15509209 15829775 16222867 16627969 
3900.206 16975230 17202760 17267960 17153194 16868454 16447365 15948497 
3903.581 15454674 15054337 14810627 14759095 14890422 15176031 15570726 
3906.957 16028978 16502243 16934648 17265632 17436290 17402358 17154192 
3910.332 16722099 16181294 15630582 15172706 14881112 14773059 14821599 
3913.707 14970882 15159072 15340289 15501892 15655189 15820131 16009356 
3917.082 16202247 16360558 16445037 16430070 16325304 16172980 16022990 
3920.458 15916904 15871011 15876000 15905264 15933864 15947500 15955481 
3923.833 15977097 16031638 16120434 16223200 16307011 16336611 16302022 
3927.208 16210894 16093495 15989069 15928211 15931869 16002372 16121764 
3930.583 16268764 16420092 16560117 16684846 16789288 16871448 16934316 
3933.958 16975894 17006164 17037766 17082672 17151198 17243344 17345804 
3937.334 17431632 17470222 17431300 17298898 17077018 16785962 16462664 
3940.709 16151031 15896951 15737992 15691769 15749298 15874669 16013680 
3944.084 16112785 16132407 16055250 15889301 15662173 15411447 15184011 
3947.459 15016100 14934974 14945946 15037380 15188665 15377197 15584360 
3950.835 15791532 15984746 16149367 16270427 16339272 16354572 16325968 
3954.210 16275415 16226858 16207236 16231182 16301024 16405125 16520537 
3957.585 16618323 16673870 16667882 16593711 16452022 16251801 16009689 
3960.960 15746638 15488592 15268467 15114186 15055002 15107204 15271459 
3964.336 15527165 15840416 16155354 16414105 16569430 16592047 16480292 
3967.711 16263775 16002705 15757279 15584360 15517854 15567068 15714715 
3971.086 15930871 16184620 16447365 16697486 16915354 17080344 17169826 
3974.461 17162840 17047412 16833196 16552134 16260117 16014344 15870347 
3977.837 15854717 15961134 16154356 16374526 16562112 16662228 16641939 
3981.212 16499250 16254463 15952820 15641556 15373873 15191990 15119838 
3984.587 15164725 15307037 15512201 15723692 15889301 15958474 15904600 
3987.962 15727350 15458000 15152090 14878453 14706565 14681298 14816612 
3991.338 15092241 15453012 15831105 16161673 16400468 16535837 16589054 
3994.713 16600030 16615995 16666552 16755029 16860138 16941300 16962588 
3998.088 16905708 16778644 16612336 16450691 16324971 16250472 
##END=
