##TITLE=trecemas_2 Sep 24 15:47:24 2026 (GMT+02:00)
##JCAMP-DX=5.01  $$ Nicolet v. 970
##DATATYPE=INFRARED SPECTRUM
##ORIGIN=Vojna akademija
##OWNER=Nicolet
##LONGDATE=2026/09/24
##TIME=15:47:54
##SPECTROMETER/DATA SYSTEM=Nicolet iS20
##DATA PROCESSING=
Ratio against background
%Transmittance->Absorbance
Truncated
ElementMultiply or ElementDivide
##COMMENTS=
Number of sample scans: 8
Collection length: 11,90 sec
Sample gain: 8,0
Background collected on: Thu Sep 24 15:45:18 2026 (GMT+02:00);
Number of background scans: 8
Background gain: 8,0
Sample spacing:  1,000
Number of scan points: 12415
Resolution points: 8286
Number of FFT points: 65536
Apodization: N-B strong;
Phase correction: Mertz;
Laser frequency: 15798,00 cm-1
Number of rejected sample scans: 0
Number of rejected background scans: 0
Bench serial number: BER2010005;
##RESOLUTION= 4,000
##XUNITS=1/CM
##YUNITS=ABSORBANCE
##FIRSTX=400.156891
##LASTX=4000.123047
##FIRSTY=0.031667
##MAXX=4000.123047
##MINX=400.156891
##MAXY=0.129987
##MINY=-0.003034
##XFACTOR=1.000000
##YFACTOR=1.000000E-009
##NPOINTS=7468
##DELTAX=0.482117
##ZPD=6100
##XYDATA=(X++(Y..Y))
400.157 31666856 28852146 25266110 21158428 16981030 13214841 10185936 
403.532 8067290 6866118 6502047 6876317 7904317 9508125 11579106 13956150 
407.389 16404908 18629288 20353340 21364144 21620312 21283300 20693036 
410.763 20242236 20244424 20872144 22100890 23732476 25443602 26910464 
414.138 27875574 28206924 27891862 26988096 25588304 23796486 21788830 
417.513 19838828 18339380 17732702 18261792 19773004 21773676 23752702 
420.888 25369124 26501522 27187174 27540240 27720996 27903310 28256216 
424.263 28881008 29771016 30790492 31718254 32302826 32325524 31676874 
427.638 30379800 28606648 26624310 24753116 23257782 22280440 21831198 
431.012 21797054 21994010 22218222 22321390 22228892 21952010 21565956 
434.387 21197428 20996102 21091220 21563692 22397194 23473030 24591684 
437.762 25544164 26163586 26355422 26119422 25537452 24748590 23896600 
441.137 23103544 22441470 21933958 21586464 21415694 21460982 21772526 
444.512 22376646 23247436 24294754 25388552 26382532 27160966 27684972 
447.886 27993136 28179346 28340738 28542916 28795812 29066218 29293510 
451.261 29421310 29411774 29248706 28931296 28462032 27842188 27075652 
454.636 26188186 25237138 24309928 23534238 23042362 22939652 23262640 
458.011 23949498 24860502 25830204 26734028 27489194 28046466 28371864 
461.386 28428530 28193100 27673990 26924846 26037056 25114352 24253724 
464.761 23521086 22962112 22607828 22475698 22567794 22859842 23299978 
468.135 23816786 24347214 24860534 25365860 25907152 26530118 27239878 
471.510 27965252 28544614 28766888 28474202 27628720 26349084 24847658 
474.885 23359972 22049468 20979166 20120890 19387944 18685876 17956002 
478.260 17201910 16478550 15860271 15402544 15136566 15067919 15197230 
481.635 15533980 16094610 16882776 17859216 18926210 19930158 20699744 
485.009 21124058 21199758 21057694 20903712 20962856 21381024 22176376 
488.384 23230272 24324750 25210274 25666086 25577480 24943172 23864986 
491.759 22500370 21040894 19676404 18559328 17809744 17492406 17619162 
495.134 18151432 19002116 20041074 21100996 22021058 22668042 22967422 
498.509 22915550 22568038 22022244 21393000 20810302 20389420 20207662 
501.884 20282786 20560862 20930382 21251532 21410994 21339816 21030668 
505.258 20529390 19921208 19306152 18769628 18375672 18149324 18081064 
508.633 18136644 18272920 18449754 18638732 18829416 19030398 19264516 
512.008 19556360 19916768 20325144 20725702 21029556 21144930 21009526 
515.383 20626492 20079454 19525304 19145934 19065226 19305390 19763156 
518.758 20259352 20593382 20632956 20359798 19864598 19299950 18817374 
522.132 18523814 18449028 18560502 18789280 19070974 19359500 19634664 
525.507 19885998 20087122 20184822 20113152 19814864 19277330 18544180 
528.882 17713028 16902858 16233066 15788553 15593909 15611323 15752956 
532.257 15918078 16014226 15989164 15836386 15591505 15313912 15068983 
535.632 14908847 14854842 14896091 14996916 15113340 15209891 15276159 
539.007 15333820 15432482 15629664 15968230 16457351 17061766 17706608 
542.381 18292792 18733406 18970270 18992702 18835024 18567350 18273646 
545.756 18026798 17879174 17845580 17905208 18008736 18098920 18123276 
549.131 18051218 17886390 17668130 17462532 17338066 17348030 17507310 
552.506 17788170 18122308 18424240 18610924 18620954 18431708 18057540 
555.881 17542704 16944302 16329866 15766872 15313329 15018593 14908813 
559.255 14981482 15203612 15518699 15860613 16168062 16404701 16562875 
562.630 16657822 16712155 16740737 16742183 16704822 16620399 16502056 
566.005 16389251 16344901 16427791 16670287 17058908 17537252 18021894 
569.380 18434058 18733614 18926382 19060032 19195558 19387112 19659348 
572.755 20005440 20395876 20795876 21173316 21502760 21765628 21944520 
576.130 22027508 22016422 21936398 21834856 21768590 21788274 21912456 
579.504 22118216 22339144 22493354 22510244 22363284 22081330 21739328 
582.879 21427668 21215658 21137834 21181668 21301256 21434734 21530542 
586.254 21558852 21513622 21407792 21264718 21113344 20981356 20895508 
589.629 20873222 20915916 21001734 21088648 21126980 21077762 20937230 
593.004 20743846 20570556 20491632 20559022 20777558 21103186 21453638 
596.378 21740966 21905348 21927024 21826736 21642776 21409880 21138600 
599.753 20817566 20427340 19963392 19449308 18936766 18485054 18143038 
603.128 17926962 17816270 17760176 17702848 17603912 17449288 17253140 
606.503 17045778 16859524 16715428 16622672 16581774 16589968 16645221 
609.878 16742527 16868204 16994194 17081962 17094024 17006942 16824632 
613.253 16580191 16327253 16117305 15987033 15941588 15956094 15984111 
616.627 15977614 15904674 15756771 15549125 15310343 15071761 14854534 
620.002 14668018 14510839 14375260 14252050 14134419 14021200 13917317 
623.377 13834802 13790713 13802581 13882010 14027703 14220414 14428110 
626.752 14610890 14736054 14789084 14776331 14720149 14647284 14578508 
630.127 14518754 14459076 14383823 14284064 14165740 14052137 13973395 
633.501 13955774 14007752 14114737 14243866 14357382 14428898 14450478 
636.876 14433591 14398893 14364575 14334574 14296666 14228801 14111759 
640.251 13940206 13730861 13518166 13349239 13268028 13303968 13465906 
643.626 13738830 14087457 14458152 14794501 15040614 15154099 15116804 
647.001 14938167 14657325 14331561 14031193 13817084 13723543 13753776 
650.375 13881121 14061481 14247872 14409169 14533829 14630423 14717304 
653.750 14812293 14921090 15034817 15131042 15186421 15187415 15140614 
657.125 15074574 15034989 15073819 15227907 15508500 15891304 16323192 
660.500 16730854 17045536 17224008 17258622 17180332 17046674 16926870 
663.875 16872786 16910852 17038266 17234248 17467742 17709232 17940704 
667.250 18160102 18387564 18652082 18970930 19328772 19693462 20035280 
670.624 20334276 20574796 20742384 20827474 20827334 20751874 20625276 
673.999 20482286 20359938 20286952 20282126 20350040 20483990 20670864 
677.374 20898602 21160202 21455378 21789144 22165498 22581998 23028072 
680.749 23484850 23930768 24348336 24726212 25062012 25360626 25631850 
684.124 25887492 26139656 26399786 26677158 26980374 27316440 27689810 
687.498 28101394 28546240 29011876 29478614 29922954 30321030 30653966 
690.873 30913754 31106276 31250492 31370572 31489868 31620350 31759068 
694.248 31891522 31999510 32072276 32114268 32144986 32195010 32294758 
697.623 32462362 32699692 32991666 33314958 33643112 33956568 34245448 
700.998 34506600 34740600 34949044 35134852 35304496 35471828 35658972 
704.373 35890388 36188728 36567788 37028324 37559356 38143312 38763192 
707.747 39406124 40066544 40742524 41431952 42129232 42825440 43511556 
711.122 44184560 44850564 45525172 46229648 46988656 47824924 48756364 
714.497 49796624 50952492 52221432 53587724 55024024 56487584 57928032 
717.872 59300308 60568848 61717528 62745160 63655368 64441472 65078720 
721.247 65524088 65734088 65677964 65350392 64770712 63975020 63001284 
724.621 61878316 60629764 59277704 57850308 56388460 54937192 53536072 
727.996 52210856 50966496 49790120 48661656 47566508 46502724 45483116 
731.371 44528008 43655960 42872212 42163736 41499356 40838616 40142528 
734.746 39381748 38546132 37644880 36705356 35764048 34862796 34037696 
738.121 33309844 32683652 32144844 31665608 31209156 30740914 30233846 
741.496 29673800 29061258 28410524 27745506 27092402 26478452 25924772 
744.870 25443602 25036494 24695874 24408442 24159030 23936896 23735800 
748.245 23553652 23388784 23234746 23078036 22900670 22682528 22410486 
751.620 22083318 21714282 21328296 20954998 20621698 20346080 20135606 
754.995 19989586 19905388 19879478 19909622 19991250 20114816 20262926 
758.370 20414248 20545474 20640216 20692376 20707076 20695052 20665826 
761.744 20620170 20547420 20428140 20242550 19980842 19650056 19274352 
765.119 18887482 18525820 18214280 17962184 17762798 17598702 17447772 
768.494 17291480 17120976 16937344 16751343 16577644 16433228 16330417 
771.869 16273724 16257592 16265709 16274927 16258450 16194956 16072294 
775.244 15892094 15668444 15423864 15181548 14957303 14758334 14582997 
778.619 14425746 14282969 14156429 14053506 13984072 13953756 13959914 
781.993 13989307 14021576 14033212 14005390 13930216 13811440 13662299 
785.368 13501144 13346335 13211085 13102853 13022952 12967849 12931629 
788.743 12907292 12887938 12867528 12842068 12809988 12773407 12736964 
792.118 12705882 12683058 12666239 12647715 12615650 12560838 12480559 
795.493 12383793 12290356 12228053 12221374 12283402 12408272 12571513 
798.867 12735838 12862067 12925451 12921389 12869678 12804766 12767469 
802.242 12789035 12880054 13028380 13202476 13364341 13476363 13517175 
805.617 13482003 13383716 13244867 13091413 12944737 12817256 12715026 
808.992 12640415 12598459 12599823 12660849 12799785 13031385 13357474 
812.367 13762804 14210896 14653692 15035640 15310721 15454764 15470008 
815.742 15384762 15241771 15090149 14968518 14896605 14873631 14882615 
819.116 14898251 14897737 14869654 14815448 14749525 14691495 14663288 
822.491 14680870 14751993 14874900 15038659 15225299 15411710 15574985 
825.866 15697405 15769552 15794326 15785323 15763333 15748594 15756153 
829.241 15791165 15848070 15915466 15983079 16045475 16105957 16172601 
832.616 16254392 16353916 16466057 16577678 16674073 16745213 16789948 
835.990 16816194 16837342 16866138 16908060 16960254 17013420 17058976 
839.365 17094438 17127732 17173782 17251864 17376136 17550156 17765318 
842.740 18003556 18242856 18462926 18650838 18802878 18923892 19024652 
846.115 19118650 19219178 19334660 19467328 19610156 19747482 19855928 
849.490 19912294 19900394 19817984 19680252 19518998 19374570 19281488 
852.865 19261156 19313738 19421828 19557018 19692838 19812192 19909622 
856.239 19987676 20049506 20091530 20103088 20069876 19984104 19852910 
859.614 19702060 19571264 19499868 19517438 19629914 19819580 20049888 
862.989 20280078 20477182 20624722 20724522 20791634 20843256 20889354 
866.364 20928782 20950200 20939490 20887338 20795772 20680318 20567916 
869.739 20487914 20465442 20513794 20630768 20797718 20985146 21162324 
873.113 21301918 21388892 21422308 21414616 21385028 21353808 21336162 
876.488 21336996 21352520 21371732 21382870 21375178 21342392 21282952 
879.863 21198610 21093032 20972038 20844368 20722366 20620828 20555444 
883.238 20537586 20571078 20649808 20759102 20877360 20981842 21054598 
886.613 21083536 21066562 21010220 20927426 20832932 20740682 20659398 
889.987 20590012 20526020 20455266 20366500 20254700 20127518 20004434 
893.362 19915206 19887804 19938240 20062868 20236682 20419318 20565934 
896.737 20643136 20634486 20545750 20398378 20222796 20047772 19894844 
900.112 19779524 19712324 19700292 19747344 19848714 19988198 20135778 
903.487 20255740 20312262 20283376 20168230 19988962 19782542 19586064 
906.862 19427858 19317964 19249968 19208512 19180598 19159960 19150090 
910.236 19158090 19188286 19235872 19287792 19324650 19329014 19291602 
913.611 19211386 19095554 18955040 18801632 18645960 18500404 18379994 
916.986 18299702 18272886 18304888 18389708 18509186 18638834 18755374 
920.361 18841838 18892536 18909908 18898522 18859350 18787170 18674566 
923.736 18518766 18330324 18135056 17968088 17866606 17854350 17934868 
927.110 18089698 18286916 18491934 18677956 18835714 18970998 19099466 
930.485 19236218 19390438 19560484 19735798 19899526 20034724 20126930 
933.860 20167502 20156290 20103676 20031984 19972342 19961276 20029938 
937.235 20193778 20447034 20762994 21102908 21425266 21702542 21926850 
940.610 22109396 22269838 22425174 22579590 22722504 22835324 22903918 
943.985 22929382 22933224 22951632 23022028 23172914 23410850 23720506 
947.359 24070064 24425966 24761394 25064294 25338074 25596388 25855102 
950.734 26127516 26421124 26736846 27070292 27411684 27747838 28062124 
954.109 28337908 28562730 28734178 28862912 28970220 29085810 29238428 
957.484 29448296 29724394 30064400 30458800 30896500 31370394 31877864 
960.859 32418660 32991630 33589376 34197372 34795772 35359304 35862212 
964.233 36280860 36593884 36786204 36851156 36793632 36630080 36387960 
967.608 36100576 35797688 35503572 35232656 34990420 34778328 34598056 
970.983 34453008 34348712 34289476 34273916 34292988 34331248 34367576 
974.358 34381492 34357572 34287072 34168908 34009060 33819652 33616580 
977.733 33418362 33245024 33112802 33031240 33001888 33017870 33066958 
981.108 33136688 33219662 33314850 33426524 33559520 33714148 33883268 
984.482 34052456 34203716 34322716 34402400 34443972 34454084 34439308 
987.857 34401680 34338276 34243292 34114460 33956212 33781580 33607664 
991.232 33449568 33315424 33202746 33100176 32992344 32866526 32716270 
994.607 32542746 32351904 32151158 31946830 31741496 31536434 31332358 
997.982 31131514 30938056 30757592 30595266 30456456 30345616 30266956 
1001.356 30224504 30220774 30255944 30326004 30421946 30530706 30637752 
1004.731 30730064 30797286 30834422 30840824 30819516 30776442 30722312 
1008.106 30671034 30638358 30639176 30681702 30763070 30867540 30971110 
1011.481 31047442 31078228 31061644 31013598 30963068 30939656 30964562 
1014.856 31041002 31156182 31285316 31405658 31505472 31587992 31668782 
1018.231 31767376 31898438 32064214 32255712 32455974 32649432 32825392 
1021.605 32981478 33120238 33245202 33357962 33457798 33544950 33622776 
1024.980 33700252 33790032 33901684 34038448 34191168 34341720 34464524 
1028.356 34536484 34543952 34484576 34366964 34207656 34025332 33835880 
1031.731 33651344 33480558 33329700 33206608 33119060 33073180 33070858 
1035.106 33106078 33164046 33222236 33257258 33248634 33183754 33061632 
1038.481 32890830 32686726 32464400 32236122 32007854 31780242 31553000 
1041.857 31328336 31113040 30918842 30757484 30639316 30570060 30550082 
1045.232 30578662 30655496 30783306 30966344 31206486 31498954 31829194 
1048.607 32173924 32506176 32801450 33047758 33247598 33418864 33585832 
1051.982 33772988 33996484 34261724 34564436 34897124 35253712 35632212 
1055.358 36032604 36453072 36883364 37305060 37692976 38022612 38278448 
1058.733 38458736 38575428 38647316 38694872 38732980 38768152 38802392 
1062.108 38836380 38873920 38923092 38994384 39095740 39229800 39391356 
1065.483 39569056 39748900 39920096 40076608 40218928 40352132 40483884 
1068.859 40621172 40769968 40933960 41115384 41315800 41536580 41780308 
1072.234 42052312 42361388 42718636 43138244 43632364 44208184 44864560 
1075.609 45591704 46370608 47176988 47988972 48788876 49568004 50326920 
1078.984 51072776 51816668 52570288 53345444 54150932 54991192 55863076 
1082.359 56754988 57645904 58508500 59317512 60055088 60718388 61319044 
1085.735 61881376 62433256 62997452 63591376 64223304 64896352 65609328 
1089.110 66357052 67126688 67894552 68631016 69302384 69883328 70367504 
1092.485 70768656 71114320 71430680 71728712 71995200 72197080 72296360 
1095.860 72270768 72126504 71900136 71639768 71391664 71176648 70985424 
1099.236 70783552 70529544 70190736 69753080 69223072 68619888 67968120 
1102.611 67290728 66611648 65959772 65367840 64873344 64508780 64291456 
1105.986 64221612 64280316 64438864 64665296 64935668 65235788 65559268 
1109.361 65903196 66265076 66642552 67037172 67457504 67918760 68434736 
1112.737 69009080 69627080 70252664 70836320 71333128 71714256 71976232 
1116.112 72136248 72218640 72236752 72183624 72031800 71748848 71315088 
1119.487 70736208 70044288 69287576 68514304 67752896 67009724 66271520 
1122.862 65520928 64749056 63967460 63205624 62507600 61917636 61468768 
1126.238 61180248 61052972 61077380 61239492 61529392 61945336 62495812 
1129.613 63195772 64063296 65113052 66351032 67772032 69358552 71085552 
1132.988 72920784 74835240 76805232 78814480 80854128 82914952 84981056 
1136.363 87028240 89022616 90932544 92738944 94441928 96061368 97625384 
1139.739 99157752 100663160 102123808 103504336 104768472 105887000 
1142.632 106847928 107653232 108312712 108838824 109246928 109564800 
1145.525 109833656 110109464 110451032 110896160 111447472 112064280 
1148.418 112679048 113214912 113619880 113886008 114049912 114173024 
1151.311 114312808 114503488 114743056 115003736 115249192 115457576 
1154.204 115626008 115769288 115903928 116036480 116157736 116248704 
1157.097 116291488 116280184 116222720 116134696 116026224 115895320 
1159.990 115726904 115502488 115209408 114849008 114433536 113977792 
1162.883 113488192 112958520 112373872 111722216 111003448 110233000 
1165.776 109432880 108619600 107793136 106935520 106018568 105020280 
1168.669 103939448 102798072 101633184 100480720 99363008 98281896 97225272 
1172.045 96178824 95137568 94109048 93107184 92139696 91200040 90265248 
1175.420 89307528 88304776 87254744 86175160 85097080 84048448 83042184 
1178.795 82072544 81121520 80169296 79206960 78241392 77289560 76369320 
1182.170 75489384 74647192 73832992 73039000 72266376 71525600 70831248 
1185.546 70192608 69605296 69050832 68502472 67937792 67346016 66731944 
1188.921 66110372 65497660 64901352 64316852 63731216 63130820 62508784 
1192.296 61868652 61220688 60576616 59942252 59316488 58693176 58068784 
1195.671 57447944 56844640 56278344 55766584 55317816 54928096 54582076 
1199.047 54258556 53939292 53612088 53273224 52925264 52573612 52223636 
1202.422 51879912 51547280 51230492 50934756 50663232 50416032 50188872 
1205.797 49974212 49765004 49556492 49349752 49149604 48963640 48798660 
1209.172 48658248 48543664 48453416 48385520 48337076 48302708 48273044 
1212.547 48234200 48171336 48071836 47932324 47761084 47578928 47412148 
1215.923 47284596 47212260 47198336 47235056 47308020 47403984 47513092 
1219.298 47630580 47754464 47881784 48006628 48121880 48221244 48304484 
1222.673 48377556 48452824 48542960 48658360 48803816 48978212 49177544 
1226.048 49397604 49635236 49886972 50147108 50406508 50652660 50875072 
1229.424 51069460 51241748 51406612 51583440 51786952 52020440 52273112 
1232.799 52522384 52742388 52910928 53016224 53058528 53045948 52988968 
1236.174 52895920 52772092 52620740 52445656 52253904 52053908 51854712 
1239.549 51662432 51478788 51301108 51124436 50943024 50751004 50543392 
1242.925 50313936 50055704 49762220 49429680 49058376 48653836 48225168 
1246.300 47781720 47330852 46877428 46424732 45977224 45542356 45129944 
1249.675 44749436 44406216 44098916 43818476 43551076 43283364 43006448 
1253.050 42718492 42424436 42133288 41854076 41593136 41354756 41140808 
1256.426 40952784 40790640 40651804 40527788 40403296 40259716 40078572 
1259.801 39851704 39586480 39306688 39046620 38839676 38708240 38654596 
1263.176 38661044 38694040 38717872 38701140 38626416 38491680 38307400 
1266.551 38090104 37856244 37619512 37387860 37164704 36951328 36747908 
1269.927 36556108 36378344 36218116 36079296 35963952 35872104 35801540 
1273.302 35747824 35706236 35670912 35637784 35603184 35564164 35519000 
1276.677 35466108 35405028 35336052 35260432 35179580 35091816 34991352 
1280.052 34867464 34705460 34489956 34212424 33874208 33490152 33084408 
1283.428 32685618 32317318 31990200 31701002 31435472 31177222 30914858 
1286.803 30649166 30392202 30164228 29982454 29857006 29785248 29755192 
1290.178 29749620 29752248 29753276 29749372 29741708 29734008 29729218 
1293.553 29728970 29733582 29743516 29758564 29776658 29792806 29799408 
1296.929 29786632 29746640 29677560 29585222 29482514 29385076 29307192 
1300.304 29255442 29228044 29214790 29202564 29178148 29132862 29062924 
1303.679 28969760 28856680 28728336 28590156 28448730 28311878 28189316 
1307.054 28088986 28015930 27970552 27948114 27940304 27938538 27936346 
1310.430 27930304 27919740 27905358 27887728 27866316 27840598 27811314 
1313.805 27780968 27753948 27734912 27726080 27726328 27731238 27734276 
1317.180 27729472 27713402 27686456 27652484 27616396 27581936 27549668 
1320.555 27516624 27475604 27417296 27331084 27206752 27036932 26819946 
1323.931 26562136 26278748 25990864 25723528 25496410 25320688 25195702 
1327.306 25110876 25049654 24995884 24939836 24879728 24821522 24773180 
1330.681 24742066 24730632 24735718 24751466 24772478 24796930 24827416 
1334.056 24869272 24928820 25010554 25116424 25245214 25395226 25565214 
1337.432 25754290 25961388 26182660 26409152 26628080 26825304 26989930 
1340.807 27117832 27211268 27277170 27322544 27354656 27380452 27406990 
1344.182 27443486 27499786 27583948 27699558 27844166 28008578 28179664 
1347.557 28345122 28495820 28628766 28745716 28850660 28944824 29025088 
1350.932 29084180 29113586 29107954 29067848 29001036 28921024 28844286 
1354.308 28785404 28755878 28761754 28803072 28875236 28970184 29077236 
1357.683 29184632 29281988 29361678 29420354 29459642 29484996 29503296 
1361.058 29519288 29534752 29548228 29559046 29570042 29589336 29627326 
1364.433 29692604 29786880 29905314 30036490 30167034 30283972 30379160 
1367.809 30450982 30504260 30545992 30582112 30615852 30649132 30685366 
1371.184 30733800 30809380 30931828 31120194 31384572 31719930 32102030 
1374.559 32495964 32864452 33180248 33427526 33593560 33663556 33617368 
1377.934 33432390 33095244 32608926 31996370 31291586 30530956 29743588 
1381.310 28947090 28155198 27381300 26639388 25943834 25300668 24705132 
1384.685 24140396 23584018 23014480 22422382 21817922 21228810 20688380 
1388.060 20220400 19828734 19501600 19220010 18966152 18728390 18500716 
1391.435 18280592 18065658 17853520 17642972 17436044 17242176 17076482 
1394.811 16954192 16883120 16858732 16867102 16890768 16917258 16940858 
1398.186 16963802 16993468 17038266 17101538 17180088 17265000 17345410 
1401.561 17412626 17459774 17482956 17481436 17456842 17414210 17360272 
1404.936 17302480 17245314 17191050 17139072 17089578 17046190 17017590 
1408.312 17016176 17058770 17159960 17329410 17568096 17867572 18212620 
1411.687 18585368 18970894 19357872 19737462 20102080 20442172 20746904 
1415.062 21006674 21214718 21368078 21466448 21508816 21488832 21396096 
1418.437 21221920 20971758 20672256 20362436 20074180 19822180 19603708 
1421.813 19405302 19211628 19013296 18812290 18626486 18483844 18412626 
1425.188 18429738 18535432 18719154 18966636 19266212 19608560 19987434 
1428.563 20396884 20829594 21277872 21736122 22200996 22671602 23147438 
1431.938 23625754 24102776 24573732 25036808 25494828 25954738 26426934 
1435.314 26919806 27431168 27941578 28418730 28835008 29181940 29473188 
1438.689 29731490 29978228 30229016 30491464 30765810 31045380 31319540 
1442.064 31577908 31812188 32020408 32205824 32376394 32541066 32709446 
1445.439 32889612 33088092 33310130 33560952 33844728 34167724 34536844 
1448.815 34962872 35462012 36052040 36750896 37568644 38501420 39522564 
1452.190 40586028 41641704 42642640 43563712 44400896 45160716 45848988 
1455.565 46456372 46952844 47297968 47481116 47548576 47572792 47608988 
1458.940 47668072 47734232 47786860 47814304 47814900 47792852 47752948 
1462.316 47693588 47603664 47463784 47248944 46935972 46509512 45955164 
1465.691 45252196 44371536 43276336 41943476 40375912 38608024 36689132 
1469.066 34673916 32598994 30456064 28204026 25785934 23182842 20478606 
1472.441 17880314 15632138 13878522 12606951 11698021 11005885 10425275 
1475.817 9896792 9403454 8951803 8551003 8201083 7892270 7610248 7343674 
1479.674 7088007 6845752 6622405 6421938 6243681 6082499 5932092 5788419 
1483.531 5651507 5523933 5408173 5303344 5205684 5108749 5007545 4900501 
1487.389 4791540 4687430 4594930 4516646 4449289 4386225 4323406 4260027 
1491.246 4199367 4144235 4094462 4046735 3996270 3938355 3869783 3789658 
1495.104 3699956 3603357 3503171 3402208 3303070 3211800 3138170 3093150 
1498.961 3085675 3117812 3182026 3263342 3345607 3414964 3464994 3496958 
1502.818 3516566 3531497 3547899 3568545 3592532 3615919 3633560 3641947 
1506.676 3640243 3626978 3595773 3538178 3448261 3327310 3182593 3027047 
1510.533 2876260 2748132 2656178 2605875 2593942 2610942 2645444 2688717 
1514.391 2735595 2783746 2830367 2870357 2896006 2901343 2886467 2858383 
1518.248 2827766 2803988 2793316 2797385 2813225 2833536 2848510 2849311 
1522.106 2832435 2799819 2754368 2698685 2634543 2566177 2501554 2451902 
1525.963 2427978 2434642 2465897 2506686 2541080 2555811 2545812 2513551 
1529.820 2466197 2412517 2360044 2314772 2280563 2260744 2257347 2268905 
1533.678 2288290 2302713 2300515 2274467 2222909 2148714 2058751 1964680 
1537.535 1884638 1846237 1882076 2017305 2242260 2499421 2701419 2788848 
1541.393 2760303 2651244 2504687 2352948 2219912 2120844 2063412 2046633 
1545.250 2058851 2080990 2092344 2077994 2029722 1948304 1842743 1732484 
1549.108 1643406 1599405 1613872 1682022 1786379 1906436 2027358 2139457 
1552.965 2236564 2313106 2362542 2379367 2363009 2318869 2257247 2192137 
1556.822 2142720 2133564 2195135 2346951 2560211 2748099 2840473 2842107 
1560.680 2792049 2721624 2645810 2571610 2502421 2441139 2393293 2363175 
1564.537 2351082 2350882 2350516 2335592 2295385 2226273 2133797 2033251 
1568.395 1946673 1900346 1908300 1962683 2034849 2094541 2123475 2118980 
1572.252 2087916 2041240 1989211 1938120 1891394 1849565 1812032 1780391 
1576.109 1759630 1755971 1772206 1805810 1851095 1902077 1954628 2005455 
1579.967 2052459 2094141 2129069 2155940 2174588 2184944 2188241 2186110 
1583.824 2181115 2176086 2174455 2180082 2195634 2223242 2262310 2309109 
1587.682 2357145 2397624 2422347 2425712 2408086 2375269 2338123 2307677 
1591.539 2293586 2299749 2324365 2359544 2394892 2420314 2428611 2417349 
1595.397 2388462 2347418 2300781 2254050 2211053 2172623 2138126 2105961 
1599.254 2075531 2047632 2025827 2015208 2021566 2048897 2096905 2159137 
1603.111 2225041 2281462 2317403 2329096 2320668 2303346 2291055 2296951 
1606.969 2327497 2380866 2446837 2510819 2559977 2586309 2588775 2571843 
1610.826 2542346 2506619 2470229 2437074 2410352 2393226 2388829 2398291 
1614.684 2419748 2446304 2465697 2464231 2435708 2388629 2342188 2313872 
1618.541 2312440 2336724 2379267 2430210 2480126 2522016 2550945 2564744 
1622.399 2563844 2551945 2533281 2513985 2500221 2496855 2508986 2540580 
1626.256 2593242 2665579 2752234 2844742 2933733 3013801 3083940 3146947 
1630.113 3206326 3263509 3317393 3365408 3404378 3432865 3452202 3466230 
1633.971 3480325 3499831 3526453 3555015 3575694 3580237 3568177 3545862 
1637.828 3520775 3498395 3482128 3472743 3469269 3469069 3468635 3464326 
1641.686 3454006 3438041 3420107 3406348 3404311 3421276 3461420 3523146 
1645.543 3595973 3661327 3702195 3714526 3713657 3723082 3759944 3826961 
1649.401 3917592 4020481 4125369 4222319 4305369 4374779 4442426 4530306 
1653.258 4652798 4794991 4925232 5023936 5088164 5122830 5132788 5121958 
1657.115 5093394 5050283 4996920 4938168 4880328 4828896 4788793 4762730 
1660.973 4752412 4758877 4783165 4827054 4891588 4974967 5071838 5174968 
1664.830 5276278 5369895 5451421 5518900 5571891 5610019 5632105 5634119 
1668.688 5611294 5560816 5487524 5406731 5337826 5298448 5297945 5337289 
1672.545 5412132 5516618 5643786 5785699 5931454 6066035 6173199 6242908 
1676.402 6275885 6282205 6276389 6274842 6293433 6345039 6436230 6563635 
1680.260 6712949 6863054 6996073 7101109 7176761 7229618 7272945 7322781 
1684.117 7389237 7471379 7562032 7658234 7764510 7887074 8029756 8191899 
1687.975 8368999 8553098 8738290 8924237 9116794 9323926 9549886 9792637 
1691.832 10044917 10298735 10550970 10807903 11084975 11404230 11782921 
1695.207 12216091 12663953 13066998 13384741 13619013 13800666 13970419 
1698.583 14160913 14390501 14654926 14923559 15156329 15336189 15476601 
1701.958 15602667 15732447 15873674 16030967 16211500 16429512 16705854 
1705.333 17057804 17486920 17974270 18490204 19009316 19521526 20034448 
1708.708 20565656 21133660 21747758 22401626 23076708 23752354 24414504 
1712.084 25067452 25731754 26436722 27206436 28045724 28934128 29837344 
1715.459 30729390 31620632 32564852 33645688 34911164 36320232 37752864 
1718.834 39081784 40247064 41267084 42204628 43132500 44109260 45169316 
1722.209 46317964 47538780 48808640 50111928 51451968 52844536 54304512 
1725.585 55831648 57409180 59014436 60641608 62310240 64070092 65979324 
1728.960 68075776 70343664 72712448 75078856 77373928 79611696 81920904 
1732.335 84535656 87758416 91820984 96641504 101699680 106301912 110060456 
1735.710 113035456 115501880 117715088 119825624 121878720 123839680 
1738.603 125624312 127153264 128377584 129279720 129836560 129986752 
1741.496 129632008 128685968 127120360 125004304 122486728 119748616 
1744.390 116912184 114007040 110977520 107735936 104219880 100434664 
1747.283 96446424 92360112 88262504 84187512 80113432 76006784 71874920 
1750.658 67791360 63891068 60306428 57111060 54295948 51789340 49490132 
1754.033 47294496 45111524 42870604 40530840 38101640 35649152 33281472 
1757.408 31107060 29187114 27520788 26057848 24725230 23445330 22155038 
1760.784 20823164 19461262 18123622 16883704 15799686 14890468 14138355 
1764.159 13503195 12941802 12416796 11901789 11382971 10860320 10346069 
1767.534 9860286 9424414 9051460 8742346 8486937 8269430 8072725 7880529 
1771.391 7681504 7470165 7249024 7027928 6817075 6623078 6448740 6294105 
1775.249 6158344 6039559 5935686 5842920 5757158 5674266 5591156 5506349 
1779.106 5418909 5328535 5235194 5138622 5039892 4940782 4844677 4755393 
1782.964 4676109 4607822 4547784 4489293 4424986 4348539 4259224 4162667 
1786.821 4068005 3984265 3917224 3866808 3827931 3792700 3753995 3708778 
1790.679 3661260 3621298 3598612 3596007 3603657 3603858 3579402 3522311 
1794.536 3435303 3329914 3221480 3124854 3051539 3004860 2981139 2971063 
1798.393 2963791 2948678 2918289 2869589 2803621 2724625 2639377 2555444 
1802.251 2479893 2418781 2375935 2352715 2347618 2357145 2376502 2400556 
1806.108 2424679 2445038 2458266 2461365 2451769 2427145 2386330 2329395 
1809.966 2258313 2176886 2090712 2006320 1930864 1870262 1829001 1809137 
1813.823 1808970 1823444 1844440 1861677 1867001 1857451 1837652 1818254 
1817.681 1813196 1831763 1874455 1930964 1983752 2015008 2013111 1977528 
1821.538 1918450 1853558 1800054 1770410 1767582 1785614 1810235 1825906 
1825.395 1821714 1793067 1741699 1671444 1586303 1490072 1389077 1295150 
1829.253 1223406 1189084 1197390 1238924 1293289 1339485 1363416 1359461 
1833.110 1331509 1287607 1238292 1191243 1149548 1111577 1073975 1034615 
1836.968 995459 961686 940400 935818 948967 976364 1013293 1056437 1104269 
1841.307 1157023 1214269 1271290 1318414 1341114 1325626 1267036 1173568 
1845.165 1062748 952587 855136 774336 709813 661229 632525 632259 671449 
1849.504 757209 889200 1056736 1242546 1424247 1580982 1698055 1768114 
1853.362 1792035 1776764 1730621 1659570 1566716 1454898 1329216 1199749 
1857.219 1080784 984998 919680 882659 862440 842587 809124 756047 688109 
1861.559 618920 565236 539326 544070 572104 609663 643840 666837 680941 
1865.898 697003 729395 787846 870474 958763 1024386 1040162 995990 905137 
1870.238 797074 702014 639493 615669 623300 647457 672113 688374 695576 
1874.578 702047 719770 758304 819780 897168 975168 1036841 1066269 1052484 
1878.917 991108 884651 743600 584081 429231 305304 235017 235514 310444 
1883.257 448501 621774 794850 934855 1019537 1044978 1021795 969589 907262 
1887.596 847334 792891 740613 684558 624130 566796 526587 517497 548117 
1891.936 618024 718343 833590 943688 1029401 1073975 1067730 1011101 915530 
1896.276 800493 686450 592376 528876 497560 490660 495802 498887 492253 
1900.615 476264 459182 452448 463825 492319 526620 549245 542444 495935 
1904.955 410658 299436 179988 71045 -14512 -73186 -109494 -133045 -154410 
1909.294 -182033 -219722 -266249 -315387 -357170 -377928 -363195 -300885 
1913.152 -186504 -25843 165005 361477 538330 679115 777224 836877 869644 
1917.491 887340 895143 892055 872732 834387 781771 726806 684691 671118 
1921.831 695609 757242 846869 949299 1051554 1144864 1224004 1282024 1306450 
1926.171 1281525 1190977 1027242 797240 524132 244067 -5699 -191505 -296249 
1930.510 -319990 -278038 -192697 -87862 14877 98916 150719 162552 133086 
1934.850 69984 -9376 -83025 -127348 -126354 -78123 4307 99214 179789 225999 
1939.672 229348 192849 130070 60772 10006 1292 52553 169911 344001 548648 
1944.493 739949 869312 888768 766005 496499 108361 -342338 -788635 -1162177 
1948.833 -1414472 -1526087 -1502148 -1365194 -1144927 -870717 -567943 
1952.208 -263236 15076 240752 389897 451122 427142 336507 206374 65875 
1956.548 -60730 -158616 -224623 -261613 -277938 -283203 -288435 -304328 
1960.405 -336114 -379384 -418115 -425166 -373723 -250917 -72325 121254 
1964.263 266413 303116 204816 -7885 -262507 -461907 -514035 -377034 -76002 
1968.602 300861 650112 890959 990511 971947 897600 843450 857294 949432 
1972.942 1083707 1199583 1230417 1130379 885282 514777 65245 -403749 -830306 
1977.281 -1167233 -1381511 -1459683 -1408957 -1256016 -1037809 -788801 
1980.657 -533196 -278634 -20410 244962 508407 741974 900455 939537 829805 
1984.996 573531 205778 -209058 -593687 -882224 -1030239 -1027396 -893070 
1988.854 -661613 -368658 -48041 266048 541383 742206 838669 818585 692158 
1993.193 492253 264523 54707 -106777 -209985 -262077 -278170 -267938 -228962 
1997.533 -147057 -2750 212606 483628 768992 1007813 1137887 1110315 911645 
2001.872 569881 157779 -233465 -507317 -593885 -467600 -156828 257958 670587 
2006.212 964043 1057433 929642 624130 231337 -141260 -398883 -495733 -434931 
2010.552 -266117 -56390 127518 243570 276094 230740 124336 -28626 -219391 
2014.891 -444332 -702238 -988653 -1294273 -1606445 -1913675 -2204370 
2018.266 -2466702 -2681723 -2823036 -2855559 -2748434 -2484921 -2073441 
2021.642 -1548802 -962106 -366970 198120 709050 1149182 1499116 1727893 
2025.499 1795928 1669216 1335397 815863 166696 -524327 -1165151 -1669855 
2029.357 -1976018 -2051181 -1883094 -1472627 -834738 -10602 917323 1826439 
2033.214 2554345 2953415 2927529 2466730 1655878 665012 -292243 -1031991 
2037.071 -1430589 -1462523 -1190826 -736805 -232439 211446 522208 678020 
2040.929 696140 619617 494807 362903 253052 181612 156056 173325 223148 
2045.268 282493 320391 302586 194540 -24651 -352072 -755560 -1177510 
2049.126 -1540416 -1767479 -1805360 -1630740 -1261104 -750665 -184119 348511 
2052.983 767432 1019836 1095200 1023755 869445 706959 607440 615967 740879 
2057.323 954513 1199716 1407559 1506796 1448647 1215399 830137 346322 
2061.180 -159544 -606128 -932351 -1098593 -1099683 -959164 -721060 -435229 
2065.038 -145202 114592 324669 474738 561587 588826 566033 510199 442200 
2069.377 385320 356536 363798 402267 458353 515805 560326 583882 584081 
2073.717 559596 507445 423825 305835 158575 -1391 -148150 -255454 -304792 
2078.056 -296514 -253037 -212171 -211012 -272706 -395241 -552721 -702965 
2081.914 -802691 -826437 -769981 -652548 -503908 -357236 -236446 -154244 
2085.771 -114959 -117609 -159213 -235187 -337537 -451150 -554475 -625848 
2089.629 -647651 -615095 -539550 -446450 -364685 -319725 -325155 -378921 
2093.486 -465085 -558347 -632134 -663168 -636899 -550504 -414176 -250652 
2097.344 -89750 33831 94276 80788 3810 -109427 -218795 -286448 -292607 
2101.683 -237936 -146162 -51553 12193 26441 -8912 -76665 -154874 -223762 
2106.023 -275124 -312374 -344622 -380576 -420433 -457538 -480178 -479780 
2109.880 -454427 -411561 -364586 -328797 -316016 -332141 -377828 -449925 
2113.738 -543985 -653970 -773388 -893434 -1002406 -1089933 -1147604 -1172256 
2117.595 -1166341 -1136500 -1089768 -1030999 -961577 -879447 -783575 -675673 
2121.452 -561060 -449925 -354389 -284561 -248434 -249096 -284561 -347403 
2125.310 -426391 -505099 -564866 -588823 -563310 -484613 -359554 -204090 
2129.167 -37539 122745 265783 390096 497129 587200 654260 685388 664912 
2133.507 584115 447540 275994 101070 -45258 -144109 -197301 -225816 -258368 
2137.846 -317606 -410038 -521481 -625881 -694629 -713650 -686623 -632598 
2141.704 -577605 -542893 -536837 -555104 -584819 -614003 -637825 -660058 
2145.561 -687285 -725096 -771866 -816879 -844758 -842046 -798723 -715304 
2149.419 -599709 -464555 -331015 -223696 -169712 -196705 -322539 -549511 
2153.276 -855869 -1201037 -1523412 -1762001 -1875539 -1852939 -1718901 
2156.651 -1525921 -1336820 -1196411 -1120405 -1089471 -1062699 -998835 
2160.027 -879182 -714179 -540113 -398618 -323565 -329161 -406265 -526048 
2163.884 -651224 -753245 -813440 -831166 -821113 -804709 -801468 -822899 
2167.741 -871279 -940914 -1026603 -1128238 -1252679 -1414472 -1626614 
2171.117 -1891242 -2194612 -2504951 -2778428 -2967034 -3034491 -2964566 
2174.492 -2767267 -2474412 -2128904 -1777774 -1459418 -1202953 -1026405 
2177.867 -937971 -934731 -1003629 -1123512 -1264275 -1397298 -1502610 
2181.242 -1572276 -1614466 -1645562 -1679328 -1714445 -1730188 -1690220 
2184.618 -1560490 -1320304 -981215 -583595 -192764 124270 319960 375504 
2188.475 307526 162088 132 -123771 -171368 -129501 -12060 148200 307625 
2192.815 424090 463461 413809 283090 102462 -85113 -236313 -320155 -326876 
2197.154 -273567 -196804 -137219 -130660 -194817 -325320 -502418 -699823 
2201.012 -893897 -1069574 -1222183 -1351321 -1457272 -1539359 -1594230 
2204.387 -1621828 -1625228 -1610934 -1583039 -1538072 -1460343 -1327274 
2207.762 -1117365 -822700 -458399 -65865 293932 561819 689801 659337 485187 
2212.102 211546 -103697 -406165 -655625 -837681 -958073 -1036784 -1096345 
2215.959 -1153354 -1213923 -1272964 -1318949 -1339298 -1326646 -1282710 
2219.334 -1216137 -1141325 -1072680 -1017843 -977645 -946237 -916315 -885498 
2223.192 -860267 -852992 -878885 -945311 -1043494 -1147405 -1221324 -1229816 
2227.049 -1153717 -1000753 -805304 -621084 -498381 -470778 -542032 -686259 
2230.907 -855208 -998670 -1081010 -1089867 -1036222 -947229 -852662 -772164 
2234.764 -711599 -663366 -613474 -547823 -459557 -349026 -223994 -95183 
2238.622 26806 132423 214164 266545 285609 269629 219038 138489 34659 -82727 
2243.443 -203428 -318367 -418645 -495700 -543323 -556096 -532667 -477133 
2247.301 -400670 -317573 -245288 -198096 -182927 -198692 -235651 -278336 
2251.158 -309494 -315023 -285687 -218828 -118073 8813 150719 295589 431486 
2255.498 547918 636474 691793 710875 693983 644172 567725 473644 375305 
2259.837 288229 229082 213601 250665 340287 470692 621110 762885 869744 
2264.177 923100 917057 859485 770220 674868 594997 545032 527781 535312 
2268.517 553359 566298 562483 535776 487211 421669 346521 268634 192617 
2272.856 120657 53746 -8184 -64772 -114661 -155238 -183921 -197169 -192797 
2277.196 -170408 -130859 -77228 -13452 57425 132755 212043 295258 382104 
2281.535 468502 546293 602960 624263 597220 516435 387111 227160 62197 
2285.875 -78619 -170706 -203064 -178423 -113767 -31277 46854 107533 150620 
2290.215 186253 229480 293268 381805 489400 601301 699890 771515 809224 
2294.554 814236 792759 752130 697434 629738 548349 453941 351396 251394 
2298.894 167359 112272 94110 112637 158575 217480 274933 319065 345195 
2303.233 354878 354015 349074 344763 342873 342575 342542 342873 345725 
2307.573 355342 375803 408303 449596 491291 521975 529340 505820 450890 
2311.913 373017 287466 213236 166696 156288 180816 229281 286306 335910 
2316.252 367877 379948 376963 367180 357232 349273 339823 321552 289091 
2320.592 243006 191921 149791 130501 142632 184363 243769 302751 345294 
2324.931 360648 347052 310543 262136 212838 171635 143460 129208 128479 
2329.271 139947 162784 196230 238464 286040 335081 381142 421669 456794 
2333.611 488106 517729 546757 574493 597718 611986 612782 596524 561587 
2337.950 508374 440442 363533 285808 216485 163282 129672 113664 106837 
2342.290 98319 78402 44302 2915 -30184 -38731 -10503 53713 140444 228917 
2347.112 299668 340187 346819 323475 277818 219270 154266 86223 14479 -63115 
2351.933 -148249 -237473 -320619 -382529 -407721 -386237 -317341 -210880 
2355.791 -82760 48643 170839 279641 379053 475966 576517 680675 779415 
2360.130 856464 892619 870541 779381 618887 399946 144687 -121021 -369684 
2364.470 -579822 -740444 -849256 -910496 -930995 -914100 -859871 -764888 
2368.327 -627039 -450190 -246414 -36379 155227 305371 398619 431918 414505 
2372.667 365224 304674 253151 223314 218540 235116 264755 297413 324901 
2377.007 343105 351628 352490 349671 346587 345626 347648 352788 360183 
2381.346 369867 381805 396430 414107 434670 456959 479250 499351 514777 
2385.686 523734 524397 516601 500081 476297 447606 417756 391787 375040 
2390.025 372188 386116 416562 459314 508208 555283 593305 618190 628643 
2394.365 626021 613611 594632 571241 544335 514345 481273 446810 413013 
2398.705 382435 357066 337700 323641 312699 303514 294562 285875 278183 
2403.044 271983 267241 263429 259417 254809 250432 248675 252123 263263 
2407.384 282990 309549 339657 368971 393976 412549 424422 430259 431122 
2411.723 426876 416329 397757 370430 335346 296617 260379 233690 222253 
2416.063 228187 249073 277984 305868 323011 321817 299436 257527 201965 
2420.403 141273 85394 42347 18489 17693 40690 85129 146808 219137 294263 
2425.224 364262 421835 461636 481804 482732 467375 439977 404887 366418 
2429.564 328449 295523 272613 264755 275630 306001 352158 405716 455765 
2433.904 491888 506716 498986 473611 439380 404821 376466 355872 340055 
2438.243 324569 306399 285742 266744 255405 256798 272646 300132 332561 
2442.583 361974 382369 390494 387111 375471 360283 345891 335678 332793 
2446.922 339193 356237 384359 421769 464588 508208 548051 582091 611090 
2451.262 638066 666737 698496 731088 758205 772842 768129 741576 695476 
2455.602 635810 569616 502171 436163 371326 307692 247581 195667 159702 
2459.941 146410 157879 189568 230873 268535 290649 291942 275033 250333 
2464.281 231105 228618 248642 288361 338529 385619 417855 427606 414903 
2468.620 386249 354878 336142 343669 387244 467872 577910 700123 812875 
2472.960 893715 925126 900090 823498 711705 585707 468270 375637 313760 
2477.300 279409 262202 249769 231105 201634 161359 114658 66902 23028 -13816 
2482.121 -41945 -60266 -67190 -60100 -36611 4870 64317 139450 226364 319894 
2486.943 414505 505090 586470 653165 699990 721197 712303 670653 597121 
2491.283 496631 378356 256002 144455 59247 12491 10735 52951 129308 224673 
2496.104 319198 394838 439281 448435 426876 386150 340884 302652 277752 
2500.444 265120 258820 250466 234552 210783 184993 167292 167756 193976 
2504.784 247084 322082 408834 496465 574626 636308 678352 699890 700886 
2509.123 681969 643342 586006 513151 430657 346223 268833 205910 161326 
2513.463 135473 124436 122546 124171 125529 126027 127518 133849 148631 
2517.802 174154 210120 253814 300828 346123 385619 417324 442034 463494 
2522.142 486414 515009 550771 591314 629273 654426 656848 629704 572768 
2526.482 492286 400974 313726 242343 193711 167856 158542 157415 158475 
2530.821 159138 162486 174054 198816 237669 286637 337104 379583 408270 
2535.161 422332 426909 431619 446047 475501 519587 571673 621542 658972 
2539.500 676361 671184 644703 601235 545131 480543 410525 338761 270292 
2543.840 212474 173325 159735 173657 211247 262268 313528 351893 369900 
2548.180 368341 356867 349804 362107 403096 472284 558833 644039 708353 
2552.519 735900 720932 669359 597685 527648 480178 471388 507644 585243 
2556.859 690963 807896 915862 996455 1036807 1030098 977260 887374 776394 
2561.198 663485 567957 506251 485751 505555 555615 620778 683562 729329 
2565.538 749575 742771 713763 670819 624097 581460 547984 525392 512620 
2569.878 506716 504460 503498 502934 503631 507877 518061 535278 558933 
2574.217 585541 609497 624694 626751 614242 589689 559165 529705 507976 
2578.557 498224 501209 515142 537103 564374 595030 627913 661726 693817 
2582.896 720965 739086 745160 739086 723454 703541 685122 672943 668994 
2587.236 672213 678949 685288 688275 686483 679945 669890 656550 639427 
2591.576 617494 590186 558103 524629 494740 474738 469763 483263 514644 
2595.915 560061 613777 668031 715688 751799 773539 780643 775564 761955 
2600.255 743766 724848 707723 693817 683728 678418 678651 686018 701749 
2604.594 725346 753790 781705 801555 806070 790900 756976 710709 663817 
2608.934 630036 621641 645698 701019 779182 866424 945647 1001902 1025748 
2613.274 1013824 969988 904141 829573 759333 705731 677356 677522 705200 
2617.613 754852 818021 884120 944186 990843 1020467 1033187 1032589 1023556 
2621.953 1011267 999477 989647 981345 972744 962383 949930 936482 924661 
2626.292 917787 918452 927649 944916 968427 995459 1024153 1052983 1080983 
2630.632 1106993 1129781 1146491 1154000 1149581 1132206 1103206 1066966 
2634.490 1029667 998547 979651 976928 991009 1019902 1058762 1101977 1143502 
2638.829 1178452 1203404 1216960 1220216 1216130 1209384 1205331 1207989 
2642.687 1219984 1240618 1266903 1293921 1317052 1333137 1341746 1344670 
2646.544 1345269 1346399 1349257 1352847 1354376 1351285 1342344 1329116 
2650.401 1315224 1306051 1305287 1315024 1333270 1355605 1376080 1389742 
2654.259 1393997 1389908 1381000 1372590 1369266 1374086 1387216 1406362 
2658.116 1427737 1446919 1460117 1465037 1460749 1448082 1429100 1407227 
2661.974 1386750 1372225 1368203 1377975 1403105 1442398 1492134 1546465 
2665.831 1597942 1640313 1668418 1680492 1677265 1662863 1642641 1622087 
2669.688 1605691 1596379 1594849 1600337 1611611 1627242 1646399 1669083 
2673.546 1694961 1723369 1752844 1780391 1802682 1816390 1819085 1810601 
2677.403 1792734 1769711 1746124 1726696 1714487 1710163 1711959 1716250 
2681.261 1718845 1716450 1707701 1693664 1677698 1663961 1656144 1656045 
2685.118 1663229 1674737 1686313 1694130 1695560 1690271 1680492 1669815 
2688.976 1662065 1660269 1665657 1677265 1692799 1708832 1722305 1730488 
2692.833 1732152 1726696 1714920 1698188 1678296 1657774 1639082 1624415 
2696.690 1615502 1613240 1617198 1625978 1637885 1650656 1662431 1672043 
2700.548 1678762 1682321 1682521 1679461 1673008 1663695 1652652 1641709 
2704.405 1633029 1628938 1630468 1637452 1647995 1658739 1665856 1666189 
2708.263 1658107 1642242 1621455 1599572 1580716 1567747 1561595 1561362 
2712.120 1564986 1569875 1574431 1577989 1581082 1584740 1589728 1595847 
2715.978 1602365 1608052 1612043 1614670 1617530 1622985 1633095 1649060 
2719.835 1670047 1693531 1715718 1732983 1743196 1746024 1743695 1739570 
2723.692 1738106 1743096 1756803 1779459 1809636 1843841 1877717 1906569 
2727.550 1926105 1933560 1927669 1909565 1882043 1849132 1816058 1787045 
2731.407 1766184 1756004 1757302 1769744 1791669 1819951 1850263 1878049 
2735.265 1898848 1909531 1909731 1901411 1889730 1879980 1877384 1884139 
2739.122 1899181 1917618 1932894 1939584 1933893 1916021 1889131 1858349 
2742.979 1828169 1801185 1778095 1757468 1737907 1719045 1701847 1688342 
2746.837 1680725 1679294 1682587 1687776 1691934 1693730 1694362 1697556 
2750.694 1708500 1731153 1767316 1814993 1869630 1924441 1973267 2012179 
2754.552 2039476 2056154 2064644 2068140 2068439 2067274 2065310 2062480 
2758.409 2058651 2053059 2045102 2033750 2018870 2000894 1981988 1965312 
2762.267 1954894 1953763 1963348 1981788 2004290 2024895 2037246 2037345 
2766.124 2024795 2003025 1977827 1955859 1942513 1940350 1948171 1962882 
2769.981 1979957 1995768 2008717 2019303 2029922 2043171 2060615 2082023 
2773.839 2105362 2127437 2145484 2158238 2167228 2176120 2189940 2213518 
2777.696 2249520 2297617 2353714 2410952 2461799 2498955 2518184 2518784 
2781.554 2503887 2479160 2452102 2429677 2416816 2416049 2427211 2447870 
2785.411 2474394 2503387 2532481 2560511 2588142 2616775 2648144 2683249 
2789.269 2721791 2762237 2802587 2840573 2874926 2905546 2933867 2961422 
2793.126 2990247 3020675 3052340 3083439 3111771 3135900 3155625 3172180 
2796.983 3187967 3206225 3229725 3260270 3298262 3342969 3392356 3443519 
2800.841 3493986 3541085 3583578 3621732 3657417 3694075 3735982 3786583 
2804.698 3847486 3917759 3993127 4068106 4137043 4196457 4245907 4288670 
2808.556 4329932 4375348 4428802 4491235 4561077 4634948 4709938 4784672 
2812.413 4859554 4936626 5017601 5103083 5192237 5282650 5372042 5459440 
2816.271 5546015 5634824 5729996 5834860 5951407 6079172 6215917 6358857 
2820.128 6505175 6652618 6800044 6946274 7090701 7233256 7374611 7517630 
2823.985 7666867 7828437 8009067 8213678 8444670 8700901 8978051 9269494 
2827.843 9568989 9871201 10173385 10475644 10780627 11092555 11417190 
2831.218 11760928 12129640 12528574 12961158 13428209 13928368 14457946 
2834.593 15013346 15592089 16195197 16827628 17499168 18222330 19011152 
2837.969 19879826 20840266 21902908 23076080 24366594 25779992 27320180 
2841.344 28989666 30787150 32707732 34743508 36880952 39103644 41392044 
2844.719 43721872 46066964 48397668 50680624 52882708 54968704 56903148 
2848.094 58654148 60190404 61485720 62519728 63278176 63754320 63948376 
2851.469 63866996 63521416 62926748 62102388 61069564 59853252 58481508 
2854.845 56982020 55384508 53716692 52004156 50270820 48536180 46816564 
2858.220 45125128 43470684 41859876 40298504 38791920 37347956 35975832 
2861.595 34685148 33484820 32380820 31374280 30463172 29642296 28905796 
2864.970 28248648 27667492 27159732 26722574 26351548 26038744 25773698 
2868.346 25544728 25338284 25142086 24945312 24737786 24511640 24260698 
2871.721 23981502 23673968 23342804 22996278 22644094 22297148 21963060 
2875.096 21646328 21349458 21072996 20819132 20592548 20399698 20248312 
2878.471 20144700 20091912 20089136 20132204 20216410 20336742 20490242 
2881.847 20675974 20893248 21140964 21417120 21719054 22044344 22392834 
2885.222 22766182 23167044 23597486 24057036 24541404 25043126 25554004 
2888.597 26068228 26583236 27101396 27628188 28170118 28731026 29311304 
2891.972 29907516 30514070 31124358 31733830 32339484 32941226 33540048 
2895.348 34138332 34739416 35347404 35967264 36604772 37263976 37947104 
2898.723 38652640 39376012 40109680 40845824 41579092 42307688 43034840 
2902.098 43767828 44516884 45292132 46102036 46951292 47839644 48762888 
2905.473 49713028 50682336 51664076 52655860 53660040 54683188 55732716 
2908.849 56814392 57929392 59073120 60236728 61409224 62582560 63752016 
2912.224 64917320 66079624 67237848 68385400 69509248 70590008 71607496 
2915.599 72541960 73377176 74100800 74701544 75167688 75486632 75644912 
2918.974 75632328 75443976 75082048 74553912 73870024 73041504 72077880 
2922.350 70988928 69787096 68488936 67117952 65702400 64269328 62843256 
2925.725 61440408 60067224 58721700 57397040 56084592 54777452 53471984 
2929.100 52168632 50870712 49583344 48312224 47063128 45840704 44649172 
2932.475 43491888 42370736 41287232 40241396 39232520 38259344 37319468 
2935.851 36410696 35530508 34676788 33847632 33042684 32262244 31507860 
2939.226 30781884 30086452 29423652 28794750 28200100 27639984 27114092 
2942.601 26621774 26162038 25732914 25331084 24952366 24592770 24248820 
2945.976 23920230 23609590 23323332 23069266 22854882 22684798 22558336 
2949.352 22469068 22405182 22352890 22297392 22226836 22134152 22016702 
2952.727 21876320 21716686 21542416 21356418 21159158 20947906 20718162 
2956.102 20465060 20184754 19876426 19543120 19190814 18827686 18462200 
2959.477 18100096 17744056 17392724 17041848 16685436 16318239 15936777 
2962.853 15540402 15130665 14710244 14283037 13853275 13425270 13004208 
2966.228 12595559 12204641 11835933 11491353 11169823 10866810 10576501 
2969.603 10292628 10011585 9732996 9460240 9198484 8953088 8727471 8521334 
2973.460 8332148 8154995 7985307 7819934 7657324 7496931 7338215 7179624 
2977.318 7018364 6850970 6675733 6493235 6307586 6125175 5953321 5798459 
2981.175 5663390 5548029 5449139 5362783 5285233 5214202 5149150 5089841 
2985.033 5035132 4982977 4929488 4870812 4804036 4728863 4647239 4563554 
2988.890 4483233 4410358 4347837 4297070 4258020 4230884 4216163 4214891 
2992.748 4228073 4255711 4295999 4345126 4398710 4452000 4501513 4545842 
2996.605 4585319 4620916 4653669 4683544 4709067 4728461 4739080 4739582 
3000.462 4729299 4709101 4679927 4643020 4599551 4549893 4494884 4435731 
3004.320 4373440 4308782 4242160 4172068 4095867 4010482 3912944 3801958 
3008.177 3678569 3546830 3412293 3281269 3159263 3049670 2953082 2867788 
3012.035 2790715 2718790 2649844 2583542 2520850 2463798 2413884 2371571 
3015.892 2335758 2303779 2271902 2236664 2195734 2148648 2097071 2044236 
3019.750 1994270 1950900 1916587 1891760 1874755 1862143 1849598 1833460 
3023.607 1810801 1780324 1743396 1702978 1663129 1628406 1602798 1588797 
3027.464 1586303 1593020 1604394 1614338 1617032 1607919 1584972 1549258 
3031.322 1504968 1458156 1414806 1379703 1355439 1341413 1335231 1333370 
3035.179 1332705 1331143 1328252 1324829 1322170 1320874 1320707 1320574 
3039.037 1318215 1311368 1298141 1277471 1249059 1214136 1174066 1131343 
3042.894 1088690 1049063 1014920 987954 968028 953151 940433 926089 907660 
3047.234 884850 860348 839267 827415 830104 849459 883755 927749 973906 
3051.573 1014688 1043716 1057699 1056669 1042587 1018806 989049 956439 
3055.431 923333 891623 862672 837242 815464 797705 783099 771382 762420 
3059.770 757043 756147 760262 768959 780012 789672 793290 786883 768395 
3064.110 738522 700454 659204 620812 589788 569616 562250 567957 585641 
3068.449 613545 648619 686781 723819 755549 779050 793290 799663 800891 
3072.789 800228 799862 800792 802053 801522 797439 788410 774004 753823 
3077.129 727271 693518 651738 602330 548051 494044 447506 415036 401107 
3081.468 405683 424720 450856 476032 493911 501275 498555 488471 474772 
3085.808 460907 449231 441403 438352 441005 449729 463494 480112 495769 
3090.147 506848 510829 507644 499816 491390 486182 485817 489168 493115 
3094.487 494143 490793 484855 480775 484325 499617 527151 563445 602695 
3098.827 638332 666107 684956 696538 703840 709183 712834 713132 708088 
3103.166 696240 678684 658541 640124 627017 620480 619252 620015 618323 
3107.506 610658 594865 570744 539492 503730 466811 432680 405783 390859 
3111.845 391787 410127 444521 490130 539060 582422 612019 622039 610758 
3116.185 580399 536871 487078 439679 401438 377328 369535 377428 397392 
3120.525 423858 451387 475335 492982 504161 509933 511692 509005 499617 
3124.864 479813 446346 398520 339093 275331 217214 174286 153371 156951 
3129.204 182905 225933 279509 338065 396895 452946 503365 544866 573896 
3133.543 587267 583385 563511 530999 492054 453344 421304 400941 395137 
3137.883 404688 428203 462067 500247 535146 559132 565236 550639 516933 
3142.223 471156 423195 384160 362438 361443 378820 407673 439712 467109 
3146.562 484988 492286 490063 481008 466778 447971 424919 397193 365887 
3150.902 333788 305072 284946 277752 287433 315252 360913 420608 488604 
3155.241 556710 614806 653961 667401 652800 613578 558734 499982 449198 
3159.581 415235 401272 404887 419049 435632 447540 451288 447374 439214 
3163.921 431387 427540 429397 436163 445450 453974 458717 457490 449297 
3168.260 434206 413643 390759 369104 353120 346753 352225 369469 396066 
3172.600 427440 458684 485917 507412 523800 537402 550937 566331 584081 
3176.939 603027 621641 638863 654890 670388 686051 701649 714858 722226 
3181.279 719637 704968 679016 646163 613014 587499 575057 577446 592177 
3185.619 613412 633686 646362 648088 638830 621542 601401 582953 570246 
3189.958 564440 564639 567957 570876 569383 560757 544202 521644 497062 
3194.298 476397 465849 469332 487973 518890 555582 589821 614308 624661 
3198.637 620944 607108 589456 574626 566895 567028 572502 578474 579105 
3202.977 569085 545828 508971 461338 408403 358028 318700 298640 303613 
3207.317 335081 389599 458684 531463 595827 642977 668596 673938 663518 
3211.656 643774 620115 595827 571872 547752 523468 499683 477757 458618 
3215.996 441967 425649 407342 385420 361377 340486 331035 340652 373282 
3220.335 426976 492352 555814 602761 623632 615337 583318 539160 497228 
3224.675 469265 462532 477657 510132 551534 592774 626320 646893 652103 
3229.015 642281 620214 590153 557108 527084 505057 493978 494873 505820 
3233.354 523302 543373 562383 578706 591779 602065 609630 614673 616067 
3237.694 612516 603790 590949 576815 565236 560923 567293 585973 616399 
3242.033 655089 697733 738157 770984 791862 798402 790701 772212 747915 
3246.373 723388 703740 692290 689038 692091 698330 703972 706860 706660 
3250.713 704603 702446 701749 702479 703176 702114 697501 689436 680244 
3255.052 673972 675199 687677 712468 748114 790435 833756 871935 900156 
3259.392 914932 915596 902846 879140 847633 812477 777456 746222 722027 
3263.731 707357 704005 712800 733577 764445 802319 842952 880733 910084 
3268.071 927018 929675 919282 900721 881165 867719 866191 878276 901285 
3272.411 928214 950395 960557 954148 932929 902946 873628 854538 851916 
3276.750 867951 898828 937212 973906 1001835 1015983 1015585 1003164 983205 
3281.090 959959 936913 916194 898994 886378 879903 881829 894744 920079 
3285.429 956771 1001636 1048831 1092277 1126825 1149847 1162538 1169614 
3289.287 1176525 1188685 1208886 1236365 1267036 1295150 1315955 1327055 
3293.144 1329448 1327554 1327321 1333869 1349656 1373155 1399880 1422784 
3297.002 1434485 1430530 1409487 1374651 1331675 1289002 1254442 1232909 
3300.859 1226729 1234072 1250122 1268000 1281525 1285912 1279099 1262749 
3304.717 1241017 1219917 1205696 1203769 1217492 1247896 1293156 1349024 
3308.574 1409587 1467431 1515142 1546531 1557671 1547828 1520030 1480032 
3312.431 1435117 1393531 1360857 1340316 1331376 1331409 1336827 1344172 
3316.289 1352182 1361023 1371959 1386617 1405398 1427272 1450476 1472285 
3320.146 1491003 1505998 1517636 1526813 1534361 1540413 1544403 1545068 
3324.004 1542208 1536256 1529340 1524685 1525317 1533563 1549757 1571903 
3327.861 1595913 1617165 1630934 1634958 1629304 1617797 1606356 1601866 
3331.719 1610247 1634293 1673241 1722039 1773404 1819917 1855621 1878183 
3335.576 1889031 1892659 1893857 1896685 1902842 1910962 1918717 1923409 
3339.433 1923842 1920514 1915056 1909265 1904473 1900279 1895620 1889530 
3343.291 1881643 1872925 1865105 1859048 1854922 1850729 1844241 1834158 
3347.148 1821182 1809869 1806775 1818853 1850696 1901844 1966510 2033883 
3351.006 2091811 2130534 2144552 2135229 2109657 2077961 2050495 2035115 
3354.863 2035481 2051028 2077894 2110922 2145551 2178551 2208489 2235299 
3358.720 2259379 2281262 2300315 2315571 2325531 2328996 2324932 2313439 
3362.578 2295785 2273801 2249920 2227139 2208222 2195767 2191605 2196700 
3366.435 2210987 2233334 2261977 2294153 2327164 2358978 2388629 2416516 
3370.293 2444171 2473228 2504587 2537580 2569510 2595975 2613209 2618609 
3374.150 2612409 2598309 2582842 2572576 2573743 2589809 2620375 2662112 
3378.008 2710255 2759036 2803454 2839839 2865420 2878562 2878395 2865053 
3381.865 2840373 2807389 2770940 2736328 2708188 2689984 2682249 2684016 
3385.722 2692584 2705587 2721057 2738462 2757902 2779444 2802954 2826932 
3389.580 2849944 2870690 2888868 2904946 2920023 2935168 2949846 2962923 
3393.437 2971864 2974199 2968828 2956318 2939171 2920924 2906013 2897407 
3397.295 2897474 2906513 2923659 2947344 2975600 3006728 3039126 3071393 
3401.152 3102594 3131628 3157527 3178755 3193708 3200651 3197814 3184863 
3405.010 3163902 3139438 3118313 3108267 3116076 3144578 3192273 3252058 
3408.867 3313354 3365308 3399102 3410857 3402441 3380702 3354322 3332519 
3412.724 3322001 3325206 3341434 3367044 3396764 3424917 3446725 3459049 
3416.582 3460585 3452102 3436572 3418939 3404645 3398968 3404913 3423013 
3420.439 3450399 3482062 3512958 3537844 3553445 3557520 3548801 3525952 
3424.297 3489009 3439244 3380301 3319697 3267147 3231795 3220979 3235767 
3428.154 3270987 3315557 3357494 3386479 3398334 3396230 3388549 3385711 
3432.011 3395929 3420976 3456911 3494921 3524616 3538145 3532767 3510520 
3435.869 3477820 3441982 3410256 3386746 3373790 3371118 3378030 3392623 
3439.726 3413027 3436405 3459517 3478354 3489009 3488307 3474012 3444888 
3443.584 3400037 3339798 3264610 3177486 3084540 2995885 2924660 2882564 
3447.441 2877294 2907681 2964358 3030718 3090013 3128425 3139905 3126589 
3451.299 3098423 3069591 3051839 3052974 3073161 3106232 3142008 3171412 
3455.156 3187967 3189769 3178621 3157661 3129559 3095086 3053274 3003025 
3459.013 2944975 2882297 2821363 2768840 2730960 2710655 2706887 2715123 
3462.871 2729360 2743997 2755235 2762237 2765838 2767272 2767239 2765071 
3466.728 2759369 2748566 2732261 2711288 2687183 2661579 2634976 2605809 
3470.586 2571476 2529048 2476961 2416249 2350583 2286591 2231302 2190672 
3474.443 2168361 2164465 2176020 2197732 2223709 2248887 2269005 2281695 
3478.301 2285592 2281095 2269205 2251952 2232501 2213584 2197666 2185277 
3482.158 2175320 2164231 2148281 2123441 2087782 2041606 1987647 1930398 
3486.015 1875021 1826339 1787577 1759730 1741899 1731453 1725132 1719544 
3489.873 1712059 1700982 1685581 1666522 1645102 1624348 1607620 1598873 
3493.730 1601168 1615768 1641211 1673606 1706471 1732118 1744793 1741366 
3497.588 1722471 1693065 1660535 1632863 1615967 1613606 1624980 1645568 
3501.445 1668185 1684882 1688708 1675835 1646898 1606123 1560431 1516938 
3505.302 1481727 1457757 1445523 1442364 1443993 1444791 1439439 1425078 
3509.160 1401941 1373986 1347263 1328617 1322236 1328950 1344970 1364015 
3513.017 1379205 1384091 1376114 1356536 1330246 1303658 1284150 1277471 
3516.875 1286244 1310438 1346798 1389808 1431693 1464572 1480663 1474081 
3520.732 1442198 1386750 1314625 1235966 1163867 1109484 1078525 1070354 
3524.590 1077761 1090550 1098190 1093406 1073975 1041789 1001769 959527 
3528.447 919813 884751 854937 830104 809954 794983 785290 780344 778485 
3532.787 776560 771681 761059 744098 722624 699757 679945 667036 663087 
3537.126 668629 682102 701782 725479 751334 777390 801589 821108 833192 
3541.466 836312 829839 815066 794916 773672 755085 742173 736132 736066 
3545.805 739186 742107 741576 735668 723587 706594 687080 668496 654558 
3550.145 649116 654160 669657 691793 714128 728499 728565 711572 680078 
3554.485 640124 600837 570644 554454 552895 561388 571640 572768 556113 
3558.824 516668 455600 380014 301226 232398 183999 161856 166199 192418 
3563.164 231834 274635 311770 335910 343470 335810 319662 304542 300729 
3567.503 313030 338098 366617 387410 391920 376068 341116 292970 241581 
3571.843 197059 168353 159801 170143 192617 217314 235978 243305 239459 
3576.183 229116 219435 215855 221358 235249 253516 272380 289290 304111 
3580.522 318899 336407 357696 381739 405186 424389 435566 437357 429961 
3584.862 414771 393545 366948 335313 299436 262136 228585 203987 191855 
3589.201 190993 197258 203523 203159 191855 168121 135042 99612 71674 59579 
3594.023 68427 96629 137594 180452 215623 236111 238531 222585 189534 141173 
3598.845 80324 10205 -63778 -134370 -192764 -231114 -244195 -230882 -194519 
3603.185 -140631 -77228 -11397 50234 102097 140643 163149 168784 158277 
3607.524 133948 99811 60109 19516 -18687 -52249 -79812 -100119 -112806 
3611.864 -117808 -116715 -113403 -113005 -119928 -136457 -161233 -189915 
3615.721 -216212 -233929 -238400 -227538 -202799 -169778 -136822 -110355 
3619.579 -93527 -84549 -78421 -70105 -56423 -37340 -15373 6262 23426 32373 
3624.400 30683 17097 -7918 -42707 -84284 -127646 -166764 -193327 -200050 
3628.740 -185113 -155635 -123704 -98860 -83920 -77129 -73915 -69840 -62651 
3633.080 -51818 -39759 -30283 -27897 -34226 -48803 -68085 -86603 -99092 
3637.419 -101245 -91672 -72259 -48505 -26904 -14744 -17925 -38500 -74743 
3641.759 -120988 -168188 -206044 -226544 -224888 -200514 -156596 -99655 
3645.616 -38400 18224 62263 89338 101335 106008 113134 127518 147140 162851 
3650.438 165801 152078 125695 93978 63953 39596 21703 7157 -8747 -31774 
3655.260 -65865 -109957 -156993 -197102 -222305 -230584 -227173 -221113 
3659.117 -222570 -239592 -275654 -327373 -385376 -435295 -463099 -458862 
3662.975 -420300 -353396 -271316 -190942 -126354 -87995 -78056 -92102 
3666.832 -119729 -148315 -164876 -159577 -130097 -84218 -40487 -18389 -29885 
3671.172 -73352 -139538 -216675 -295521 -369188 -429436 -466012 -466012 
3675.029 -421227 -337935 -239691 -152919 -92666 -62552 -59471 -77493 -109593 
3679.369 -147984 -184683 -212767 -228465 -231214 -222868 -206740 -186537 
3683.226 -165804 -146891 -131754 -121386 -116980 -119729 -130959 -152025 
3687.083 -183225 -222967 -266448 -306216 -335187 -348860 -347039 -332935 
3690.941 -311414 -286779 -262441 -240618 -222703 -209588 -201905 -200679 
3694.798 -205846 -217602 -235121 -256646 -279726 -301348 -319360 -330916 
3698.656 -334922 -330916 -318864 -299759 -274826 -245884 -214191 -180708 
3702.513 -145930 -110819 -77460 -48936 -29090 -21470 -27235 -44728 -68913 
3706.853 -92301 -106413 -105353 -88359 -61028 -34888 -24551 -41349 -88326 
3711.192 -154575 -220749 -267110 -281481 -264064 -223133 -170408 -115059 
3715.050 -63612 -19780 15308 40491 54177 55337 43142 19118 -13419 -48107 
3719.872 -78851 -99490 -106678 -99688 -81899 -59173 -38102 -24684 -22928 
3724.211 -34259 -58278 -92964 -134702 -178357 -218993 -252838 -278402 
3728.069 -297110 -312010 -326446 -343563 -364950 -390640 -418182 -443372 
3731.926 -461212 -466872 -456711 -428708 -381337 -315122 -234194 -149243 
3735.783 -76367 -30449 -19349 -40024 -83290 -136027 -185709 -222669 -240155 
3740.123 -236280 -214423 -181072 -143281 -108235 -80773 -63678 -57218 -58543 
3744.463 -63612 -68482 -72159 -76300 -83290 -95548 -115390 -144407 -183921 
3748.802 -232406 -284759 -332041 -362004 -364487 -336114 -281084 -210648 
3752.660 -137484 -73054 -22928 11066 29887 36183 32837 22763 8283 -8449 
3757.481 -26108 -43966 -62121 -80276 -97535 -111547 -119895 -120028 -111647 
3761.821 -96276 -77924 -61823 -54601 -62651 -90280 -137285 -197003 -258633 
3766.161 -310586 -343530 -353396 -339226 -302507 -245586 -173256 -92036 
3770.018 -10669 61898 119100 157812 178264 182805 175215 159735 140179 
3774.358 119597 99811 80788 62097 42844 23260 4473 -10669 -19780 -21072 
3779.179 -15373 -6096 1491 3379 -2683 -16367 -35352 -56224 -75108 -88061 
3784.001 -90910 -82164 -61492 -32006 1623 33499 57789 69553 66074 46688 
3788.823 13916 -27632 -71795 -112243 -143546 -162392 -168023 -162160 -148183 
3793.163 -130396 -113171 -99688 -91870 -89518 -89750 -87630 -77592 -55694 
3797.502 -21470 21902 68924 111874 142135 150355 129606 79727 12591 -51652 
3802.324 -95084 -110587 -101875 -77758 -48107 -20443 -397 8018 5036 -5798 
3807.146 -18852 -28925 -33961 -34855 -33861 -32304 -31012 -28825 -24551 
3811.485 -18024 -10304 -4208 -3479 -11199 -28163 -51984 -74942 -86504 -78123 
3816.307 -48604 -5500 39464 76877 102793 117310 124071 127982 132854 138522 
3821.129 140013 129573 103025 61832 10834 -44331 -99125 -150170 -196109 
3825.469 -236479 -271614 -302342 -329624 -353297 -373326 -388951 -399015 
3829.326 -402226 -396433 -379417 -349622 -307573 -256448 -202600 -153383 
3833.183 -114959 -91009 -81800 -84384 -92831 -101312 -104260 -98496 -84748 
3837.523 -66196 -47047 -30117 -15208 -66 18190 41253 68791 98286 126159 
3842.345 148333 161160 162088 150852 128943 99479 66538 33499 3180 -22629 
3847.167 -43800 -60730 -74644 -87034 -99390 -111879 -124036 -133907 -137881 
3851.506 -130694 -105850 -58179 10636 88079 155095 197324 210352 196396 
3855.846 160995 110449 51891 -7024 -58345 -95779 -116218 -119564 -110057 
3860.185 -92964 -75108 -61856 -55860 -56622 -61658 -67356 -70768 -70934 
3864.525 -68449 -64341 -60100 -56622 -54601 -55197 -59272 -68813 -84582 
3868.865 -105717 -128375 -146891 -156828 -157656 -152919 -147156 -143546 
3872.722 -143115 -143910 -142254 -133609 -115854 -89618 -57815 -23756 10603 
3877.062 44368 78501 113465 149195 183700 213104 233127 241282 238730 229745 
3881.883 219767 212573 209755 210087 211214 210949 208131 203556 200043 
3886.223 199910 202827 206208 205877 197722 178761 148598 108759 65577 27767 
3891.045 3479 -1590 11563 36714 65345 90299 106505 111642 105445 88775 63588 
3896.349 32373 -762 -32105 -56854 -70967 -73451 -65368 -52249 -40951 -37704 
3901.170 -45623 -63215 -84185 -98926 -97668 -73650 -26705 35918 101368 
3905.510 157514 195899 213004 210518 193479 167955 139483 112007 87416 65444 
3910.332 45263 25977 7885 -7620 -18521 -23093 -21072 -13617 -2683 8681 17826 
3915.636 22730 22697 17428 7587 -5964 -22199 -39593 -56158 -69675 -78255 
3920.458 -80640 -76831 -68018 -55429 -40156 -23027 -3578 17892 40657 62793 
3925.279 81119 93116 97590 95933 90929 87250 88940 98684 116647 139781 
3930.101 163878 183369 194706 197258 193877 189336 188507 194772 208695 
3934.441 228817 251593 273939 292473 304343 307625 301326 285112 260246 
3938.780 228817 193347 156851 121917 90034 62296 39099 20742 7753 1722 3976 
3944.084 15672 36581 64914 96629 126988 150487 162983 162818 151150 132556 
3948.906 112670 96397 86057 81649 80423 79396 76513 70879 62926 54409 46091 
3954.210 38172 30153 21106 10271 -1491 -12325 -19879 -22166 -18422 -9310 
3959.032 2783 15440 26375 34195 39033 41817 43772 46191 50234 57093 67300 
3964.336 81583 99314 118868 137196 150786 156221 152377 140743 125529 112836 
3969.157 108262 114990 132490 156652 181015 199612 207534 203623 189568 
3973.497 169149 147206 127485 113101 105544 106207 114725 130501 151913 
3977.837 175811 198650 216485 226231 226961 219734 207800 195070 185424 
3982.176 181413 183634 190661 200109 208628 212507 209358 197092 175480 
3986.516 146013 111908 77209 46522 22896 7885 497 -1491 -728 994 4009 9277 
3992.302 18522 32174 48643 64549 76181 81053 79429 74723 72271 77805 94541 
3997.606 122679 158906 198385 235083 264390 283753 291942 
##END=
