##TITLE=trecemas_0 Sep 23 14:58:08 2026 (GMT+02:00)
##JCAMP-DX=5.01  $$ Nicolet v. 1
##DATATYPE=INFRARED SPECTRUM
##ORIGIN=Vojna akademija
##OWNER=Nicolet
##LONGDATE=2026/09/23
##TIME=14:58:41
##SPECTROMETER/DATA SYSTEM=Nicolet iS20
##DATA PROCESSING=
Ratio against background
%Transmittance->Absorbance
Truncated
ElementMultiply or ElementDivide
##COMMENTS=
Number of sample scans: 8
Collection length: 11,90 sec
Sample gain: 8,0
Background collected on: Wed Sep 23 14:48:02 2026 (GMT+02:00);
Number of background scans: 8
Background gain: 8,0
Sample spacing:  1,000
Number of scan points: 12415
Resolution points: 8286
Number of FFT points: 65536
Apodization: N-B strong;
Phase correction: Mertz;
Laser frequency: 15798,00 cm-1
Number of rejected sample scans: 0
Number of rejected background scans: 0
Bench serial number: BER2010005;
##RESOLUTION= 4,000
##XUNITS=1/CM
##YUNITS=ABSORBANCE
##FIRSTX=400.156891
##LASTX=4000.123047
##FIRSTY=0.007589
##MAXX=4000.123047
##MINX=400.156891
##MAXY=0.230731
##MINY=-0.003374
##XFACTOR=1.000000
##YFACTOR=1.000000E-009
##NPOINTS=7468
##DELTAX=0.482117
##ZPD=6100
##XYDATA=(X++(Y..Y))
400.157 7589309 7814334 8520252 9839713 11619874 13521618 15210406 16452292 
404.014 17197842 17541048 17634690 17590076 17428524 17112980 16627595 
407.389 16059985 15626572 15588860 16156644 17336720 18881428 20333652 
410.763 21221468 21246730 20375944 18853570 17109052 15621696 14712917 
414.138 14477300 14768379 15317001 15818758 16034508 15833706 15204710 
417.513 14279922 13342337 12801115 12991336 13988246 15556268 17329962 
420.888 18995920 20382542 21463384 22297706 22998444 23678900 24412436 
424.263 25185168 25893786 26379822 26509868 26228520 25585632 24718074 
427.638 23826342 23117418 22742020 22777008 23200596 23909762 24730350 
431.012 25459588 25893400 25851760 25231554 24016658 22294042 20229740 
434.387 18074050 16123459 14654275 13885637 13893197 14596326 15786011 
437.762 17213664 18648138 19900880 20852434 21432262 21621882 21454994 
441.137 21018914 20438212 19837892 19317340 18908732 18576790 18240990 
444.512 17827524 17300616 16680753 16031519 15439142 14981619 14701709 
447.886 14606710 14679911 14900926 15255567 15733099 16309809 16931934 
451.261 17520556 17989224 18280902 18403154 18430084 18473470 18624654 
454.636 18926694 19354616 19831996 20249736 20505178 20531542 20316220 
458.011 19901712 19368854 18810350 18310106 17949544 17807398 17941326 
461.386 18368586 19028320 19778900 20412652 20745792 20681394 20245118 
464.761 19561454 18800490 18109422 17552158 17099916 16661368 16152482 
468.135 15552524 14931891 14418245 14148796 14197988 14547774 15080749 
471.510 15627980 16013090 16112972 15895290 15400897 14710346 13903734 
474.885 13057027 12244753 11549433 11066144 10862392 10948693 11252989 
478.260 11645706 11983766 12179866 12242027 12265952 12384271 12693327 
481.635 13201554 13808328 14345225 14641698 14616167 14311630 13889468 
485.009 13548793 13457190 13674849 14142737 14714768 15221936 15531165 
488.384 15563446 15311785 14826179 14197236 13522985 12894629 12376123 
491.759 11986764 11692200 11408822 11033991 10478189 9712293 8787753 7833159 
495.616 7011899 6473762 6308426 6505915 6968900 7556165 8152632 8697757 
499.473 9193407 9671262 10147607 10588485 10911113 11012784 10837288 
502.848 10410342 9843984 9282491 8855110 8628260 8590205 8674026 8795631 
506.705 8895895 8961273 9024328 9135506 9336113 9633080 9998193 10376847 
510.562 10710049 10939587 11021450 10934082 10683017 10307150 9874082 
513.936 9478493 9215508 9156046 9323215 9675260 10115387 10524185 10820472 
517.793 10988486 11084975 11194234 11380929 11636959 11881902 11985606 
521.168 11836580 11389161 10684817 9835036 8987421 8277299 7779959 7505831 
525.025 7407404 7417549 7476334 7558491 7667643 7817573 8009539 8225463 
528.882 8429568 8585744 8665576 8656720 8562493 8399637 8196085 7989559 
532.739 7833193 7787988 7907523 8221208 8708169 9290447 9842086 10237667 
536.596 10384007 10258633 9913268 9458648 9019219 8686162 8498188 8434399 
540.453 8438961 8450920 8433892 8384335 8322352 8272740 8248999 8246129 
544.310 8248155 8238869 8214015 8183593 8165665 8175152 8216514 8283378 
548.167 8364911 8453961 8550192 8658715 8785387 8930832 9089692 9252603 
552.024 9409684 9550428 9658489 9708159 9665943 9498440 9194694 8782546 
555.881 8339308 7969884 7787752 7867067 8210031 8736701 9310351 9789621 
559.738 10070079 10129394 10024369 9866185 9761291 9774677 9901538 10080490 
563.594 10223996 10266470 10196790 10064043 9958695 9975036 10182306 
566.969 10596769 11184783 11875568 12593001 13268473 13855054 14328855 
570.344 14677785 14897086 14986250 14953291 14821447 14634261 14456781 
573.719 14360500 14411463 14651327 15080611 15651133 16272452 16840716 
577.094 17259622 17475502 17487818 17344824 17120424 16892214 16722314 
580.469 16637992 16634515 16686469 16770318 16877540 17020070 17218562 
583.843 17486232 17811956 18157858 18467076 18689404 18801874 18817514 
587.218 18778936 18739426 18739634 18788070 18860076 18909356 18892952 
590.593 18787828 18604490 18381930 18175236 18028388 17962528 17971300 
593.968 18031186 18113880 18198868 18277896 18351476 18421716 18484776 
597.343 18526096 18521704 18442356 18257750 17947092 17504584 16946232 
600.717 16308708 15650377 15041129 14545821 14218941 14087150 14143387 
604.092 14344437 14624049 14909704 15137424 15270907 15301866 15246301 
607.467 15132038 14990605 14846613 14712986 14591563 14475074 14349027 
610.842 14194942 13995809 13742284 13439247 13110024 12796235 12551970 
614.217 12426411 12452939 12634070 12937808 13296862 13628074 13853822 
617.592 13916153 13796767 13518131 13138847 12732154 12373975 12121838 
620.966 11999980 11998652 12077104 12182218 12262408 12290902 12273927 
624.341 12247615 12258385 12342270 12503781 12712501 12908828 13029678 
627.716 13035174 12918044 12705336 12438652 12157308 11879110 11599693 
631.091 11303623 10984238 10658737 10372266 10179152 10125223 10221248 
634.466 10436000 10702985 10949271 11126139 11225073 11279751 11347597 
637.840 11486148 11724367 12056323 12444550 12840497 13200256 13500119 
641.215 13739001 13931207 14093858 14238456 14366390 14472539 14551884 
644.590 14605853 14647044 14697801 14787165 14940739 15175166 15489924 
647.965 15863398 16252156 16601568 16861110 16998326 17012730 16935758 
651.340 16822324 16726445 16686331 16709160 16772868 16839132 16874474 
654.715 16870892 16850326 16856768 16936138 17117874 17399484 17747854 
658.089 18109734 18432538 18675466 18815196 18847550 18779488 18627560 
661.464 18416048 18184944 17985562 17873580 17896678 18075502 18399074 
664.839 18830940 19329500 19856690 20392300 20936014 21494020 22053094 
668.214 22556974 22927984 23122766 23159670 23097500 23002986 22940280 
671.589 22966548 23121542 23427914 23883366 24464944 25135592 25856964 
674.963 26594580 27312170 27974086 28545604 29001922 29341824 29592102 
678.338 29804694 30034396 30328420 30705600 31156254 31651460 32161862 
681.713 32674578 33197272 33749316 34345632 34979468 35618940 36212208 
685.088 36708568 37080432 37331456 37498128 37633928 37798080 38033532 
688.463 38358464 38765112 39226568 39704204 40156560 40550268 40861912 
691.838 41086136 41237716 41350496 41469464 41635944 41879580 42204376 
695.212 42590040 42996500 43381516 43711576 43970608 44161232 44297228 
698.587 44395648 44471660 44540452 44620972 44740620 44938196 45252672 
701.962 45713900 46327440 47067672 47878564 48686008 49424372 50047304 
705.337 50541872 50927044 51245888 51549484 51881408 52271956 52733108 
708.712 53263708 53857440 54510768 55228516 56022688 56906056 57885364 
712.086 58952116 60080808 61230340 62358052 63436284 64465648 65481128 
715.461 66542820 67717000 69042528 70514816 72075024 73631640 75075672 
718.836 76322280 77335008 78127256 78745952 79241360 79640832 79933848 
722.211 80078016 80016896 79705200 79119608 78264280 77166032 75868776 
725.586 74424432 72884024 71298536 69708072 68140240 66608712 65114012 
728.961 63647888 62199844 60763888 59340528 57937384 56563516 55225244 
732.335 53921284 52644828 51386768 50142796 48917280 47725096 46584864 
735.710 45513068 44515968 43584736 42696484 41821640 40934944 40022616 
739.085 39087876 38146964 37224444 36340656 35505840 34717052 33961120 
742.460 33220914 32483432 31746202 31017370 30314422 29656486 29060974 
745.835 28537112 28084144 27690694 27338494 27003362 26659540 26287090 
749.209 25874198 25421504 24941416 24453306 23976740 23524340 23099456 
752.584 22697400 22311310 21939848 21590678 21279786 21023888 20831228 
755.959 20694496 20590880 20491840 20372194 20223526 20056274 19895398 
759.334 19766556 19683650 19643054 19624612 19602460 19556568 19482956 
762.709 19390820 19296070 19207956 19122770 19023336 18889456 18708222 
766.083 18486194 18250078 18040718 17895436 17836018 17857664 17931552 
769.458 18009946 18041582 17986082 17816754 17528352 17133900 16663676 
772.833 16156850 15658518 15213769 14856282 14604276 14454965 14386083 
776.208 14360191 14337931 14289235 14197852 14062644 13892137 13696459 
779.583 13481695 13248864 12997584 12730482 12457440 12194962 11960231 
782.958 11767090 11619466 11511698 11430559 11361645 11293353 11217150 
786.332 11128383 11023319 10898847 10753930 10591676 10419778 10248048 
789.707 10084559 9930692 9779421 9619496 9443681 9256665 9079981 8944869 
793.564 8883990 8915477 9033834 9208198 9394108 9552392 9659912 9719408 
797.421 9751227 9782369 9829341 9889776 9943710 9965102 9932252 9838594 
801.278 9693183 9516592 9331001 9152899 8993206 8858728 8757899 8703131 
805.135 8707966 8781768 8922850 9118824 9347759 9586095 9817615 10032405 
808.992 10225997 10393951 10527172 10613848 10645494 10624679 10569506 
812.367 10513085 10494076 10540649 10661386 10837899 11032190 11195968 
815.742 11289102 11292503 11211370 11073826 10920049 10793025 10724450 
819.116 10731004 10811809 10951377 11123725 11299781 11456753 11582270 
822.491 11679061 11763311 11857385 11979713 12135637 12312546 12485162 
825.866 12622642 12701924 12718199 12686129 12634377 12592250 12581677 
829.241 12608248 12663305 12731437 12801968 12874251 12959450 13073349 
832.616 13226934 13418914 13634570 13848417 14034067 14174641 14265163 
835.990 14313891 14336972 14352245 14372383 14403414 14445237 14493915 
839.365 14545821 14598416 14651362 14705548 14762174 14822304 14888032 
842.740 14962722 15051763 15163157 15305161 15484327 15701491 15949976 
846.115 16211603 16459106 16663160 16796734 16847848 16824906 16758094 
849.490 16690360 16665880 16718147 16858146 17074690 17339720 17622612 
852.865 17897196 18149222 18373150 18563684 18709814 18793086 18793710 
856.239 18703034 18532564 18317434 18104552 17939842 17849586 17830942 
859.614 17852760 17869712 17844270 17758830 17624340 17472778 17344548 
862.989 17269448 17258140 17299962 17372516 17450668 17515658 17559540 
866.364 17581070 17581484 17561852 17521350 17460740 17382896 17292928 
869.739 17195256 17090440 16975104 16845918 16705373 16568143 16459484 
873.113 16410895 16446304 16570380 16761951 16978480 17169370 17289376 
876.488 17315306 17247796 17107258 16921184 16716633 16513379 16324982 
879.863 16164830 16049327 15996315 16020687 16124457 16293572 16497618 
883.238 16702790 16880776 17017590 17115322 17184262 17232214 17257382 
886.613 17247416 17187086 17070348 16908714 16731061 16577300 16485536 
889.987 16476279 16548213 16679101 16838340 16994952 17127352 17225594 
893.362 17286584 17309582 17293134 17235556 17138416 17009904 16865724 
896.737 16725792 16610382 16535994 16512383 16544668 16633930 16778240 
900.112 16969006 17188088 17405968 17583278 17683590 17683624 17584348 
903.487 17412694 17215906 17047120 16943098 16917120 16951126 17007562 
906.862 17040366 17016350 16923942 16776586 16604701 16447371 16339293 
910.236 16300797 16336473 16434949 16574821 16727548 16866000 16970350 
913.611 17030648 17049670 17039746 17016108 16988300 16954880 16901618 
916.986 16808340 16656859 16442725 16179617 15898729 15638458 15430043 
920.361 15290848 15218127 15194038 15196268 15209652 15230446 15265348 
923.736 15323833 15410132 15517223 15630282 15730385 15804876 15850991 
927.110 15875392 15889002 15900893 15913852 15925055 15930247 15928974 
930.485 15927324 15937362 15971459 16037535 16135357 16258243 16397474 
933.860 16546423 16703686 16871648 17052048 17242934 17436596 17622372 
937.235 17792522 17945124 18086072 18226926 18378992 18547640 18730432 
940.610 18917556 19097182 19259528 19399654 19517716 19615598 19695474 
943.985 19758372 19806990 19848192 19894394 19964050 20075916 20242722 
947.359 20465894 20733870 21023192 21304458 21552130 21747130 21881930 
950.734 21960864 21997634 22012170 22027088 22065608 22146320 22281346 
954.109 22474128 22718244 22998900 23295852 23589368 23861136 24097452 
957.484 24288622 24427052 24507538 24528958 24496846 24425020 24335930 
960.859 24257474 24214486 24223874 24288204 24396070 24525206 24650946 
964.233 24753888 24822924 24855764 24855484 24825978 24768480 24682126 
967.608 24566966 24427018 24273136 24122040 23990326 23891488 23829774 
970.983 23798970 23784726 23770202 23741294 23691044 23621834 23543858 
974.358 23472924 23424208 23410570 23438476 23506956 23607458 23726248 
977.733 23848218 23958742 24049296 24117032 24165054 24198756 24222858 
981.108 24239466 24248120 24247628 24239184 24227272 24219740 24223490 
984.482 24241426 24269808 24298890 24317882 24319880 24307546 24294018 
987.857 24298750 24338734 24422250 24542036 24678442 24802542 24888922 
991.232 24923870 24909134 24861272 24805910 24769110 24768550 24811208 
994.607 24893272 25005044 25135382 25276610 25425122 25579906 25738856 
997.982 25896108 26039484 26154578 26226090 26244990 26212152 26140852 
1001.356 26054330 25978132 25935990 25940494 25991428 26077236 26181182 
1004.731 26288992 26394856 26503634 26629244 26788122 26990388 27236386 
1008.106 27513870 27802976 28079126 28321250 28514784 28651808 28730954 
1011.481 28756762 28739840 28696618 28649860 28625970 28647278 28728124 
1014.856 28869074 29056724 29268414 29482088 29685152 29878692 30075444 
1018.231 30291612 30537284 30808278 31085562 31341084 31550862 31701252 
1021.605 31795752 31849340 31882856 31911384 31940020 31964344 31976682 
1024.980 31972472 31956602 31942196 31947222 31985920 32063358 32172210 
1028.356 32297186 32420732 32528852 32615926 32684654 32742352 32796626 
1031.731 32851550 32905768 32954168 32989592 33006896 33005216 32988664 
1035.106 32965392 32944016 32930396 32923854 32914170 32882788 32808848 
1038.481 32672614 32465718 32194298 31880610 31557456 31257686 31008688 
1041.857 30822148 30694432 30609522 30549298 30501098 30464380 30450164 
1045.232 30477566 30564656 30719218 30935600 31193740 31465750 31720750 
1048.607 31935420 32099106 32215994 32304894 32396778 32529496 32737062 
1051.982 33045080 33463418 33983944 34580652 35217668 35859040 36474476 
1055.358 37047596 37575144 38061416 38511740 38926464 39299328 39619768 
1058.733 39877236 40066400 40189376 40257024 40285492 40292612 40297920 
1062.108 40317300 40361916 40437988 40544884 40678260 40831008 40998152 
1065.483 41180008 41383480 41619060 41897204 42219052 42573816 42936732 
1068.859 43277396 43568804 43797988 43972552 44119380 44277416 44483700 
1072.234 44767468 45143400 45612644 46168508 46801880 47504736 48269748 
1075.609 49089016 49951608 50846204 51766348 52715752 53710168 54772528 
1078.984 55923676 57170204 58496900 59863484 61216068 62499716 63669296 
1082.359 64702520 65598532 66375508 67062848 67698992 68326728 68984960 
1085.735 69708384 70517736 71415288 72384032 73393336 74407480 75396400 
1089.110 76344952 77250968 78120000 78954696 79749752 80491736 81168448 
1092.485 81776448 82326632 82839808 83335488 83818480 84270744 84653416 
1095.860 84922504 85041584 84995728 84794368 84465016 84040608 83547696 
1099.236 83006040 82428200 81824336 81205112 80580040 79953120 79320464 
1102.611 78672792 78001424 77308048 76610368 75942808 75346696 74858856 
1105.986 74504856 74292192 74216312 74266512 74433704 74712248 75097376 
1109.361 75581576 76149776 76782536 77464576 78191920 78976000 79837736 
1112.737 80794344 81841896 82945872 84039488 85046496 85898224 86556432 
1116.112 87022008 87325352 87505552 87587800 87573280 87440104 87159928 
1119.487 86712088 86097784 85339712 84475040 83539744 82564144 81569704 
1122.862 80571312 79584600 78627240 77716928 76870176 76099552 75415552 
1126.238 74833272 74376920 74082016 73992672 74148360 74576416 75282928 
1129.613 76254656 77465648 78891192 80518496 82349376 84394184 86660912 
1132.988 89142040 91811488 94627168 97539432 100506608 103494536 106473904 
1136.363 109413192 112268008 114986416 117523352 119853264 121983096 
1139.256 123947704 125794352 127556072 129236744 130808352 132227736 
1142.150 133455608 134479072 135316320 136010432 136609104 137149264 
1145.043 137654976 138138944 138613344 139098768 139619312 140197168 
1147.936 140840272 141538880 142269712 143009008 143746016 144487424 
1150.829 145250464 146049040 146879824 147719664 148532816 149288656 
1153.722 149979264 150623072 151255296 151906016 152581824 153256560 
1156.615 153882688 154406224 154794576 155046448 155188240 155255264 
1159.508 155273360 155245408 155153296 154967664 154664176 154232896 
1162.401 153677536 153008416 152233552 151357776 150385536 149328240 
1165.294 148207776 147050640 145878672 144698288 143498032 142254688 
1168.187 140948768 139578960 138167552 136751632 135364336 134019360 
1171.080 132699400 131363304 129960480 128457472 126849160 125163408 
1173.973 123446080 121747440 120103576 118528888 117020496 115565000 
1176.866 114148248 112756536 111378016 109997832 108598616 107165440 
1179.759 105693264 104193344 102692712 101228064 99831344 98518496 97285632 
1183.135 96111640 94970424 93840048 92712488 91593360 90497160 89437744 
1186.510 88424008 87457848 86536176 85654432 84807976 83991032 83192208 
1189.885 82394392 81576256 80717840 79810152 78859960 77889376 76927128 
1193.260 76000232 75124080 74298320 73510672 72745160 71991328 71247544 
1196.636 70521208 69821176 69152856 68513568 67893352 67279704 66664608 
1200.011 66048028 65437788 64845144 64281924 63755392 63267984 62819520 
1203.386 62409276 62036640 61701720 61402776 61135808 60895196 60675404 
1206.761 60474312 60293408 60136252 60004604 59895128 59798188 59699640 
1210.137 59588036 59459404 59320856 59186984 59074832 58995040 58947104 
1213.512 58919932 58896900 58864952 58818736 58763652 58710736 58672048 
1216.887 58654224 58658736 58684828 58734480 58815968 58942248 59124484 
1220.262 59365300 59653300 59965800 60273044 60551744 60793196 61006716 
1223.638 61214276 61442168 61710732 62025784 62379552 62754044 63129672 
1227.013 63489588 63822820 64123816 64389936 64620504 64817368 64986468 
1230.388 65138072 65284768 65438440 65605892 65787524 65978900 66173764 
1233.763 66368252 66561164 66752584 66937968 67105732 67236688 67307792 
1237.139 67301528 67211704 67046492 66823988 66566692 66291160 66004440 
1240.514 65703444 65380320 65027416 64640724 64220228 63765636 63274152 
1243.889 62739460 62153656 61513472 60822428 60094620 59349380 58605528 
1247.264 57878588 57176064 56499356 55847516 55220468 54620472 54052300 
1250.640 53519616 53024608 52566996 52145844 51762164 51419256 51121300 
1254.015 50870192 50661524 50483320 50317360 50146288 49957076 49745944 
1257.390 49517424 49279264 49036376 48787024 48523880 48239536 47933764 
1260.765 47617192 47308204 47026500 46783832 46578588 46396600 46218668 
1264.141 46030784 45829472 45622656 45422488 45237636 45065652 44892524 
1267.516 44697976 44466044 44193400 43892812 43588988 43311808 43087344 
1270.891 42929012 42838528 42806680 42819808 42862116 42918296 42972908 
1274.266 43006964 43001440 42939292 42810740 42617856 42375376 42106488 
1277.641 41834668 41579024 41348380 41141176 40948668 40759304 40562416 
1281.017 40348060 40107788 39833036 39515056 39148676 38734176 38280116 
1284.392 37800540 37314484 36838892 36385224 35958624 35558736 35184004 
1287.767 34834256 34513060 34226660 33981292 33779112 33617332 33487394 
1291.142 33378788 33279900 33181890 33079796 32972004 32860308 32749816 
1294.518 32648180 32564386 32507036 32481324 32485932 32512068 32545068 
1297.893 32570030 32575496 32559208 32527960 32494680 32471146 32462470 
1301.268 32464080 32463294 32445048 32398526 32322314 32224092 32116834 
1304.643 32012242 31915590 31824558 31731230 31627442 31509712 31381794 
1308.019 31252842 31133756 31032424 30952464 30893084 30851106 30824426 
1311.394 30812474 30814928 30829264 30848722 30862632 30860602 30836342 
1314.769 30791096 30733728 30677684 30635832 30614996 30612828 30618268 
1318.144 30615140 30586094 30518516 30406558 30251856 30061134 29844266 
1321.520 29613102 29378446 29149834 28933526 28730248 28534032 28332956 
1324.895 28112496 27859428 27567708 27241712 26896750 26554740 26240346 
1328.270 25974684 25769480 25626684 25539596 25497042 25486888 25499784 
1331.645 25530284 25576354 25638986 25720680 25824544 25952876 26107458 
1335.021 26287512 26490144 26710596 26943990 27187386 27440590 27705068 
1338.396 27981544 28266082 28548152 28812594 29044750 29237686 29395180 
1341.771 29530284 29659894 29800542 29962574 30148494 30353256 30567108 
1345.146 30779786 30983280 31173804 31351556 31517550 31671918 31813148 
1348.522 31938166 32043844 32128322 32192122 32237586 32269598 32293082 
1351.897 32313318 32334522 32358400 32384246 32408416 32426198 32433980 
1355.272 32432086 32425590 32424484 32440084 32480646 32548816 32640324 
1358.647 32745604 32852228 32950342 33033852 33101500 33154390 33194624 
1362.023 33222702 33238798 33245950 33251424 33265482 33298574 33355102 
1365.398 33432390 33520040 33603908 33669676 33709568 33725716 33731228 
1368.773 33744444 33781080 33850852 33955352 34093384 34267032 34486012 
1372.148 34768456 35136144 35604192 36169460 36803768 37460924 38088508 
1375.524 38645540 39106656 39451588 39657444 39691824 39515236 39099004 
1378.899 38436544 37553108 36496320 35324944 34091844 32834932 31585180 
1382.274 30369388 29213408 28142966 27174194 26310360 25539842 24840642 
1385.649 24185304 23548580 22917576 22290764 21677710 21090978 20538908 
1389.025 20024526 19549254 19116606 18732922 18406748 18146146 17954102 
1392.400 17827766 17756656 17725694 17715478 17708716 17695980 17678552 
1395.775 17666646 17673684 17711924 17787480 17898578 18035434 18181110 
1399.150 18315672 18422790 18496394 18538960 18558048 18559534 18544596 
1402.526 18508184 18440800 18330774 18170364 17960388 17713062 17448150 
1405.901 17189604 16959152 16772386 16642811 16581293 16598195 16703788 
1409.276 16905822 17206666 17602116 18081926 18630950 19233482 19875976 
1412.651 20545822 21229750 21914304 22581894 23215416 23801490 24330252 
1416.026 24796262 25193526 25506566 25706898 25753834 25614136 25290904 
1419.402 24841836 24356466 23910778 23544068 23255754 23022376 22814126 
1422.777 22608106 22397334 22197160 22037756 21954068 21968740 22086560 
1426.152 22300252 22599834 22980838 23443862 23992180 24624750 25330452 
1429.527 26087404 26868482 27648636 28411656 29149480 29860236 30545032 
1432.903 31205062 31843204 32466076 33084304 33712860 34368544 35060708 
1436.278 35778260 36488140 37149692 37735008 38240708 38681292 39077468 
1439.653 39449520 39814296 40182584 40559580 40944552 41333584 41721144 
1443.028 42104480 42485052 42868664 43262792 43674788 44109700 44569788 
1446.404 45055544 45567416 46109072 46689516 47322316 48025020 48817944 
1449.779 49718744 50741620 51891864 53162920 54529136 55951452 57392012 
1453.154 58820256 60228852 61631068 63045068 64478220 65895604 67190968 
1456.529 68196096 68763912 68892344 68728008 68465112 68229208 68066320 
1459.905 67984088 67977152 68041984 68176792 68376992 68629152 68904968 
1463.280 69164592 69352216 69402792 69252800 68836280 68089616 66955404 
1466.655 65381548 63349368 60884292 58064660 54991192 51772060 48484572 
1470.030 45131816 41660852 37987244 34074748 30031094 26142438 22754800 
1473.406 20073938 18080200 16595922 15404364 14349746 13349785 12392214 
1476.781 11501390 10707230 10019723 9427088 8907326 8439704 8013623 7627243 
1480.638 7282616 6978227 6706421 6456543 6221631 6003308 5810111 5653152 
1484.496 5538531 5462191 5410354 5364595 5310355 5243344 5171112 5106469 
1488.353 5054675 5005802 4933174 4809095 4626944 4406743 4184279 3990518 
1492.211 3840299 3730233 3646491 3572019 3493819 3405914 3311150 3216940 
1496.068 3130394 3051272 2972631 2886633 2794850 2709021 2646044 2617475 
1499.925 2622976 2649444 2678048 2692484 2686183 2665446 2646777 2652211 
1503.783 2702886 2816627 3002424 3255396 3541151 3790059 3912777 3862362 
1507.640 3673791 3422746 3166739 2928896 2716123 2529848 2370505 2238563 
1511.498 2131632 2044569 1970305 1904706 1848234 1806575 1787643 1798091 
1515.355 1838384 1899980 1966677 2022631 2063046 2096539 2138092 2199264 
1519.213 2280496 2368672 2435841 2445537 2372670 2224208 2040275 1865371 
1523.070 1725432 1622752 1548493 1494361 1457890 1442165 1449711 1476441 
1526.927 1507062 1520263 1499382 1438608 1346598 1242047 1147953 1083375 
1530.785 1059028 1076831 1130180 1206560 1287507 1354209 1391936 1395825 
1534.642 1370031 1323233 1265574 1206926 1162671 1154498 1212674 1373720 
1538.500 1667387 2089147 2566243 2969562 3179022 3165805 2987411 2728159 
1542.357 2447570 2170558 1902875 1644204 1400113 1184964 1014123 896903 
1546.214 831499 807199 809589 825423 844147 856696 855700 835748 795049 
1550.554 737095 669989 606677 560426 544766 569383 635744 733444 842686 
1554.894 944617 1029733 1103638 1184698 1299371 1471321 1702046 1931330 
1558.751 2033384 1911561 1618295 1285014 1000673 791730 651506 567393 525890 
1563.091 514976 522672 537302 547221 543871 525790 499119 476563 472682 
1567.430 501939 572535 681837 808792 917787 975068 966999 906531 820743 
1571.770 735336 665708 618721 594566 590286 602131 626585 659237 691627 
1576.109 711274 705964 671848 615270 549477 487509 438518 406645 389731 
1580.449 380147 367612 343205 304011 255041 206673 170143 153437 157945 
1584.789 179126 208860 241249 273044 305072 338297 371392 399216 414074 
1589.128 409464 383629 341845 293898 250068 217281 197258 186153 178165 
1593.468 169513 160365 154630 156420 166795 182242 196032 202164 199015 
1597.807 191192 188109 199910 232000 283056 343669 401405 443692 464821 
1602.147 466214 456595 447241 448535 467275 504593 557838 621840 690100 
1606.487 755450 810717 849625 869146 870408 859020 842719 827780 816991 
1610.826 809390 802053 793423 786585 789373 813971 872599 974570 1121078 
1615.166 1299670 1481195 1622253 1685614 1660635 1569210 1446819 1324430 
1619.023 1218887 1135462 1074772 1037372 1025449 1042487 1089753 1160843 
1622.881 1240386 1308809 1351850 1368236 1368037 1366840 1377476 1405731 
1626.738 1449013 1497088 1536522 1555509 1550122 1524884 1489408 1453036 
1630.596 1422152 1399348 1384523 1377177 1378041 1389742 1416568 1462976 
1634.453 1530670 1614703 1702213 1777862 1834358 1876419 1915655 1962183 
1638.310 2020534 2091045 2170159 2252884 2333193 2407387 2474428 2537347 
1642.168 2602042 2676248 2767672 2881997 3021575 3183060 3357428 3526320 
1646.025 3666139 3757371 3797145 3803028 3801123 3811351 3840800 3888773 
1649.883 3952900 4034494 4140020 4283115 4482129 4742061 5020852 5221747 
1653.740 5265780 5166652 4987703 4780887 4570619 4367550 4176417 4000751 
1657.598 3845948 3717868 3621198 3558823 3530128 3529994 3547666 3566941 
1661.455 3566641 3523714 3423948 3269985 3084107 2898541 2744064 2639610 
1665.312 2591242 2596742 2647877 2733194 2837638 2945075 3038826 3104029 
1669.170 3132696 3124987 3088345 3032720 2968294 2903978 2848244 2811091 
1673.027 2801820 2828766 2894605 2991381 3097855 3186065 3237904 3253193 
1676.885 3248152 3241876 3251123 3284240 3342435 3420241 3509484 3604459 
1680.742 3705202 3820744 3965807 4156479 4401187 4684080 4949395 5118673 
1684.599 5148144 5071000 4956600 4861062 4808224 4803735 4843973 4921781 
1688.457 5027623 5149217 5274131 5389554 5487021 5565011 5629420 5692965 
1692.314 5772100 5885909 6053032 6290273 6606122 6993311 7414380 7806609 
1696.172 8113301 8318874 8451089 8553571 8667571 8821870 9032717 9297825 
1700.029 9587958 9854795 10062042 10206186 10305589 10380954 10447132 
1703.404 10514544 10590998 10681659 10787760 10903706 11018936 11123929 
1706.780 11216301 11302399 11393957 11500811 11628315 11773593 11929000 
1710.155 12085962 12242435 12406398 12596583 12836948 13149058 13545375 
1713.530 14024417 14568879 15152384 15753232 16362758 16990642 17653670 
1716.905 18360706 19092646 19805880 20463600 21060718 21629230 22219932 
1720.281 22878350 23642058 24538424 25587146 26801162 28188222 29751076 
1723.656 31486056 33382292 35421672 37579516 39833400 42172828 44614584 
1727.031 47214664 50067232 53284272 56954744 61093396 65605468 70308408 
1730.406 74988320 79528328 83990432 88670576 94075880 100863160 109559168 
1733.782 120039792 131236792 141651792 150381856 157491136 163565792 
1736.675 169220464 174910800 180904864 187305328 194045056 200925424 
1739.568 207636144 213843008 219270144 223721872 227081696 229314672 
1742.461 230478640 230731168 230280912 229315456 227899344 225956352 
1745.354 223317472 219833584 215459792 210306768 204581248 198518336 
1748.247 192243952 185719440 178761952 171188496 162966352 154289696 
1751.140 145557920 137207888 129541456 122639592 116405440 110647976 
1754.033 105157360 99751968 94291264 88689152 82949448 77180240 71575528 
1757.408 66349104 61643136 57493632 53837560 50549836 47478900 44479480 
1760.784 41454772 38387928 35363688 32530494 30027152 27916524 26175376 
1764.159 24720564 23454110 22290800 21175510 20086568 19033098 18041306 
1767.534 17137244 16331827 15615547 14965226 14354164 13762223 13176074 
1770.909 12585906 11985742 11375930 10771354 10202760 9703144 9294644 
1774.285 8980419 8746505 8566244 8408386 8244913 8060640 7856809 7647375 
1778.142 7448659 7269610 7105588 6940786 6756763 6545773 6318915 6101283 
1781.999 5918488 5783315 5692025 5625929 5559809 5472626 5357584 5222618 
1785.857 5083739 4953182 4834458 4722398 4609531 4493177 4378829 4278699 
1789.714 4206259 4168020 4157750 4155241 4136608 4086535 4009144 3922741 
1793.572 3844845 3778628 3712588 3627045 3506879 3348813 3165905 2981072 
1797.429 2818828 2693684 2604042 2533781 2461099 2371171 2263076 2150579 
1801.286 2052959 1983452 1942613 1920281 1903075 1883008 1860280 1841712 
1805.144 1834125 1839682 1853025 1864173 1863341 1848134 1825075 1807240 
1809.001 1805543 1822180 1845971 1856852 1833759 1765652 1657541 1527544 
1812.859 1398318 1286743 1201510 1142804 1106561 1088823 1087826 1102641 
1816.716 1130678 1164797 1193802 1205763 1194067 1160046 1113504 1067564 
1820.574 1034815 1021330 1026545 1044912 1069723 1093971 1110514 1110713 
1824.431 1083010 1017013 909785 771349 624462 497593 418618 403859 452979 
1828.771 542610 632326 675233 641152 533188 381639 224110 86355 -20873 
1833.110 -101941 -167592 -228962 -290720 -350317 -400107 -431290 -436851 
1836.968 -412124 -355217 -265521 -145699 -4042 142665 271684 358160 380877 
1841.307 331068 217247 69388 -69940 -154045 -154112 -73915 49206 167756 
1845.647 248808 282327 278746 255041 224474 191192 150388 93448 14148 -87431 
1850.469 -204918 -328532 -447708 -552324 -631671 -674383 -669718 -611885 
1854.326 -503808 -359454 -202633 -62022 39099 87714 86786 50664 -1656 -58046 
1859.148 -117212 -186537 -274726 -382430 -497024 -596665 -657047 -662473 
1863.005 -611819 -518238 -403947 -290918 -196109 -128375 -89817 -81369 
1866.863 -105949 -167857 -267475 -396598 -535711 -660819 -755825 -815920 
1870.720 -846048 -852364 -835763 -790289 -708192 -588293 -442677 -300686 
1874.578 -202799 -183590 -259825 -419108 -623234 -818831 -960123 -1024190 
1878.435 -1014736 -955494 -875776 -798557 -731579 -671703 -614301 -562516 
1882.292 -529192 -531178 -576348 -654103 -734854 -780697 -759397 -662804 
1886.150 -508475 -335451 -186173 -95415 -77659 -125791 -216410 -322539 
1890.007 -425464 -516484 -594415 -659396 -709945 -745505 -770709 -799186 
1893.865 -848330 -934930 -1060583 -1209264 -1348844 -1446473 -1485176 
1897.240 -1469788 -1423158 -1374376 -1343691 -1330412 -1314556 -1266522 
1900.615 -1166109 -1013248 -832721 -660885 -533494 -466574 -452242 -465283 
1904.473 -480475 -486069 -488981 -507416 -556957 -635873 -721655 -777324 
1908.330 -770808 -694596 -573502 -459557 -407556 -455817 -605996 -825180 
1912.187 -1057509 -1249474 -1360140 -1372824 -1295165 -1153089 -979827 
1915.563 -806164 -659495 -560233 -520885 -543356 -616021 -715006 -810761 
1919.420 -881563 -916579 -915951 -885895 -832158 -757346 -660819 -545077 
1923.277 -421525 -311182 -242274 -236015 -297938 -410667 -539749 -641597 
1927.135 -683877 -659032 -588988 -516881 -487624 -531840 -651489 -821146 
1930.992 -1000125 -1152561 -1255454 -1303423 -1300318 -1251391 -1155667 
1934.368 -1007926 -805701 -558049 -287077 -26440 191556 348444 445384 500678 
1938.707 538662 576616 615038 638232 623201 550904 416363 231105 16998 
1943.047 -202136 -409078 -590312 -730057 -806958 -797797 -686921 -479284 
1946.904 -209356 65742 284515 398453 395900 304641 181148 83804 50532 83936 
1951.726 153205 205943 189137 71045 -155503 -470712 -839037 -1212040 
1955.583 -1538006 -1764212 -1839709 -1730716 -1427649 -959362 -387958 190661 
1959.441 668596 956837 1002400 806767 418883 -77394 -595474 -1057344 
1963.298 -1401790 -1594791 -1626746 -1516346 -1306727 -1063194 -856861 
1966.673 -744149 -750764 -857258 -1009017 -1135112 -1183127 -1138879 
1970.049 -1024686 -887449 -777754 -726882 -735681 -778614 -820583 -838772 
1973.906 -834242 -830604 -861557 -956519 -1121992 -1342138 -1581388 -1797870 
1977.764 -1952335 -2009825 -1948971 -1761836 -1462589 -1088677 -701808 
1981.139 -375279 -179714 -169878 -363195 -733564 -1214320 -1724775 -2181820 
1984.996 -2526133 -2728580 -2785802 -2718965 -2567309 -2385251 -2229325 
1988.371 -2147104 -2162929 -2266968 -2412898 -2523169 -2523202 -2362250 
1991.747 -2046433 -1639092 -1242933 -955527 -831034 -866352 -1007364 
1995.122 -1178501 -1312310 -1379199 -1389933 -1382072 -1392806 -1442709 
1998.497 -1523511 -1611759 -1684807 -1738471 -1785397 -1844229 -1917007 
2001.872 -1976909 -1969784 -1841292 -1559301 -1139771 -640406 -148812 253251 
2005.730 523933 669392 733112 763615 784261 777755 701251 512355 201601 
2010.069 -194155 -604209 -956420 -1194891 -1302597 -1292158 -1191818 
2013.445 -1029512 -824420 -594878 -369121 -192697 -126189 -220484 -494873 
2017.302 -915389 -1404663 -1860329 -2196656 -2372630 -2387261 -2268188 
2020.677 -2049302 -1755104 -1395911 -979397 -526048 -73087 324768 614773 
2024.535 767565 783365 691328 528511 318999 64947 -243764 -609238 -1003794 
2028.874 -1366581 -1622389 -1717185 -1644934 -1456116 -1232426 -1059658 
2032.250 -984224 -994273 -1033379 -1035958 -964255 -832621 -695621 -619363 
2036.107 -644376 -762407 -916480 -1034008 -1060550 -979198 -816383 -622870 
2039.964 -447708 -315652 -221047 -138246 -45258 63522 172828 255803 291743 
2044.304 276657 225800 163978 113565 84201 76115 86190 115487 170276 254013 
2049.126 354446 438352 458154 363798 126888 -245023 -703428 -1171727 
2052.983 -1567093 -1819120 -1894640 -1799751 -1577162 -1286113 -993050 
2056.358 -752682 -597922 -540874 -571186 -659330 -759926 -825544 -817111 
2060.216 -716760 -535678 -312606 -101047 51692 115321 88012 -8217 -136391 
2064.555 -263401 -369750 -450323 -509335 -551397 -574859 -575058 -549313 
2068.413 -504636 -458664 -435295 -454592 -522838 -629024 -750962 -866947 
2072.270 -963197 -1041379 -1111218 -1181541 -1249739 -1299823 -1308313 
2075.646 -1258461 -1150644 -1006373 -860267 -750566 -699095 -706770 -752749 
2079.503 -807189 -843535 -848164 -822865 -779771 -733828 -694993 -668527 
2083.360 -657577 -665682 -700981 -770577 -876173 -1009943 -1155403 -1290044 
2087.218 -1396076 -1465528 -1502511 -1519120 -1528035 -1537114 -1548175 
2090.593 -1559829 -1572870 -1593471 -1631896 -1696656 -1787278 -1890021 
2093.968 -1979580 -2030570 -2022424 -1949697 -1819681 -1646882 -1443732 
2097.344 -1217789 -972223 -713816 -459061 -237241 -81336 -20045 -64043 
2101.201 -202004 -403054 -629090 -849685 -1045940 -1210817 -1339463 -1420020 
2105.058 -1432504 -1353997 -1174965 -910330 -606293 -330022 -144837 -94686 
2108.916 -183689 -377299 -612812 -827297 -976157 -1042106 -1035462 -981116 
2112.773 -905833 -827032 -752484 -683481 -620620 -567248 -528629 -506820 
2116.631 -499109 -499307 -500400 -501227 -508409 -534156 -589749 -678882 
2120.488 -793663 -916778 -1030173 -1118951 -1177344 -1207612 -1215047 
2123.863 -1203680 -1176783 -1140069 -1105731 -1096081 -1136665 -1244882 
2127.239 -1418831 -1629816 -1828985 -1959229 -1978954 -1877320 -1677843 
2130.614 -1425437 -1170108 -950833 -782252 -665087 -598187 -592628 -676963 
2134.471 -883316 -1226082 -1682794 -2189535 -2659198 -3004482 -3176676 
2137.846 -3173091 -3034129 -2814707 -2563093 -2301280 -2025458 -1723158 
2141.222 -1394458 -1064054 -776662 -576811 -485771 -486499 -533329 -568506 
2145.079 -551133 -476140 -370214 -272243 -207866 -172560 -133542 -51255 
2148.937 97027 299900 512056 674635 748513 728134 650477 568090 527084 
2153.276 537667 569981 561819 451022 199844 -190280 -682389 -1216963 
2157.134 -1729561 -2165765 -2480012 -2638846 -2621259 -2426835 -2081157 
2160.509 -1637045 -1170471 -758206 -459590 -302044 -272905 -330121 -416460 
2164.366 -485672 -507648 -475511 -399346 -295521 -182099 -73153 22432 101633 
2168.706 166331 226099 293268 376731 472814 560260 600439 551966 390991 
2173.045 125728 -194254 -498381 -714444 -811224 -814399 -806263 -885267 
2176.903 -1132336 -1565442 -2129068 -2704477 -3153947 -3374053 -3319637 
2180.278 -3020046 -2559436 -2050852 -1589179 -1231038 -990670 -848660 
2183.653 -773256 -737798 -728437 -741734 -779771 -842079 -923093 -1012653 
2187.511 -1094594 -1148430 -1154477 -1095519 -967462 -784766 -584984 -423445 
2191.368 -353826 -415898 -615690 -920613 -1263615 -1569272 -1775399 -1846868 
2195.226 -1785166 -1619715 -1393731 -1149818 -924019 -744711 -631870 -601430 
2199.083 -658966 -793034 -968619 -1131510 -1222943 -1196675 -1042007 -791645 
2202.940 -514101 -288104 -183689 -236645 -439168 -749077 -1106558 -1456810 
2206.798 -1756886 -1984627 -2130882 -2194249 -2176348 -2082707 -1925616 
2210.173 -1723224 -1500134 -1280926 -1082299 -913372 -775670 -668891 -596268 
2214.031 -565759 -584356 -653143 -759695 -879579 -984422 -1056947 -1098494 
2217.888 -1134120 -1201929 -1340520 -1571220 -1887778 -2255333 -2624388 
2221.263 -2942253 -3164177 -3265181 -3236241 -3084107 -2827250 -2494969 
2224.638 -2123463 -1752959 -1421804 -1156427 -966173 -841815 -761977 -704289 
2228.496 -658338 -631770 -648015 -732671 -896641 -1126949 -1383360 -1612849 
2232.353 -1763552 -1807208 -1745797 -1611033 -1447959 -1302862 -1207810 
2235.729 -1173280 -1192908 -1249177 -1322352 -1395283 -1454894 -1493167 
2239.104 -1505054 -1491417 -1457999 -1416288 -1378571 -1354723 -1346069 
2242.479 -1344814 -1335466 -1302862 -1238902 -1146844 -1039561 -934368 
2245.854 -845023 -777192 -726485 -682389 -636237 -583396 -526909 -475114 
2249.712 -437877 -423279 -436520 -480343 -555468 -660422 -788635 -925639 
2253.569 -1049742 -1134021 -1157418 -1110590 -1003166 -860168 -716925 
2256.944 -605400 -545011 -539583 -579392 -649107 -734754 -828025 -926697 
2260.802 -1028950 -1128866 -1216368 -1279109 -1309568 -1308643 -1287005 
2264.177 -1260972 -1246369 -1252514 -1280034 -1324367 -1379793 -1442874 
2267.552 -1512582 -1585349 -1651008 -1690880 -1683553 -1612651 -1477746 
2270.927 -1298105 -1111218 -957643 -868369 -851537 -890392 -948915 -986835 
2274.785 -977744 -914992 -813209 -699293 -601893 -539550 -517477 -531012 
2278.642 -570987 -629818 -702866 -787147 -876405 -959263 -1021876 -1050469 
2282.500 -1037875 -987364 -912513 -831530 -762142 -716826 -699657 -707597 
2286.357 -734556 -773619 -818665 -864203 -904379 -932648 -942402 -930830 
2290.215 -899386 -855605 -810199 -774810 -756751 -757842 -773752 -797334 
2294.072 -820583 -838475 -849685 -854943 -856233 -853720 -846676 -834374 
2297.929 -816615 -796606 -779606 -771800 -778481 -801170 -837119 -878620 
2301.787 -915720 -937509 -935690 -906858 -854018 -785328 -713915 -653441 
2305.644 -613738 -597757 -599775 -607849 -606856 -584819 -539186 -477596 
2309.502 -416162 -373591 -366076 -399379 -467964 -556560 -646725 -721556 
2313.359 -770610 -791017 -786122 -761878 -723673 -676864 -624789 -571451 
2317.217 -521183 -477761 -443504 -417917 -398055 -379483 -359421 -338729 
2321.074 -322042 -316712 -329194 -362269 -414077 -478589 -546897 -610595 
2324.931 -662109 -695522 -707365 -696151 -664127 -618701 -573039 -543257 
2328.789 -544812 -585911 -663565 -761580 -853654 -913703 -922167 -874520 
2332.646 -780268 -661977 -545176 -451316 -395241 -381404 -406331 -459690 
2336.504 -528001 -595110 -643053 -655261 -618139 -525750 -381999 -202997 
2340.361 -13816 158277 288262 361477 375571 338629 264291 167292 58651 
2344.701 -55032 -170043 -282938 -389216 -482858 -557387 -608312 -632399 
2348.558 -629157 -600569 -551033 -486499 -415169 -345285 -283567 -232902 
2352.416 -192433 -159577 -132979 -116980 -120988 -156695 -230220 -336279 
2356.273 -453434 -551993 -601330 -583165 -499307 -373491 -240883 -134238 
2360.130 -73716 -60995 -82727 -121485 -165373 -213098 -270620 -343828 
2363.988 -431356 -522805 -603977 -663466 -701675 -729264 -764259 -818831 
2367.845 -892210 -967528 -1019992 -1024818 -969347 -858680 -713650 -562615 
2371.703 -429635 -329922 -266547 -233995 -224259 -232174 -256050 -296150 
2375.560 -351078 -415732 -481204 -538822 -582701 -612746 -634980 -658238 
2379.417 -690461 -735350 -791248 -852166 -910297 -958569 -992819 -1011827 
2383.275 -1016752 -1010042 -993877 -971198 -944286 -916646 -891318 -870849 
2387.132 -856961 -850148 -849685 -855869 -868964 -890227 -921506 -963230 
2390.990 -1014670 -1072879 -1134385 -1195618 -1253868 -1306925 -1352345 
2394.365 -1386267 -1403705 -1399313 -1369884 -1316802 -1247096 -1171925 
2397.740 -1104178 -1053973 -1025545 -1015959 -1017777 -1022008 -1021909 
2401.115 -1015860 -1007100 -1001216 -1003265 -1015033 -1034206 -1055856 
2404.491 -1074168 -1084877 -1086430 -1079853 -1067326 -1051295 -1033677 
2407.866 -1016223 -1001149 -991992 -992720 -1007496 -1038503 -1084711 
2411.241 -1140862 -1198559 -1247723 -1278581 -1284461 -1263681 -1220300 
2414.616 -1163036 -1103716 -1054600 -1023562 -1013612 -1020587 -1035660 
2417.992 -1046866 -1044122 -1021545 -979099 -922333 -859375 -799384 -749209 
2421.849 -712989 -692942 -689766 -703892 -735350 -782913 -843435 -911256 
2425.707 -979661 -1041709 -1092677 -1130254 -1154676 -1167398 -1168951 
2429.082 -1159897 -1139606 -1108673 -1069177 -1025843 -985447 -954040 
2432.457 -936517 -935227 -949709 -978273 -1018670 -1068813 -1126222 -1187522 
2436.314 -1248285 -1303357 -1348580 -1382072 -1405258 -1421077 -1432735 
2439.690 -1442081 -1447761 -1447002 -1437293 -1418964 -1396406 -1375929 
2443.065 -1362882 -1358291 -1357102 -1349207 -1323244 -1271379 -1193569 
2446.440 -1097667 -997083 -906528 -838045 -798194 -788437 -807421 -852529 
2450.298 -920779 -1008422 -1108673 -1211114 -1303589 -1374277 -1415925 
2453.673 -1427385 -1414340 -1385012 -1346532 -1302267 -1251556 -1192214 
2457.048 -1124900 -1055063 -993976 -954767 -947064 -973512 -1027793 -1097403 
2460.906 -1167530 -1225587 -1265333 -1285650 -1288756 -1277358 -1253670 
2464.281 -1218648 -1175131 -1128469 -1086199 -1056319 -1044321 -1050436 
2467.656 -1070367 -1096742 -1123842 -1148033 -1169348 -1188811 -1205035 
2471.031 -1212965 -1205167 -1175395 -1124107 -1061211 -1005381 -976455 
2474.406 -990042 -1049345 -1142647 -1245972 -1332064 -1379397 -1377547 
2477.782 -1330511 -1252613 -1163499 -1079952 -1013612 -969446 -947890 
2481.157 -947791 -968256 -1008224 -1065806 -1136401 -1212403 -1283701 
2484.532 -1340421 -1375367 -1385012 -1369983 -1335532 -1289185 -1239563 
2487.907 -1195783 -1165647 -1153750 -1161384 -1185341 -1218912 -1253340 
2491.283 -1281058 -1296915 -1299856 -1290969 -1273163 -1248285 -1216533 
2494.658 -1177675 -1132799 -1085703 -1043957 -1017116 -1013281 -1036487 
2498.033 -1084777 -1150347 -1221655 -1288260 -1341874 -1378934 -1399577 
2501.408 -1405984 -1400568 -1385837 -1364071 -1338604 -1313796 -1294636 
2504.784 -1284824 -1285287 -1293149 -1302796 -1307553 -1302267 -1285650 
2508.159 -1260641 -1233417 -1210850 -1199153 -1200905 -1215575 -1239100 
2511.534 -1265465 -1288029 -1300153 -1297213 -1276334 -1237844 -1183920 
2514.909 -1119315 -1048783 -976752 -907850 -845750 -795581 -763995 -757644 
2518.767 -781557 -836028 -914629 -1003265 -1083158 -1136764 -1151933 
2522.142 -1126751 -1069838 -997447 -926234 -869097 -831265 -810364 -800079 
2526.000 -793861 -789131 -787114 -791083 -803584 -823791 -847304 -868237 
2529.857 -881497 -886457 -886688 -889201 -900874 -926862 -968355 -1023099 
2533.714 -1085967 -1150776 -1210817 -1258395 -1286080 -1286707 -1255322 
2537.090 -1191091 -1099055 -989844 -876603 -773983 -692942 -638751 -611290 
2540.947 -605367 -613374 -627138 -639645 -645732 -642622 -630745 -613374 
2544.804 -596764 -588492 -595110 -619264 -657841 -702436 -741866 -766541 
2548.662 -771172 -758008 -734291 -710508 -694695 -690560 -696283 -707034 
2552.519 -717421 -724037 -726286 -725393 -721920 -714808 -702072 -682290 
2556.377 -657279 -632300 -614466 -609768 -619330 -638619 -658801 -670810 
2560.234 -671372 -665020 -663168 -680007 -726055 -802923 -901403 -1004092 
2564.092 -1093073 -1154081 -1182037 -1181343 -1162540 -1136830 -1111614 
2567.467 -1089306 -1067557 -1041709 -1008786 -968388 -923391 -878521 -838144 
2571.324 -804940 -780003 -762076 -748912 -737798 -726286 -712095 -694497 
2575.182 -673291 -650232 -626907 -604805 -583859 -562549 -537995 -508574 
2579.039 -475279 -442677 -418281 -409840 -422154 -454592 -500400 -548121 
2582.896 -587003 -608841 -612183 -601794 -587334 -578466 -582403 -601066 
2586.754 -631043 -665781 -696713 -716561 -720795 -707133 -676963 -633524 
2590.611 -582701 -530582 -483487 -445987 -420797 -407821 -404576 -408483 
2594.469 -417387 -430131 -447244 -470083 -498910 -532865 -569598 -605532 
2598.326 -637263 -662076 -678254 -684605 -680536 -665120 -638553 -602422 
2602.184 -559968 -516385 -476603 -444861 -422551 -409012 -401001 -395241 
2606.041 -389051 -381039 -370479 -356574 -338464 -314394 -283733 -247606 
2609.898 -209588 -175574 -150998 -138842 -138246 -144407 -151031 -152124 
2613.756 -145367 -132350 -117974 -107771 -105452 -111812 -124864 -141061 
2617.613 -157722 -173653 -189121 -205084 -221047 -235552 -245520 -248500 
2621.471 -243301 -230982 -214191 -195844 -178257 -162326 -147818 -134370 
2625.328 -122114 -111812 -103697 -97005 -89651 -78255 -60299 -35319 -5732 
2629.668 23360 47384 63356 72238 78170 87051 102926 126623 154564 180618 
2634.490 198551 205148 201335 191855 183634 182176 191092 210319 237868 
2638.829 269861 303414 335048 361609 379948 386945 380213 360051 330339 
2643.169 298143 272182 260843 268932 296717 339358 388869 435632 470625 
2647.508 487874 484391 461006 421702 373713 326227 289124 271983 280437 
2651.848 315882 372918 442299 511227 567625 603226 615469 607539 587267 
2656.188 564905 549113 546160 558302 583949 618589 656583 692523 722359 
2660.527 743733 756479 761823 762154 759931 757109 755051 754155 754421 
2664.867 756047 759001 763781 770984 780809 793389 808394 825324 843516 
2669.206 862373 880899 897932 911844 921208 925557 925425 922934 921141 
2673.546 923100 930804 944684 963612 985728 1009441 1033785 1058330 1082345 
2677.885 1103770 1119184 1124333 1115397 1091712 1056537 1016913 981112 
2681.743 956904 948071 953815 968991 987090 1002499 1012562 1017943 1021330 
2686.083 1025216 1029766 1032357 1028405 1013360 984799 943754 893782 840960 
2690.422 790800 747650 713365 688109 670321 657910 648751 640787 632392 
2694.762 622238 610326 597618 586503 580067 581095 591182 609895 634914 
2699.101 661826 685653 701417 704669 692324 663186 618456 561819 499849 
2703.441 441569 396066 371259 371458 396265 439579 491788 541781 579105 
2707.781 596756 592376 568488 531165 489300 452681 429231 424919 441437 
2712.120 476994 525558 579370 630434 672146 700454 715090 717314 710411 
2716.460 697401 681538 665974 654127 650444 658441 680443 715887 760794 
2720.799 808327 851484 884551 905203 915297 918850 920444 922204 924296 
2725.139 924561 921274 914567 907096 903410 907694 920942 940433 959228 
2729.479 970054 967098 948735 918020 881762 847367 820211 802651 793655 
2733.818 790933 792062 796111 803514 815332 831764 851384 871171 887838 
2738.158 898397 902016 899526 893450 886577 881364 878642 878144 878409 
2742.497 877579 874226 867951 859186 849260 840362 834353 832295 834387 
2746.837 839798 847234 856231 867453 882427 903078 930040 962250 995891 
2751.177 1026312 1049429 1063412 1070055 1073609 1078392 1086896 1097293 
2755.034 1104335 1101512 1084072 1051920 1010769 969788 937910 920510 917057 
2759.374 921938 927350 927218 920743 912309 909287 918385 942392 977991 
2763.713 1016780 1049063 1067564 1069690 1058430 1040428 1023622 1013725 
2767.571 1012994 1020400 1032855 1046473 1058563 1067996 1075536 1083043 
2771.428 1093639 1110481 1136724 1174299 1223273 1281625 1345202 1408523 
2775.285 1466933 1517403 1559267 1594251 1624880 1653583 1681157 1706969 
2779.143 1729790 1748885 1764920 1780158 1797991 1822346 1855787 1899847 
2783.000 1953929 2016107 2082755 2149280 2210454 2261011 2297717 2319902 
2786.858 2331094 2338656 2351982 2380466 2430044 2501254 2589409 2685816 
2790.715 2780711 2866021 2937403 2994417 3039426 3076064 3107834 3137369 
2794.573 3166505 3196812 3229425 3265879 3306743 3351985 3401072 3453238 
2798.430 3508783 3568946 3635866 3710984 3794337 3884159 3977209 4070213 
2802.287 4161731 4252733 4345896 4444234 4548788 4657387 4764874 4864546 
2806.145 4951272 5024070 5086656 5146568 5213028 5294121 5394150 5513262 
2810.002 5647747 5792012 5940120 6087304 6230875 6370222 6506856 6643938 
2813.860 6786278 6938867 7106497 7292050 7495953 7716040 7948353 8188927 
2817.717 8434230 8682815 8934823 9190971 9451977 9717917 9988598 10264128 
2821.574 10546014 10837389 11141811 11462911 11803349 12163476 12542830 
2824.950 12940641 13356892 13792492 14249242 14728307 15229348 15751308 
2828.325 16292162 16850776 17427938 18026524 18650386 19303344 19987852 
2831.700 20704468 21453254 22235416 23054276 23916168 24828994 25800068 
2835.075 26835630 27939562 29114650 30366118 31703390 33141944 34703988 
2838.451 36414264 38298896 40382240 42682956 45215792 47990788 51014492 
2841.826 54290804 57821312 61605600 65638424 69911424 74410544 79113048 
2845.201 83990600 89004304 94104480 99236608 104336400 109335024 114164872 
2848.576 118753792 123031136 126928016 130373224 133299472 135645136 
2851.469 137355680 138393600 138739472 138396208 137387824 135758848 
2854.363 133568328 130881888 127773104 124314416 120576336 116631072 
2857.256 112544552 108379600 104194696 100037960 95952336 91973744 88129592 
2860.631 84444168 80936000 77617912 74498840 71583424 68872928 66368520 
2864.006 64071400 61984128 60109996 58450840 57005600 55768580 54728924 
2867.381 53869892 53170072 52604172 52141996 51750556 51396020 51042812 
2870.757 50660816 50224876 49717892 49132092 48468200 47734232 46942100 
2874.132 46108928 45254184 44398328 43565804 42779876 42062612 41433156 
2877.507 40904616 40484028 40172476 39967032 39861980 39850796 39927580 
2880.882 40086384 40321884 40629356 41003432 41439500 41932860 42479684 
2884.258 43077024 43722864 44416164 45156744 45944444 46778704 47658128 
2887.633 48579756 49539188 50531932 51554220 52603984 53681856 54790568 
2891.008 55932568 57108980 58317808 59553488 60808288 62074408 63346408 
2894.383 64622460 65904080 67195416 68501536 69826120 71171576 72539144 
2897.759 73929656 75344880 76787520 78260952 79768776 81313504 82896744 
2901.134 84519512 86183200 87889264 89640784 91441272 93294976 95206376 
2904.509 97179888 99220288 101332192 103520320 105788624 108140464 110578136 
2907.884 113103632 115719120 118428600 121238280 124155096 127187016 
2910.777 130339952 133616608 137014640 140525808 144137280 147830256 
2913.670 151582064 155367184 159155216 162914816 166612320 170210976 
2916.563 173674736 176964656 180040128 182862624 185392768 187595072 
2919.457 189439568 190901216 191962176 192610400 192839744 192649488 
2922.350 192044672 191037376 189645232 187893312 185813200 183438656 
2925.243 180807680 177957280 174921152 171730544 168411680 164986320 
2928.136 161474816 157895120 154264688 150600656 146917792 143229168 
2931.029 139544688 135872048 132219104 128595112 125011328 121481408 
2933.922 118018176 114631728 111328728 108111000 104978416 101931240 
2936.815 98970864 96102464 93332064 90664432 88102928 85646432 83292496 
2940.190 81037376 78878760 76816856 74853424 72991096 71232824 69581384 
2943.565 68039424 66611140 65301752 64116524 63059748 62132744 61332516 
2946.941 60652352 60083856 59618596 59249148 58970068 58774808 58654112 
2950.316 58595444 58580048 58586264 58592144 58575840 58519764 58410432 
2953.691 58237360 57993496 57674620 57278808 56807740 56266464 55662692 
2957.066 55004168 54297716 53545176 52745120 51891300 50977232 49997856 
2960.442 48952700 47846380 46688340 45491764 44269748 43035756 41801172 
2963.817 40573840 39360088 38162956 36983080 35819172 34668856 33529558 
2967.192 32400168 31281258 30176234 29090946 28032436 27009356 26030160 
2970.567 25101186 24227308 23409136 22643850 21924374 21242310 20588934 
2973.943 19957840 19346646 18756586 18191752 17655120 17148102 16667739 
2977.318 16209058 15765293 15332551 14910391 14502789 14116140 13756648 
2980.693 13427765 13128363 12853296 12595252 12347487 12105348 11867498 
2984.068 11635462 11412020 11200184 11002045 10818467 10649976 10497062 
2987.444 10360355 10240890 10139976 10059262 9999990 9964356 9954524 9972696 
2991.301 10020571 10098836 10206628 10341692 10501136 10682439 10883932 
2994.676 11105165 11346883 11609801 11894399 12200381 12526937 12872886 
2998.052 13236806 13617611 14013056 14419752 14832041 15241702 15638836 
3001.427 16012711 16353332 16652761 16906304 17112462 17272896 17390760 
3004.802 17469638 17512586 17520590 17493304 17429008 17325030 17179228 
3008.177 16990264 16757576 16482163 16165964 15812023 15424173 15007205 
3011.552 14567235 14110664 13643938 13173000 12701515 12230814 11759941 
3014.928 11286586 10808786 10326184 9841373 9359642 8887643 8431798 7997152 
3018.785 7586342 7200173 6838818 6502887 6194339 5915398 5667083 5447730 
3022.643 5251728 5070531 4893431 4712149 4521701 4323105 4121556 3925549 
3026.500 3743267 3579636 3435136 3306142 3186432 3069624 2951314 2830601 
3030.357 2710021 2594775 2491157 2404654 2338723 2293819 2267306 2254250 
3034.215 2247755 2240128 2224908 2196733 2153076 2093975 2022365 1942580 
3038.072 1859880 1779160 1703809 1636421 1578222 1530038 1492466 1465968 
3041.930 1450609 1445090 1446886 1451806 1454731 1450908 1437378 1413742 
3045.787 1382163 1347263 1314160 1286743 1267568 1256768 1253013 1254807 
3049.645 1261022 1271589 1286610 1305386 1325327 1341314 1347063 1335397 
3053.502 1301564 1243709 1165295 1073609 978755 892121 823033 777158 756180 
3057.842 757607 776029 804344 836810 868814 898463 926985 956306 989149 
3062.181 1025980 1065073 1101844 1130412 1144232 1140013 1117324 1080551 
3066.039 1036010 991905 954314 926089 906399 890959 874458 851749 820543 
3070.378 781971 740879 703441 676693 664945 669292 686018 708519 729163 
3074.718 740978 741310 731353 716352 702811 695410 694879 697335 695244 
3079.057 680576 648419 598514 536406 470725 410857 363234 329974 309151 
3083.397 296717 288527 281830 275895 271021 267043 262998 257196 247979 
3087.737 234950 219170 202695 187115 171966 155161 133550 105047 70150 33234 
3092.558 728 -21271 -29256 -24220 -10934 3346 12359 13187 6262 -5268 -17494 
3097.862 -27632 -35054 -40289 -44165 -46782 -47014 -43701 -36744 -27533 
3102.202 -18786 -12358 -8747 -5599 1259 15838 39530 69653 99943 122977 
3107.024 132158 125331 104285 74955 44103 17528 -1756 -13319 -18322 -18521 
3111.845 -14976 -8449 -364 6759 10072 6626 -4671 -22298 -42409 -60001 -70669 
3117.149 -72623 -66793 -56522 -46451 -39858 -39759 -46849 -61028 -81634 
3121.489 -107142 -135762 -164976 -192134 -215417 -234889 -252143 -270256 
3125.346 -292375 -319096 -348397 -375345 -393818 -399147 -389614 -367102 
3129.204 -335617 -299461 -261216 -221477 -179781 -136391 -94156 -58510 
3133.061 -35683 -30184 -42310 -67919 -99953 -131025 -156894 -177628 -196473 
3137.401 -217039 -240552 -264594 -283104 -289627 -280620 -257176 -226279 
3141.258 -197036 -178158 -174481 -185709 -206674 -230584 -251547 -266117 
3145.116 -274163 -277673 -278899 -279958 -281746 -284296 -287177 -289528 
3148.973 -290355 -288435 -281945 -269958 -253037 -233697 -216708 -207303 
3152.831 -210449 -228465 -260752 -303600 -351443 -398154 -437083 -462801 
3156.688 -470546 -456943 -421724 -368261 -304196 -240883 -191041 -164512 
3160.545 -165241 -189750 -228167 -266547 -292375 -298998 -286316 -260587 
3164.403 -231313 -207700 -195281 -195380 -205581 -222106 -241181 -260752 
3168.260 -280057 -299097 -318036 -336842 -355846 -375445 -396400 -418777 
3172.118 -441386 -461576 -475047 -478225 -469255 -449263 -422352 -394678 
3175.975 -372134 -358428 -354190 -356707 -361673 -364321 -361209 -350317 
3179.833 -331379 -305289 -273634 -238963 -203792 -171732 -146494 -131224 
3183.690 -128640 -140167 -166201 -206044 -257838 -318235 -382066 -442743 
3187.547 -492324 -523500 -532137 -517609 -484579 -440062 -393454 -351840 
3191.405 -318698 -294031 -275223 -258898 -242837 -227008 -212370 -200348 
3195.262 -191505 -185312 -181271 -179781 -181834 -189584 -204024 -223961 
3199.120 -245685 -264097 -274627 -276051 -270687 -264428 -263170 -270786 
3202.977 -287144 -308136 -328300 -344159 -355647 -367433 -385740 -415368 
3206.834 -456843 -505397 -552456 -588029 -605466 -602422 -581014 -546434 
3210.692 -504173 -458300 -410502 -362269 -314560 -269958 -231876 -203560 
3214.549 -187166 -183192 -190015 -205779 -228498 -255719 -285057 -313003 
3218.407 -335087 -347403 -347701 -337272 -320652 -304362 -293865 -291845 
3222.264 -296713 -303699 -307474 -305123 -297739 -289991 -287905 -296183 
3226.122 -315652 -342868 -371770 -397062 -415335 -426954 -434203 -439731 
3229.979 -443769 -444894 -439731 -425663 -402756 -373723 -343695 -318235 
3233.836 -301580 -295322 -299296 -311547 -330187 -352568 -375279 -394116 
3237.694 -404345 -401564 -384449 -355581 -321215 -290852 -273203 -272971 
3241.551 -289528 -317606 -348496 -374087 -389713 -395010 -393189 -389415 
3245.409 -388389 -393023 -403484 -418314 -435196 -451580 -464820 -472896 
3249.266 -473723 -466773 -452805 -433739 -412852 -392295 -372995 -353363 
3253.124 -330651 -302905 -270620 -237936 -212072 -199851 -204918 -225451 
3256.981 -254129 -280554 -294627 -291647 -272740 -244957 -217735 -199851 
3260.838 -195645 -205283 -224690 -249328 -275091 -299594 -322274 -342735 
3264.696 -360448 -374352 -384184 -390971 -398187 -410105 -430793 -461874 
3268.553 -501525 -545110 -586374 -619231 -640406 -649008 -646295 -634616 
3272.411 -616484 -593323 -566123 -535612 -502783 -468229 -432548 -395771 
3276.268 -357865 -319228 -280918 -246116 -217702 -198361 -188889 -187332 
3280.125 -190545 -195281 -199851 -206276 -218828 -242473 -280091 -330320 
3283.983 -387561 -442412 -485440 -510130 -514730 -502617 -480343 -456115 
3287.840 -435891 -422981 -417122 -416361 -418049 -420764 -424637 -431290 
3291.698 -443405 -462536 -489345 -521911 -556030 -586275 -606757 -613110 
3295.555 -603183 -578333 -542661 -501988 -461874 -426027 -395374 -368824 
3299.413 -344258 -320188 -297110 -277342 -263964 -258633 -260785 -267408 
3303.270 -273369 -273932 -266448 -251944 -234724 -220682 -216311 -224988 
3307.127 -247904 -281647 -320718 -358263 -387396 -403881 -406331 -396963 
3310.985 -380675 -364321 -354687 -355846 -368757 -390739 -416659 -440922 
3314.842 -459690 -472466 -481832 -491298 -503610 -518172 -531476 -536804 
3318.700 -527604 -499671 -452706 -390739 -320387 -249990 -186140 -133973 
3322.557 -96442 -75108 -69741 -78984 -100483 -129932 -162127 -192399 -217271 
3326.897 -236214 -251547 -267276 -287276 -313268 -343695 -374451 -399909 
3330.754 -414805 -416394 -404312 -380675 -348662 -311977 -273733 -236479 
3334.612 -202468 -174316 -154211 -143579 -143811 -154509 -174680 -202269 
3338.469 -234989 -269428 -301613 -326645 -340054 -338398 -320552 -289362 
3342.326 -250619 -212304 -181934 -164644 -162326 -173256 -193393 -218695 
3346.184 -245486 -271316 -294163 -311745 -321479 -321215 -310619 -292011 
3350.041 -270488 -253136 -245851 -250719 -264792 -281018 -291216 -287806 
3353.899 -268236 -235287 -195612 -157093 -126421 -106777 -98032 -97568 
3357.756 -102604 -111812 -124996 -142651 -165075 -191108 -218364 -243930 
3361.614 -265190 -280654 -290554 -295256 -295620 -292044 -284594 -273634 
3365.471 -259759 -244460 -228962 -214754 -201176 -187465 -172097 -154443 
3369.328 -134933 -115854 -100119 -91274 -91639 -102338 -122744 -150336 
3373.186 -181536 -211906 -236943 -252838 -257077 -249262 -231478 -207502 
3377.043 -182198 -159411 -141459 -128375 -118504 -110421 -104094 -102040 
3380.901 -107937 -125626 -156364 -197467 -241877 -280057 -303633 -307275 
3384.758 -291680 -263037 -231710 -207800 -199421 -209787 -236943 -274528 
3388.615 -314030 -346940 -366043 -367069 -349688 -316513 -273468 -227670 
3392.473 -187465 -158351 -144109 -144506 -156828 -175873 -196274 -212635 
3396.330 -221179 -219391 -206939 -184981 -157060 -127746 -103796 -90711 
3400.188 -92864 -111547 -144307 -184583 -224160 -255421 -272640 -274031 
3404.045 -261878 -241082 -217503 -196109 -180344 -171501 -169248 -172825 
3407.903 -181006 -192764 -207104 -223232 -239757 -255057 -267210 -273832 
3411.760 -272806 -262507 -242572 -214589 -182563 -152091 -129037 -118073 
3415.617 -120558 -133609 -151031 -165539 -171136 -165439 -150170 -131389 
3419.475 -116119 -109593 -113999 -126884 -142982 -156463 -163253 -162227 
3423.332 -154443 -143214 -131025 -119796 -110521 -103001 -97900 -95879 
3427.190 -98264 -106214 -120094 -139206 -161498 -184616 -205216 -220086 
3431.047 -226445 -221941 -205945 -179549 -146129 -110786 -80176 -59703 
3434.905 -53110 -61094 -81568 -110786 -144208 -177959 -208859 -233532 
3438.762 -248732 -250189 -234293 -199123 -146891 -83920 -20277 32439 65544 
3443.102 75817 66306 44998 22366 7620 5632 16501 35388 55701 70249 74823 
3448.406 68924 55271 38569 24718 19118 25646 45495 76712 114758 153139 
3453.227 185291 207137 217977 220397 219866 222087 230839 247316 270060 
3457.567 296186 322878 348577 372984 395236 414339 427274 430889 422631 
3461.906 403163 376698 349605 329543 322381 329974 350799 380512 414538 
3466.246 449397 483495 517364 551966 588129 625888 664547 703342 741476 
3470.586 778220 812410 841558 862075 870806 864731 844014 810917 770287 
3474.925 726740 683761 642347 601501 559563 516303 473710 436064 408768 
3479.265 396099 399979 418684 447739 480311 509768 530667 539458 535146 
3483.604 518592 493148 462532 432150 407143 390627 383430 382767 382966 
3487.944 377129 360482 331102 292108 249604 211347 184032 171568 174021 
3492.284 188639 210617 234652 256002 271585 279343 279310 272480 261274 
3496.623 248211 235978 227093 223314 226198 237271 258688 292075 337568 
3500.963 392981 452017 505289 542278 554288 538795 500081 447971 393147 
3505.302 344830 306465 276923 251924 228022 203987 183170 170375 170408 
3509.642 184297 207766 232563 250267 255571 248775 235149 222883 219336 
3513.982 228419 249338 276525 302453 319794 323342 311173 284781 248443 
3518.321 208164 171204 143692 130368 132788 148963 173623 198650 217347 
3522.661 224806 220861 209656 197822 190496 190098 195004 201269 204485 
3527.000 201998 194043 183468 173822 167988 166861 169911 176176 184827 
3531.340 195236 206838 217745 225734 228386 224607 216286 208098 205778 
3535.680 213966 232895 257262 278348 286936 277486 250466 212242 171800 
3540.019 138290 117708 111775 118470 134478 158277 189468 229712 279608 
3544.359 336971 395601 447108 482301 496001 487940 462067 424389 381042 
3548.698 336374 293368 255140 225137 207534 206010 221292 249968 284913 
3553.038 317440 340254 350003 347018 334815 316910 296352 274635 253151 
3557.378 233326 218375 211811 217247 236243 267540 307261 350500 392882 
3561.717 431984 467275 498555 525591 547221 562051 570113 574261 580332 
3566.057 595395 622670 657147 685421 692390 667268 609132 525193 427772 
3570.396 329245 239127 162950 101335 52122 12060 -20178 -43999 -56589 -55495 
3575.218 -40222 -13518 19483 52752 81384 103257 118602 128711 136036 142201 
3580.040 148366 155824 165867 179656 198087 221358 248841 279575 312931 
3584.380 349539 391290 440010 495702 554587 607705 642513 648287 621044 
3588.719 565070 490030 406446 324503 251725 194507 158906 149029 166729 
3593.059 209490 269496 333721 387874 421669 431287 421138 400045 378290 
3597.398 362571 354745 352390 351163 346786 338364 327852 319363 316114 
3601.738 318402 323143 325465 320524 305835 281498 250366 217314 187181 
3606.078 165536 156188 161657 181446 212772 250466 289389 326161 361278 
3610.417 398321 441835 495338 558004 623201 678485 710477 711539 683330 
3614.757 636474 584015 538297 504394 479979 456462 422565 370961 303381 
3619.096 231701 172927 139980 134876 149791 172728 193844 207667 215723 
3623.436 222717 235149 257362 291213 335910 390726 455799 533022 623665 
3627.776 722259 811647 865826 864731 809456 720533 622968 533487 459215 
3632.115 399283 347682 296916 242177 184264 129871 87151 62064 55005 59877 
3636.937 67134 67035 55105 33135 9542 -5864 -4804 14446 47317 83605 112272 
3642.241 125297 120193 99678 70846 42711 24089 24685 54343 122878 237437 
3647.063 397923 591912 790767 957236 1054809 1061984 981777 840230 673673 
3651.402 513582 379384 278249 209225 168784 151515 151482 159403 163878 
3655.742 152277 115785 54840 -21072 -97933 -164280 -212271 -239691 -248334 
3660.082 -242705 -228299 -209985 -191869 -176767 -166466 -163320 -167659 
3663.939 -178886 -192532 -202136 -198493 -172163 -115589 -24120 102628 
3667.796 259782 434107 603591 737858 807066 797705 721098 608369 493181 
3672.136 404456 362505 381009 468104 621276 815697 996953 1104335 1107690 
3676.476 1026412 903543 776095 660830 559065 463593 366782 265319 163282 
3680.815 69885 -3843 -49598 -65070 -54303 -26440 7819 38636 60506 73199 
3685.637 80589 88609 103755 131528 174784 232464 298806 364494 418419 451122 
3690.459 456628 433344 384259 315782 237636 159138 88940 33300 -4208 -23723 
3695.281 -28163 -22729 -15307 -12855 -19614 -35717 -56324 -73617 -77659 
3699.620 -60829 -19979 40127 106340 160332 185059 173060 127684 60639 -14545 
3704.442 -85146 -142618 -182861 -203825 -205117 -186272 -146858 -86206 -5897 
3708.781 89736 191755 285576 352888 375836 342077 250897 114493 -45656 
3713.121 -206309 -347370 -454791 -521481 -545011 -527173 -473260 -392262 
3716.979 -295918 -196109 -104558 -28361 29788 71906 102064 124933 144223 
3721.318 162055 179789 198153 217579 238431 259914 280470 297015 305868 
3725.658 302751 284316 249769 201501 145250 88576 40458 10768 8117 40292 
3730.479 110946 217513 347748 482301 600306 686217 735535 753325 749907 
3734.819 733544 708685 675664 633786 584546 531729 478719 427506 377826 
3739.159 327554 275331 221988 171137 130103 106870 110317 146974 218143 
3743.498 314555 415169 494276 537966 553558 558966 570113 594665 633189 
3747.838 681538 733477 781074 818054 839499 842055 821871 774900 699326 
3752.177 599609 486647 374841 276160 198849 145979 116780 108825 119133 
3756.517 145615 186551 240089 302751 367048 422001 455002 455865 422266 
3760.857 360515 283852 206142 139417 91128 63290 53249 55072 60705 63423 
3765.678 61269 57425 59048 72635 101368 142996 188838 224508 234785 210982 
3770.500 154299 75552 -10238 -90347 -157623 -209952 -248831 -276680 -294892 
3774.840 -302772 -297839 -276746 -237042 -179052 -106413 -26970 48444 106704 
3779.179 137461 135638 104550 53614 -4705 -58510 -98032 -116583 -110885 
3783.519 -83290 -41813 1093 32240 42115 28960 -1656 -40024 -76135 -102537 
3788.341 -116483 -119630 -116318 -110322 -103995 -97436 -89518 -79216 -67290 
3792.680 -55595 -46318 -40123 -35319 -28063 -14081 9178 40359 73729 102926 
3797.502 124502 140411 157912 187280 237735 313693 408337 501872 563611 
3801.842 570943 523435 441005 349572 271187 220563 205148 226397 278116 
3806.181 345394 404357 431719 416363 362273 283918 198054 118569 53713 6792 
3811.003 -22364 -36744 -39228 -31211 -11663 22896 75088 144621 223911 298275 
3815.825 351429 375869 378754 378058 393578 437457 512952 611289 711075 
3820.165 777655 776792 695443 556312 403063 274933 192054 155525 156487 
3824.504 181844 218176 252389 274071 278481 266578 245327 223811 210551 
3828.844 210982 226729 254974 289820 323475 348080 359586 359089 351595 
3833.183 343968 342442 350964 371657 406148 455865 522606 606013 700952 
3837.523 794584 867885 902746 888702 828909 738223 637403 544136 468967 
3841.863 413444 371160 331533 284548 225171 155227 82312 16070 -34888 -64772 
3846.684 -71232 -54137 -15075 43440 117277 202197 294064 390162 490826 
3851.024 600041 723719 866191 1019371 1156790 1239921 1242745 1170711 
3854.881 1050126 909155 767133 634914 516999 413742 324304 247217 181977 
3859.221 130037 93448 75220 77341 100672 143759 203391 275165 353551 431354 
3864.043 499053 546425 566066 557672 529406 493546 463660 450956 460873 
3868.382 491291 529539 556610 553525 515838 455666 394076 349008 328780 
3872.722 333025 353153 375173 384956 374808 346421 309151 274370 251991 
3877.062 248543 267341 308322 368010 438584 506882 557904 580266 572668 
3881.401 544965 514279 497660 506782 545198 606179 673872 722392 727238 
3885.741 677755 584911 475070 376532 308720 279277 287466 327222 388504 
3890.080 457756 519852 561819 575588 560724 523501 473942 421304 372984 
3894.420 333887 305735 288593 280570 279940 285178 296054 313992 341083 
3898.760 378787 426511 480875 536207 585608 623201 644039 643973 619982 
3903.099 571275 501275 418784 336540 268170 222949 203324 205446 222286 
3907.439 245360 267772 285941 299402 309482 317573 323309 323939 315915 
3911.778 296418 266512 231602 200341 182076 183767 208131 252720 309748 
3916.118 368341 418087 450823 462764 453444 425284 381606 327819 272016 
3920.458 223646 192816 187380 210418 258787 323541 391157 446346 476729 
3924.797 477624 452847 412913 370563 336838 318534 318568 336308 368341 
3929.137 409796 454472 496034 528511 547553 551004 539624 516435 485718 
3933.476 451818 417756 385320 354878 326658 300099 275364 252753 232961 
3937.816 217446 208164 207833 218872 242940 279641 325862 375703 420641 
3942.156 453145 467507 462631 442631 413842 382568 353020 326990 304177 
3946.495 283653 264689 247250 232265 220496 212507 208562 208761 213468 
3950.835 223314 238995 260047 284814 310145 332130 347184 353518 350732 
3955.174 340983 326658 310212 293766 278249 264655 254345 249338 251593 
3959.514 262169 280603 304409 330041 353319 371094 381540 385188 382236 
3963.854 373680 359852 341016 318070 293070 269297 250532 239393 236774 
3968.193 240719 247813 253781 256035 253847 249272 245592 246487 253748 
3972.533 267540 286239 306399 324536 337601 343769 342741 335313 324304 
3976.872 312599 303647 300331 303912 313892 328449 345128 361377 376002 
3981.212 388968 400974 412648 423659 432415 437490 437656 433377 426478 
3985.552 420309 417955 421172 429496 440840 452216 461006 465484 465418 
3989.891 461371 454074 444123 432017 418784 406612 398089 395469 400145 
3994.231 410824 424356 436196 442730 442896 438452 433344 431719 436462 
3998.570 447042 460044 470360 473677 467839 
##END=
