##TITLE=trecemas_1 Sep 24 07:37:10 2026 (GMT+02:00)
##JCAMP-DX=5.01  $$ Nicolet v. 970
##DATATYPE=INFRARED SPECTRUM
##ORIGIN=Vojna akademija
##OWNER=Nicolet
##LONGDATE=2026/09/24
##TIME=07:37:42
##SPECTROMETER/DATA SYSTEM=Nicolet iS20
##DATA PROCESSING=
Ratio against background
%Transmittance->Absorbance
Truncated
ElementMultiply or ElementDivide
##COMMENTS=
Number of sample scans: 8
Collection length: 11,90 sec
Sample gain: 8,0
Background collected on: Thu Sep 24 07:36:03 2026 (GMT+02:00);
Number of background scans: 8
Background gain: 8,0
Sample spacing:  1,000
Number of scan points: 12415
Resolution points: 8286
Number of FFT points: 65536
Apodization: N-B strong;
Phase correction: Mertz;
Laser frequency: 15798,00 cm-1
Number of rejected sample scans: 0
Number of rejected background scans: 0
Bench serial number: BER2010005;
##RESOLUTION= 4,000
##XUNITS=1/CM
##YUNITS=ABSORBANCE
##FIRSTX=400.156891
##LASTX=4000.123047
##FIRSTY=0.000788
##MAXX=4000.123047
##MINX=400.156891
##MAXY=0.235860
##MINY=-0.002496
##XFACTOR=1.000000
##YFACTOR=1.000000E-009
##NPOINTS=7468
##DELTAX=0.482117
##ZPD=6100
##XYDATA=(X++(Y..Y))
400.157 788277 6402300 11082459 14441401 16280914 16697211 16035918 14807872 
404.014 13548896 12696978 12561657 13245584 14658113 16551103 18615316 
407.389 20532100 22017398 22880586 23028386 22518724 21559792 20486456 
410.763 19648774 19306462 19568352 20345388 21378206 22292090 22753542 
414.138 22550028 21651902 20173262 18320336 16330831 14446778 12978910 
417.513 12286538 12714480 14395502 17029648 19910802 22285532 23757988 
420.888 24308002 24158294 23598640 22920824 22362552 22077846 22133140 
424.263 22487458 23020560 23574118 24017640 24271630 24314520 24173112 
427.638 23903880 23578140 23258342 22988522 22774738 22582450 22339144 
431.012 21963792 21397976 20632538 19720818 18762916 17876378 17153962 
434.387 16650937 16371772 16279159 16307367 16391074 16489323 16591584 
437.762 16713981 16888940 17151272 17530594 18049458 18714622 19511270 
441.137 20388898 21257760 22007570 22523402 22730778 22619730 22245040 
444.512 21697284 21072996 20453598 19891548 19423528 19078522 18873294 
447.886 18806198 18840420 18900634 18877136 18663636 18193720 17482576 
451.261 16643018 15871027 15386822 15326784 15691014 16332516 17036644 
454.636 17585418 17844752 17793554 17513278 17144860 16824286 16628146 
458.011 16543601 16504329 16460793 16428616 16481716 16701689 17122078 
461.386 17691630 18270362 18681932 18771184 18491310 17923818 17253140 
464.761 16682476 16381716 16436497 16831072 17464674 18191164 18879592 
468.135 19435446 19819372 20029798 20082196 19995482 19791836 19501254 
471.510 19157534 18790248 18406990 17980762 17459154 16793738 15973659 
474.885 15041608 14089374 13231921 12588328 12233540 12177652 12356418 
478.260 12658563 12953477 13135330 13148239 12980856 12660201 12234290 
481.635 11765081 11316377 10947538 10710864 10640332 10746662 11009351 
485.009 11385658 11817411 12253205 12666102 13054705 13436308 13831348 
488.384 14249173 14678163 15086889 15426680 15646461 15698195 15541982 
491.759 15156672 14545101 13743344 12820772 11881187 11038852 10395613 
495.134 10034033 9989716 10250694 10751145 11390930 12054108 12639187 
498.509 13089945 13394583 13584586 13713968 13844415 14019831 14246058 
501.884 14483090 14653795 14670314 14465962 14027155 13397384 12670810 
505.258 11955088 11350455 10909346 10617718 10395207 10128818 9721543 
508.633 9129889 8386564 7587556 6860631 6314108 6014294 5963063 6108843 
512.490 6368777 6667422 6962604 7246834 7536880 7852187 8196930 8553267 
516.347 8889503 9176689 9407043 9599713 9788808 10004093 10253273 10513153 
520.204 10740412 10885359 10915598 10827538 10647633 10422662 10209646 
523.579 10061330 10007720 10051191 10160801 10281296 10344067 10294732 
526.954 10113657 9825919 9495595 9207182 9048753 9080387 9322876 9745263 
530.811 10274239 10805254 11237585 11505744 11588634 11513501 11336952 
534.185 11129335 10947878 10827198 10777808 10793059 10861102 10974824 
537.560 11135725 11347291 11606806 11899337 12194962 12457508 12657369 
540.935 12780095 12833399 12840907 12830975 12817086 12786612 12697455 
544.310 12495154 12132230 11600749 10949271 10289405 9761596 9493123 9560691 
548.167 9955880 10587806 11300835 11931078 12336408 12444209 12265202 
551.542 11879927 11405182 10949916 10600266 10396734 10340267 10404845 
554.916 10554908 10756138 10981791 11214974 11442193 11653977 11843900 
558.291 12010744 12160171 12302456 12449154 12606304 12771461 12930946 
561.666 13065598 13155206 13186458 13159817 13091174 13010592 12955218 
565.041 12963992 13064471 13263041 13538470 13845270 14121822 14308617 
568.416 14371425 14317144 14196928 14088587 14079073 14230445 14560314 
571.790 15039311 15602667 16173633 16681544 17084408 17369206 17547948 
575.165 17643938 17687938 17711994 17747612 17829838 17989120 18241854 
578.540 18581044 18971310 19353368 19656538 19829846 19858668 19775330 
581.915 19640488 19520246 19454124 19438774 19432538 19378348 19234902 
585.290 18997928 18707358 18430566 18236912 18164456 18210376 18331984 
588.665 18471882 18577206 18623826 18621784 18607016 18620020 18686016 
592.039 18801494 18935520 19042792 19080702 19027698 18887934 18688296 
595.414 18466764 18262830 18103274 17993160 17917188 17845132 17745748 
598.789 17597630 17401072 17180056 16975828 16826422 16751619 16738465 
602.164 16744938 16709333 16576301 16318858 15952691 15534461 15145624 
605.539 14871608 14770298 14861185 15123083 15508363 15953688 16399918 
608.913 16803622 17132178 17364790 17487094 17489682 17373102 17152824 
612.288 16862830 16548350 16261065 16045235 15926156 15906874 15965307 
615.663 16062668 16147634 16170986 16098255 15915604 15637049 15300287 
619.038 14960390 14666750 14454109 14325396 14254275 14191655 14086362 
622.413 13910509 13670608 13412148 13202238 13110468 13175801 13393797 
625.788 13714447 14065211 14371767 14586183 14698384 14730192 14717339 
629.162 14687073 14647798 14586869 14481685 14315329 14091633 13837950 
632.537 13602261 13433848 13373465 13439761 13626399 13906540 14243353 
635.912 14602426 14956241 15289132 15594836 15871439 16116204 16321506 
639.287 16472081 16547903 16527181 16395686 16155235 15831266 15471279 
642.662 15136910 14895748 14801528 14882753 15137218 15533878 16018797 
646.036 16526012 16993468 17362754 17588212 17641938 17517002 17234248 
649.411 16841440 16411584 16021824 15737908 15600435 15613246 15750071 
652.786 15968023 16230348 16517820 16835860 17202324 17631758 18116850 
656.161 18621820 19086690 19450104 19666490 19722586 19639068 19463654 
659.536 19256376 19070108 18947946 18918908 19000766 19205428 19534110 
662.911 19973590 20489894 21036860 21564492 22030436 22414218 22711958 
666.285 22937066 23112246 23266032 23420956 23583772 23749974 23914838 
669.660 24083898 24270752 24486890 24738242 25023718 25338180 25674806 
673.035 26029598 26404116 26801372 27218888 27643232 28047916 28402566 
676.410 28686036 28900484 29075074 29262318 29520460 29891754 30391420 
679.785 31001144 31678762 32367148 33016152 33593064 34083780 34490960 
683.159 34828188 35116924 35381664 35648252 35939120 36266272 36629140 
686.534 37014616 37405160 37785752 38156664 38534656 38948716 39425028 
689.909 39974516 40583624 41219352 41837004 42396856 42878612 43282268 
693.284 43623684 43923352 44198024 44455988 44701764 44941096 45184576 
696.659 45446216 45736688 46055688 46390996 46722392 47034400 47326012 
700.034 47615124 47932248 48310372 48766968 49297416 49873032 50454404 
703.408 51003052 51494532 51924348 52303424 52650964 52985564 53326344 
706.783 53692432 54105176 54589736 55166624 55843140 56606656 57425784 
710.158 58256724 59059604 59816824 60539440 61265668 62045164 62925020 
713.533 63931524 65064556 66299268 67598824 68925504 70247912 71549792 
716.908 72825160 74077968 75318400 76559464 77811288 79072696 80320200 
720.282 81504264 82553328 83382336 83920328 84122760 83979336 83507016 
723.657 82737256 81701016 80422384 78927200 77251680 75447488 73583784 
727.032 71728048 69931744 68223272 66605084 65066480 63598476 62202516 
730.407 60890244 59672536 58545580 57483532 56441508 55370732 54231712 
733.782 53011428 51721368 50390100 49045464 47705384 46376952 45063516 
737.156 43777504 42546444 41407496 40396240 39528736 38791852 38143132 
740.531 37527748 36895740 36218872 35499332 34762172 34039704 33354420 
743.906 32711696 32099284 31499524 30897780 30292394 29692674 29112524 
747.281 28561032 28037418 27531874 27032734 26533182 26036210 25552810 
750.656 25096904 24678232 24298400 23953772 23640798 23363226 23134996 
754.031 22974620 22897736 22904302 22972558 23056862 23098374 23044598 
757.405 22860820 22546050 22131152 21674576 21242172 20890884 20656410 
760.780 20542000 20522164 20551448 20583618 20580944 20526888 20428244 
764.155 20310282 20206308 20144422 20139770 20189438 20274072 20361706 
767.530 20419562 20416368 20328478 20143588 19860574 19491238 19059722 
770.905 18604388 18170434 17800010 17523452 17345652 17244486 17174126 
774.279 17083202 16927834 16688226 16374525 16021926 15674148 15365778 
777.654 15111728 14903910 14719155 14532801 14332588 14125211 13934150 
781.029 13787258 13706821 13697622 13744986 13817186 13875339 13885261 
784.404 13822660 13678472 13457566 13175699 12854081 12518139 12194417 
787.779 11905467 11670246 11500470 11399332 11362324 11378719 11433654 
791.154 11508908 11585945 11646625 11674023 11656325 11588566 11476281 
794.528 11334775 11189644 11070325 11001705 11000957 11071209 11203346 
797.903 11376270 11564167 11739072 11874990 11952500 11959652 11895217 
801.278 11770120 11609972 11451140 11332429 11289578 11342360 11491217 
804.653 11715108 11979168 12241378 12460168 12606065 12661736 12624792 
808.028 12505350 12325943 12117511 11914968 11753881 11659388 11639614 
811.402 11682362 11760417 11838146 11885307 11889461 11859087 11819862 
814.777 11801782 11827591 11901789 12010539 12127358 12227371 12298196 
818.152 12344146 12383555 12441005 12535157 12671356 12841726 13029200 
821.527 13216789 13392054 13551392 13698340 13840413 13985303 14140888 
824.902 14315020 14514814 14745309 15004976 15283125 15556818 15795426 
828.277 15969122 16055446 16048640 15960151 15816009 15644880 15474301 
831.651 15324931 15210544 15142742 15133238 15192528 15326818 15532229 
835.026 15791131 16071264 16335234 16548866 16690223 16756820 16763570 
838.401 16738808 16712535 16712844 16761262 16870202 17043882 17277964 
841.776 17558920 17862496 18158308 18414528 18604700 18717770 18760494 
845.151 18755894 18732368 18715868 18720710 18747660 18787586 18829970 
848.525 18868554 18904164 18941750 18984566 19030086 19069968 19093926 
851.900 19096422 19081324 19062560 19058508 19083714 19144238 19235490 
855.275 19346752 19466564 19588318 19710798 19832932 19947330 20035384 
858.650 20069356 20022512 19879722 19649812 19365666 19081394 18854020 
862.025 18726592 18718808 18820594 18997478 19202554 19395324 19549186 
865.400 19659626 19740306 19816458 19913750 20047460 20217346 20405462 
868.774 20581916 20710342 20762370 20725148 20606932 20434566 20247410 
872.149 20084590 19971060 19915518 19909414 19935534 19976610 20024420 
875.524 20080218 20150044 20237272 20335110 20425222 20484094 20489616 
878.899 20431128 20312782 20151362 19968526 19783028 19608630 19453362 
882.274 19324094 19231716 19189602 19210762 19299778 19447852 19631094 
885.648 19816596 19974042 20084590 20147788 20179894 20205198 20244424 
889.023 20306048 20383618 20460336 20514974 20530258 20498368 20419526 
892.398 20300040 20148308 19975742 19795824 19625650 19486248 19396468 
895.773 19368438 19401144 19478658 19572478 19649086 19683962 19666490 
899.148 19605164 19522394 19447574 19404402 19402738 19434894 19480288 
902.523 19510854 19501496 19439362 19326934 19182468 19033236 18910912 
905.897 18840974 18836822 18897276 19008208 19146384 19284188 19397818 
909.272 19470308 19494184 19470654 19408282 19320076 19220424 19124640 
912.647 19045942 18993462 18970894 18975704 18998758 19027974 19052070 
916.022 19063148 19059064 19043000 19019112 18989966 18954384 18906552 
919.397 18840420 18753784 18651148 18543594 18445814 18371042 18326248 
922.771 18310796 18318020 18339208 18365718 18390952 18409238 18413906 
926.146 18395756 18346672 18263072 18151570 18032430 17936732 17896610 
929.521 17936768 18064724 18268014 18516450 18773052 19006062 19195420 
932.896 19337190 19440194 19519102 19586410 19648878 19707192 19758268 
936.271 19799118 19829116 19851210 19872090 19901192 19950348 20034206 
939.646 20167188 20359138 20611622 20913552 21241406 21563726 21853426 
943.020 22093184 22285324 22448028 22609678 22793838 23009310 23245932 
946.395 23479360 23681736 23833448 23932132 23993128 24041172 24098678 
949.770 24177946 24277656 24386780 24492042 24586214 24671638 24758622 
953.145 24859204 24981706 25128114 25294662 25476032 25669040 25875112 
956.520 26098698 26343170 26607544 26884448 27161390 27424180 27659228 
959.894 27856778 28010594 28117832 28178956 28198332 28185958 28155446 
963.269 28123170 28102704 28099804 28110940 28125044 28128898 28114580 
966.644 28083438 28047244 28022716 28022538 28049010 28090648 28126740 
970.019 28132292 28089340 27992958 27852010 27685360 27515210 27361430 
973.394 27235750 27142202 27078190 27038024 27015740 27007700 27013976 
976.768 27038730 27088488 27170278 27288072 27438966 27611806 27787610 
980.143 27946348 28071704 28158240 28213820 28256322 28304874 28369458 
983.518 28445654 28513264 28545886 28520552 28430582 28289774 28129710 
986.893 27985748 27887622 27848866 27864446 27916736 27984724 28053322 
990.268 28116454 28176448 28238606 28306538 28379610 28454108 28526248 
993.643 28595322 28661896 28725998 28784236 28826722 28842372 28824528 
997.017 28776552 28713858 28660410 28640942 28669116 28742886 28843648 
1000.392 28946100 29027002 29076350 29101966 29126306 29176482 29272986 
1003.767 29422660 29615940 29831134 30041852 30228164 30380688 30502448 
1007.142 30605468 30705600 30815746 30940936 31077376 31214460 31339090 
1010.517 31441990 31523072 31594620 31679154 31800494 31975650 32204468 
1013.891 32466684 32723486 32929968 33052266 33077362 33022304 32928072 
1017.266 32851052 32841328 32932646 33134938 33435538 33804864 34205972 
1020.641 34604156 34967396 35270708 35498216 35644116 35717136 35741060 
1024.016 35753256 35792296 35889704 36058700 36289612 36552864 36809248 
1027.391 37023488 37170984 37243216 37244696 37188056 37088660 36962876 
1030.766 36831320 36715744 36639200 36618148 36654448 36731100 36813900 
1034.142 36864176 36847660 36750072 36580476 36367352 36143676 35936204 
1037.517 35756100 35599088 35452088 35302624 35145272 34982340 34819428 
1040.892 34660384 34505204 34352516 34205328 34076216 33986384 33959648 
1044.267 34013220 34149408 34353304 34597804 34856156 35108088 35347480 
1047.643 35578372 35807984 36038724 36266416 36484716 36693172 36906164 
1051.018 37151348 37460016 37855268 38337112 38881020 39440740 39967504 
1054.393 40426968 40808584 41127224 41410848 41688096 41973732 42266020 
1057.768 42550424 42810412 43032608 43212900 43352776 43457352 43533716 
1061.144 43592764 43654896 43747160 43901464 44142012 44471476 44864856 
1064.519 45269736 45625676 45877416 45999144 46000908 45926176 45833596 
1067.894 45776816 45795856 45906656 46108300 46390368 46742096 47153976 
1071.269 47616824 48119736 48647908 49187744 49734164 50294700 50890604 
1074.645 51548476 52292140 53130716 54056392 55046852 56075844 57120012 
1078.020 58163976 59200692 60224284 61229080 62210968 63173048 64132152 
1081.395 65117172 66163420 67293360 68503208 69756040 70992992 72147512 
1084.770 73172896 74060168 74840400 75570496 76311296 77113032 78000392 
1088.146 78977312 80034704 81159696 82337320 83545928 84753568 85913240 
1091.521 86973344 87893928 88656184 89271432 89767752 90174672 90502920 
1094.896 90738824 90851584 90815888 90626832 90310408 89910256 89471256 
1098.271 89016760 88541688 88019984 87426368 86756352 86035856 85310552 
1101.647 84629696 84023600 83492160 83010008 82542464 82067936 81587576 
1105.022 81126784 80719680 80396152 80168616 80032072 79973752 79985864 
1108.397 80074144 80257104 80556272 80986824 81548112 82226064 82997976 
1111.772 83842912 84747080 85699952 86688704 87689888 88667040 89579240 
1115.148 90390288 91078448 91640584 92084808 92418104 92636976 92723472 
1118.523 92653584 92406992 91975912 91368232 90600704 89694016 88666384 
1121.898 87538216 86340368 85115416 83921776 82819920 81855096 81050152 
1125.273 80399104 79878168 79461392 79139728 78930496 78875224 79023096 
1128.649 79417760 80082352 81016408 82204576 83629032 85282168 87166928 
1132.024 89291048 91653840 94234336 96992152 99871624 102816040 105784568 
1135.399 108751864 111704432 114628752 117500848 120285848 122948992 
1138.292 125466736 127835496 130068112 132179168 134167536 136007392 
1141.185 137653104 139060976 140207648 141107616 141805776 142367968 
1144.078 142854416 143305152 143742240 144175744 144617728 145090416 
1146.971 145621488 146234128 146935680 147713248 148537584 149377120 
1149.864 150210992 151031216 151838384 152631072 153396416 154112480 
1152.757 154759072 155332208 155851808 156358896 156897664 157491472 
1155.651 158133344 158784496 159394752 159920016 160343920 160676496 
1158.544 160942208 161156672 161314160 161385840 161337744 161147744 
1161.437 160820512 160382928 159869840 159299488 158661424 157917904 
1164.330 157024160 155952016 154704336 153314944 151834512 150310464 
1167.223 148769472 147220944 145664944 144106480 142562400 141057328 
1170.116 139608208 138214096 136850976 135480240 134063304 132581440 
1173.009 131039176 129459488 127866104 126270768 124666680 123037784 
1175.902 121371632 119675720 117978352 116321976 114741672 113250824 
1178.795 111834080 110457704 109083672 107689400 106277576 104872272 
1181.688 103505176 102199304 100962600 99788024 98662896 97578432 96534184 
1185.063 95534608 94579872 93658552 92745952 91811568 90833776 89809112 
1188.439 88755400 87704312 86689144 85729704 84826064 83961688 83114240 
1191.814 82265552 81409136 80549448 79696048 78855312 78026960 77204976 
1195.189 76384216 75565608 74759120 73979312 73239216 72543880 71888368 
1198.564 71259056 70641696 70027896 69418224 68821832 68251384 67719240 
1201.940 67232584 66793500 66399792 66046560 65726764 65430588 65147540 
1205.315 64866380 64580164 64289920 64006852 63748792 63533344 63371180 
1208.690 63259392 63183084 63119552 63049592 62964396 62868036 62772764 
1212.065 62691948 62631972 62588952 62552676 62514140 62472972 62439492 
1215.441 62430584 62460116 62532932 62640548 62765992 62892696 63014232 
1218.816 63137716 63280784 63460520 63685252 63948764 64232788 64514624 
1222.191 64778984 65023140 65256424 65492496 65741336 66002740 66268816 
1225.566 66528260 66774996 67012504 67251928 67504448 67774352 68054856 
1228.942 68331304 68588872 68819656 69027608 69225440 69426504 69636144 
1232.317 69847480 70043776 70208256 70330384 70413096 70468360 70511496 
1235.692 70550400 70581696 70591096 70561472 70479616 70341952 70153352 
1239.067 69922600 69656408 69355760 69018096 68642784 68233936 67802704 
1242.443 67361656 66918640 66470720 66004248 65498740 64936020 64308396 
1245.818 63622220 62894992 62147384 61398960 60661308 59938412 59231148 
1249.193 58540616 57870976 57229320 56623036 56058728 55540824 55072128 
1252.568 54655868 54295836 53995004 53751564 53556572 53393064 53237224 
1255.943 53067364 52867252 52632300 52368612 52089280 51808192 51534040 
1259.319 51270348 51017284 50775548 50549276 50345260 50170200 50025628 
1262.694 49905592 49797664 49686424 49560284 49412712 49242524 49051992 
1266.069 48842080 48611072 48356112 48076464 47776656 47467996 47167496 
1269.444 46891304 46652220 46455188 46298244 46173228 46071348 45984848 
1272.820 45908532 45839156 45774352 45711400 45648200 45583424 45517408 
1276.195 45450556 45382060 45306404 45214652 45094396 44934816 44730520 
1279.570 44483040 44199564 43889040 43557012 43202692 42820356 42402812 
1282.945 41947384 41459076 40951216 40440460 39942800 39468424 39019976 
1286.321 38594876 38189804 37804408 37443624 37116920 36835360 36609460 
1289.696 36444896 36342496 36297144 36299228 36333128 36379640 36418592 
1293.071 36429504 36398808 36322284 36207704 36071556 35935196 35818668 
1296.446 35732496 35676920 35642856 35617068 35586568 35543776 35486712 
1299.822 35417036 35337632 35250552 35157056 35058804 34959424 34864376 
1303.197 34779008 34706144 34643660 34585424 34522784 34449636 34364312 
1306.572 34271584 34179376 34096180 34026800 33971188 33926120 33887716 
1309.947 33854720 33828968 33813388 33809304 33813636 33818152 33812992 
1313.323 33789280 33743836 33678880 33600900 33515208 33424948 33329662 
1316.698 33227674 33120774 33014618 32918494 32842152 32788444 32751746 
1320.073 32716270 32664292 32579996 32455508 32292544 32099496 31886562 
1323.448 31660338 31422828 31172024 30905892 30626054 30339292 30056766 
1326.824 29791246 29552946 29347178 29175314 29035220 28923928 28838796 
1330.199 28777332 28735628 28708194 28688548 28670956 28654002 28641792 
1333.574 28644518 28674248 28742460 28856574 29018004 29224004 29470670 
1336.949 29755050 30075906 30431186 30813648 31206378 31585212 31923652 
1340.325 32203720 32423232 32595280 32741208 32881216 33029418 33190690 
1343.700 33362794 33540546 33720560 33903476 34093744 34295928 34511052 
1347.075 34734068 34954508 35158636 35333964 35473120 35574196 35639872 
1350.450 35675304 35686812 35681056 35665376 35648144 35636996 35637748 
1353.826 35652316 35678396 35711020 35745016 35778116 35810716 35845260 
1357.201 35883404 35923500 35961148 35991672 36013380 36030404 36052872 
1360.576 36093232 36159632 36250024 36349628 36436068 36488680 36501472 
1363.951 36484608 36459016 36443452 36447344 36468136 36494336 36511240 
1367.327 36509436 36490948 36471160 36472788 36515780 36611080 36757136 
1370.702 36944836 37164088 37412384 37697456 38037260 38452072 38955820 
1374.077 39543764 40190684 40854156 41487144 42046620 42488636 42769020 
1377.452 42841528 42661828 42206604 41483424 40535828 39426404 38224100 
1380.828 36984304 35742248 34523032 33345978 32230162 31193776 30246032 
1384.203 29383410 28588740 27835936 27097764 26355316 25607214 24868920 
1387.578 24165476 23519512 22941294 22429954 21978604 21579640 21226932 
1390.953 20915118 20638722 20390912 20165906 19961066 19780774 19636362 
1394.328 19542324 19507804 19530954 19598960 19695854 19809348 19935014 
1397.704 20074180 20228698 20395218 20563330 20718858 20850800 20955486 
1401.079 21035746 21095812 21136234 21149766 21121868 21034112 20874092 
1404.454 20643520 20364034 20068974 19794854 19566930 19395464 19280344 
1407.829 19218832 19212562 19271580 19412440 19652484 20002978 20462524 
1411.205 21017002 21642916 22316958 23017660 23728836 24437394 25128712 
1414.580 25787130 26397884 26946704 27424602 27822934 28129320 28321852 
1417.955 28369458 28245748 27953980 27543100 27090958 26665144 26303036 
1421.330 26007082 25760162 25538822 25326482 25121232 24939732 24810014 
1424.706 24759150 24799630 24926958 25127624 25391642 25719344 26122556 
1428.081 26619450 27223756 27934120 28728514 29569438 30415052 31234934 
1431.456 32012954 32748244 33448278 34123708 34785792 35447848 36126176 
1434.831 36841024 37612504 38446716 39317028 40164408 40921652 41549340 
1438.207 42048628 42449864 42791104 43109448 43432416 43775928 44141900 
1441.582 44520408 44893844 45244292 45561860 45846960 46110472 46367844 
1444.957 46637500 46937008 47283044 47693884 48187332 48776308 49463508 
1448.332 50238384 51082912 51984548 52943676 53975608 55103572 56345828 
1451.708 57702396 59148596 60644012 62137980 63594296 64996244 66338568 
1455.083 67618888 68814616 69866432 70681504 71192024 71422440 71474664 
1458.458 71465872 71460640 71476888 71513768 71569984 71648520 71755568 
1461.833 71893688 72056320 72222480 72358000 72413464 72329976 72050808 
1465.209 71517352 70672688 69463752 67837832 65769904 63273848 60412808 
1468.584 57272040 53948072 50514176 46977504 43300312 39422016 35334112 
1471.959 31168464 27218500 23816822 21140304 19148392 17661640 16478516 
1475.334 15462661 14546609 13717764 12986148 12357748 11821326 11352019 
1478.710 10924398 10521571 10138348 9778641 9447575 9146030 8867690 8603486 
1482.567 8347347 8101047 7871959 7669531 7499021 7358232 7237771 7124955 
1486.424 7010114 6890321 6769148 6651979 6539247 6423216 6290474 6133307 
1490.282 5959334 5789158 5644055 5534437 5457259 5400155 5348829 5292176 
1494.139 5226676 5157465 5096277 5055881 5040763 5040227 5033355 4997959 
1497.997 4925769 4824172 4711278 4605345 4517985 4452603 4405840 4372135 
1501.854 4347770 4332007 4326351 4331505 4346666 4366244 4381473 4380703 
1505.712 4352589 4292251 4206828 4110885 4013927 3914616 3810615 3705303 
1509.569 3608635 3533468 3489410 3480692 3501368 3537143 3570182 3587287 
1513.426 3583445 3562097 3532399 3505008 3488742 3487873 3501501 3524315 
1517.284 3550739 3576195 3597343 3609571 3605161 3574725 3509818 3412059 
1521.141 3298496 3199850 3140539 3122785 3129993 3141073 3142075 3127323 
1524.999 3100725 3071359 3048902 3036523 3029717 3018973 2996352 2959987 
1528.856 2914619 2867488 2825098 2789281 2757602 2725192 2688116 2648377 
1532.714 2616009 2604508 2621542 2659745 2701253 2728093 2732027 2714956 
1536.571 2687316 2664879 2666513 2709488 2799219 2915887 3005761 3009064 
1540.428 2904245 2733061 2561911 2441539 2387396 2389262 2425579 2472662 
1544.286 2511552 2528982 2520750 2488224 2435875 2368372 2290422 2207823 
1548.143 2129368 2067740 2037878 2049729 2103830 2189240 2289323 2387629 
1552.001 2472995 2537480 2574376 2579643 2552412 2498088 2426545 2350283 
1555.858 2278131 2213484 2153709 2091878 2021933 1953330 1920747 1964114 
1559.715 2081290 2231802 2378601 2501287 2592342 2648011 2668680 2656878 
1563.573 2619642 2566743 2510585 2461832 2424846 2397691 2373536 2344620 
1567.430 2305178 2252484 2189806 2126305 2074732 2045268 2039443 2050329 
1571.288 2068173 2084686 2095906 2101200 2103298 2106194 2115550 2135695 
1575.145 2167628 2205858 2239695 2258813 2260778 2251085 2238896 2231069 
1579.003 2230469 2236431 2246789 2259246 2272835 2289489 2312540 2345552 
1582.860 2389928 2443138 2499354 2551212 2591742 2616709 2624742 2616475 
1586.717 2592709 2553778 2500521 2435775 2365508 2299515 2247722 2216349 
1590.575 2205658 2208922 2215383 2214783 2202062 2179583 2156173 2142121 
1594.432 2144186 2161501 2185377 2203094 2204126 2185411 2152011 2114385 
1598.290 2084120 2069837 2074199 2095107 2127970 2168727 2215150 2266307 
1602.147 2321201 2375735 2423013 2455467 2467363 2459166 2436141 2407620 
1606.005 2381865 2364341 2355513 2352082 2349816 2346951 2345885 2351948 
1609.862 2370638 2404521 2451202 2505086 2559044 2608508 2652911 2694518 
1613.719 2737129 2782445 2827499 2864086 2879362 2861485 2808957 2734795 
1617.577 2660145 2600575 2563244 2546579 2545579 2554845 2571010 2592375 
1621.434 2618775 2651011 2690017 2736429 2789648 2848744 2912017 2976801 
1625.292 3039626 3096154 3142208 3174750 3194576 3207060 3221080 3244747 
1629.149 3281169 3326742 3372921 3409220 3427121 3421811 3393058 3343637 
1633.006 3278531 3204089 3127657 3058913 3011699 3001423 3036257 3111371 
1636.864 3211466 3320332 3427121 3526721 3616754 3696480 3766195 3827061 
1640.721 3882120 3936182 3995635 4066534 4154037 4261098 4388937 4536065 
1644.579 4699889 4877749 5067045 5264304 5461923 5646673 5802119 5915096 
1648.436 5980430 5999377 5976366 5917581 5828446 5718782 5606293 5522658 
1652.294 5523463 5661812 5924601 6207918 6414372 6519738 6544528 6514929 
1656.151 6449077 6358521 6250707 6133677 6015470 5903239 5802791 5716365 
1660.008 5643316 5580382 5523766 5469707 5414414 5354800 5287849 5211083 
1663.866 5125110 5033221 4942156 4859621 4795460 4758743 4757303 4795091 
1667.723 4871080 4975838 5091618 5197334 5275104 5317600 5327629 5313776 
1671.581 5284663 5246898 5206086 5168731 5141773 5133793 5150893 5193176 
1675.438 5252533 5317029 5378953 5438603 5502155 5577261 5668493 5774114 
1679.296 5884934 5987015 6066472 6116169 6137138 6138718 6134047 6136836 
1683.153 6160495 6212858 6290441 6379233 6465623 6546580 6625568 6707632 
1687.010 6795870 6892577 7000248 7121182 7257649 7409965 7574574 7744204 
1690.868 7910087 8064455 8204122 8331978 8456022 8589360 8747079 8944293 
1694.725 9188602 9470229 9756174 10004432 10187258 10305216 10375931 
1698.100 10425446 10482059 10581457 10765105 11055675 11427871 11813835 
1701.476 12152504 12417239 12610806 12748156 12848176 12933029 13026264 
1704.851 13151621 13321768 13532591 13764890 13997143 14215689 14418759 
1708.226 14612535 14805608 15003638 15208107 15417376 15631039 15852710 
1711.601 16091859 16360452 16668599 17018830 17403624 17805742 18206780 
1714.977 18600480 19004054 19461992 20029556 20750030 21612304 22541654 
1718.352 23436728 24232844 24931100 25583384 26255304 27011086 27901190 
1721.727 28960586 30206814 31639558 33244412 34998784 36881132 38876272 
1725.102 40974484 43171032 45469284 47888888 50477068 53311208 56485468 
1728.478 60078944 64108184 68493312 73072752 77652776 82128304 86565824 
1731.853 91265688 96748840 103702440 112689872 123589008 135262976 146105328 
1735.228 155149632 162463168 168667488 174411696 180174656 186237200 
1738.121 192705360 199507792 206436752 213173568 219381280 224788048 
1741.014 229204096 232514304 234677952 235743424 235859744 235236800 
1743.907 234073568 232451824 230312160 227495072 223848080 219312640 
1746.800 213979376 208037760 201713712 195136560 188281632 180987680 
1749.693 173097648 164604832 155728688 146884752 138511904 130896848 
1752.587 124093320 117972480 112312936 106881320 101478120 95955800 90234256 
1755.962 84342400 78425912 72717344 67452360 62770008 58683656 55102524 
1759.337 51880660 48854244 45876240 42855608 39786444 36764996 33946968 
1762.712 31472802 29402486 27706940 26297790 25070576 23932834 22819784 
1766.088 21701674 20582228 19491376 18468252 17545532 16734883 16027804 
1769.463 15402785 14839207 14320636 13833777 13365811 12902513 12433503 
1772.838 11962649 11505574 11081881 10705329 10379426 10097208 9845440 
1776.213 9610587 9385204 9170462 8975176 8808175 8671458 8553335 8430886 
1780.071 8275374 8069114 7815482 7539105 7272642 7043687 6866589 6739869 
1783.928 6650364 6580084 6514794 6447732 6379805 6313873 6250135 6184222 
1787.786 6109549 6021214 5919160 5807526 5693301 5580281 5466352 5343830 
1791.643 5206925 5059938 4921445 4815093 4757470 4747756 4768961 4792679 
1795.500 4790602 4742195 4640843 4496357 4329899 4166950 4026100 3918027 
1799.358 3842873 3796075 3771241 3764189 3771542 3787686 3803830 3808777 
1803.215 3792900 3753227 3695277 3631522 3575226 3536475 3516432 3508115 
1807.073 3498896 3478187 3441782 3394928 3348279 3313287 3295158 3289816 
1810.930 3285042 3266580 3225619 3161766 3082271 2996819 2914619 2841073 
1814.787 2778877 2730393 2698552 2687950 2702119 2740697 2796451 2856348 
1818.645 2905246 2929997 2924226 2890269 2837137 2775942 2714989 2657578 
1822.502 2599875 2533781 2449936 2343187 2215982 2080125 1953197 1854024 
1826.360 1795129 1781422 1811033 1876552 1965545 2059117 2136061 2175887 
1830.217 2168660 2118580 2040807 1952564 1865737 1786878 1717548 1656976 
1834.075 1604327 1559034 1520495 1487845 1459585 1434220 1412944 1399880 
1837.932 1402772 1430363 1488310 1576958 1690803 1820217 1954628 2086118 
1841.789 2209755 2323533 2423513 2500221 2535914 2510252 2410385 2240827 
1845.647 2023630 1791037 1573233 1392767 1261919 1181309 1141874 1129914 
1849.504 1133103 1144498 1165129 1200247 1256203 1334334 1429931 1530903 
1853.362 1623084 1693664 1735844 1750116 1742597 1723136 1701947 1688674 
1857.219 1689872 1707103 1736709 1769711 1794264 1797259 1769412 1707202 
1861.077 1614304 1499282 1371892 1239987 1106727 973939 845110 727669 635544 
1865.416 586072 595495 674635 823166 1026744 1254409 1467398 1627441 1712791 
1869.756 1722039 1670114 1576825 1458588 1328750 1195729 1066069 945182 
1873.613 836113 739451 653828 577844 512189 462233 435533 440176 479349 
1877.953 547686 630103 706262 755184 761856 722458 646296 550473 454206 
1882.292 375106 325266 310809 333423 391787 480775 591613 712668 828146 
1886.632 920743 974637 979684 934423 848596 743235 644836 576284 552198 
1890.972 574592 634615 716352 801257 868947 899559 877679 795215 657213 
1895.311 481638 298275 138290 24553 -32006 -34723 994 52189 96695 117078 
1900.133 104881 61136 -6792 -88624 -176104 -262574 -344854 -419936 -483388 
1904.473 -527637 -542065 -514101 -433772 -297905 -112641 105180 330803 
1908.330 536174 698065 800725 840396 824062 765938 681770 584314 483993 
1912.670 388869 308819 255803 241050 271386 344332 447075 556411 645002 
1917.009 689635 678286 616233 523899 426710 342111 278017 235017 213303 
1921.349 219237 264788 361576 511493 697368 885116 1032224 1105465 1090915 
1925.688 1000075 865295 731751 641650 619153 666206 763515 881364 987987 
1930.028 1061951 1094669 1087760 1046971 979087 889067 782933 669724 562483 
1934.368 474075 413278 380910 369966 369668 372553 379782 404489 465683 
1938.707 583451 769258 1021895 1323200 1639548 1929566 2147349 2259879 
1942.565 2255116 2146483 1963881 1744360 1518600 1301996 1094071 881630 
1946.422 647590 382568 94508 -189650 -426954 -576083 -616617 -558512 -442511 
1950.762 -327969 -272508 -306448 -425927 -594051 -762539 -890590 -964619 
1954.619 -999199 -1023397 -1058534 -1099221 -1109664 -1038437 -841616 
1957.994 -508574 -70834 400443 819116 1119417 1274546 1306450 1268033 
1961.852 1221213 1204633 1226098 1265142 1290199 1270492 1187888 1035412 
1965.709 810452 510265 133517 -309328 -784931 -1239397 -1604695 -1825686 
1969.567 -1870062 -1739560 -1463183 -1090495 -674482 -256315 139583 505488 
1973.424 841425 1141242 1388545 1558901 1627641 1581215 1423282 1171707 
1977.281 851716 490926 117210 -243831 -566983 -832721 -1034966 -1181574 
1981.139 -1291663 -1386102 -1476029 -1554877 -1593603 -1553590 -1402450 
1984.514 -1130617 -760952 -340252 66471 402698 638763 780045 860946 927251 
1988.854 1014588 1132970 1264311 1370762 1413410 1365178 1219751 990976 
1992.711 701915 374045 22531 -340252 -700617 -1038239 -1325820 -1537544 
1996.568 -1653616 -1668865 -1596178 -1465263 -1315085 -1180616 -1087554 
1999.944 -1043924 -1039726 -1051758 -1052386 -1017843 -937145 -819228 
2003.319 -694894 -608841 -605996 -718513 -949709 -1265465 -1599908 -1874846 
2007.176 -2028591 -2032714 -1902623 -1686391 -1448025 -1239100 -1086529 
2010.552 -985281 -908512 -818566 -687450 -505893 -286316 -57980 140842 
2014.409 270192 301425 220463 36846 -214224 -468328 -643152 -667072 -497917 
2018.749 -147123 322281 803481 1181409 1363051 1302628 1019935 591713 125529 
2023.088 -285422 -576513 -727312 -754039 -693868 -587996 -468527 -361474 
2026.946 -287706 -268667 -324989 -465449 -678717 -925474 -1151239 -1298865 
2030.803 -1333187 -1253703 -1100873 -938335 -830472 -817839 -899220 -1034966 
2034.661 -1163499 -1233781 -1221688 -1141556 -1036685 -963396 -961478 
2038.036 -1038867 -1166605 -1288095 -1339397 -1265597 -1045511 -694133 
2041.411 -258467 203888 637768 1005123 1289933 1491037 1617098 1675536 
2045.268 1671012 1604593 1478935 1303558 1097725 888834 706893 571640 491589 
2049.608 460310 465020 490959 528610 572602 619683 663950 695974 703972 
2053.948 681405 631463 571142 524862 518359 564871 659337 777722 887075 
2058.287 958365 976729 947606 893317 842188 812908 807497 809622 795116 
2062.627 741775 641186 502669 350898 214363 114725 59811 42347 43109 38536 
2067.448 8681 -59703 -170209 -316943 -484215 -648412 -782020 -856597 -852761 
2071.788 -765748 -607782 -405040 -191008 2054 153437 255273 311472 330969 
2076.128 321486 284979 219734 124237 2750 -132714 -264991 -377464 -459855 
2080.467 -509666 -531575 -529986 -506953 -459425 -384648 -285587 -176237 
2084.325 -82926 -36545 -60100 -159544 -316877 -492688 -636799 -708490 
2088.182 -684208 -566851 -381437 -166731 38901 209391 333589 415467 467872 
2092.522 505455 539691 576251 614341 647590 665244 653629 601733 502801 
2096.861 359354 184695 1524 -164810 -292309 -367069 -386138 -353098 -275455 
2101.201 -160107 -13783 154299 328283 482965 588494 619650 566331 441271 
2105.541 281067 136401 49737 42745 103622 193214 255571 243271 136334 -49764 
2110.362 -269329 -462900 -576149 -580947 -480641 -308302 -111349 60374 
2114.220 169646 200341 154100 47980 -93063 -240089 -367433 -453997 -486433 
2118.559 -461411 -386104 -276978 -155503 -43635 42778 99844 135207 165768 
2122.899 211048 287002 398951 539558 688474 819348 904938 923831 868084 
2127.239 744331 573796 384392 207369 64815 -34789 -98827 -144771 -195148 
2131.578 -267408 -368261 -491232 -619793 -736408 -826536 -886325 -919886 
2135.436 -938335 -951626 -966239 -982967 -999860 -1014637 -1027661 -1040453 
2139.293 -1054931 -1069078 -1076415 -1067062 -1030272 -958338 -848297 
2142.668 -703164 -530383 -341510 -150435 25480 164574 245128 247813 164773 
2147.008 6229 -195380 -393089 -539120 -598187 -562615 -454162 -320188 
2150.865 -213661 -176667 -226743 -350416 -510626 -661083 -767302 -815689 
2154.723 -821245 -818765 -853720 -959660 -1145389 -1385078 -1624733 -1788235 
2158.580 -1805262 -1637144 -1290837 -815987 -285852 219469 637038 928712 
2162.438 1078924 1090816 974902 742040 399448 -39361 -547360 -1075688 
2166.295 -1550849 -1892166 -2035352 -1949499 -1652163 -1209198 -720365 
2169.670 -287408 9078 130832 90167 -62651 -261580 -452110 -597856 -690659 
2174.010 -739385 -759695 -761514 -749110 -723905 -693405 -678617 -710805 
2177.867 -820484 -1025049 -1316670 -1660910 -2001283 -2278768 -2449405 
2181.242 -2495727 -2431778 -2294161 -2126661 -1960417 -1805360 -1648532 
2184.618 -1465164 -1229584 -927887 -565858 -167394 232099 595329 884784 
2188.475 1074440 1148020 1103405 951557 718243 440143 157514 -88790 -267905 
2192.815 -366175 -389415 -361209 -314460 -283303 -290124 -343265 -437248 
2196.672 -560134 -700021 -852761 -1022736 -1218285 -1443369 -1690781 
2200.047 -1937723 -2150203 -2291623 -2331403 -2257179 -2075947 -1814071 
2203.423 -1506639 -1194428 -911719 -680007 -507283 -388322 -307871 -245751 
2207.280 -184782 -113469 -30482 54343 124800 162088 155360 104517 23691 
2211.620 -62386 -124532 -138975 -94819 4804 144919 304409 462134 601633 
2215.959 709316 772909 778950 710909 555316 308653 -15738 -383886 -746828 
2220.299 -1046403 -1235631 -1286608 -1198327 -995100 -719902 -421889 -141459 
2224.156 93448 273110 403627 498688 572867 634582 683662 713033 712369 
2228.496 674801 602761 511791 428667 381606 395369 476198 609729 758503 
2232.835 877114 922137 866988 711241 480543 219402 -27434 -223067 -350681 
2237.175 -412720 -425398 -408615 -377497 -341047 -301216 -257706 -211708 
2241.032 -167592 -131522 -107970 -96541 -90943 -78785 -46020 22531 137726 
2245.372 303746 515374 755881 997584 1202307 1333569 1362220 1278601 1098721 
2249.712 864399 632558 455998 370596 380014 456827 550141 608966 596125 
2254.051 501806 345161 164375 2650 -109792 -159113 -150799 -100947 -29885 
2258.391 46290 117774 180684 234486 281100 324304 369535 423659 492485 
2262.730 575057 662224 735369 771083 745525 645267 469862 234685 -36081 
2267.070 -312242 -565296 -772991 -918431 -991232 -987662 -912083 -778217 
2270.927 -608246 -431157 -273832 -154045 -75307 -25843 15507 69852 147272 
2275.267 243669 341746 421536 468668 483728 482401 489632 526288 600439 
2279.607 701019 801954 869877 877114 811647 680244 505057 315550 142068 7024 
2284.428 -77460 -108301 -90347 -33397 49306 143692 234552 308421 356038 
2288.768 374111 365721 340320 310842 290152 287765 308720 352490 414538 
2293.108 486448 559430 623267 669226 690930 685587 654658 604122 543539 
2297.447 482434 428634 386548 355872 332925 312665 290881 265915 238763 
2301.787 212640 192286 181977 185093 202827 234354 276094 322248 366683 
2306.126 403826 431088 450657 469298 495835 537435 596689 668662 741841 
2310.466 800891 832328 829307 793389 734108 665144 599808 546392 507910 
2314.806 482965 469597 466545 474838 496532 531928 578607 630501 679912 
2319.145 720766 750371 770220 784427 796211 805605 808759 798999 771913 
2323.485 727669 673308 620480 582821 571872 593272 646229 723056 812377 
2327.824 899592 971615 1019138 1038036 1031095 1006252 975068 947539 929476 
2332.164 919116 908026 883854 836644 763548 672246 580432 509237 477989 
2336.504 494210 551767 630633 705731 753325 760694 728665 670587 605582 
2340.843 551402 519089 511095 521876 542643 565004 582953 592608 591978 
2345.183 579237 553923 517132 472483 424588 378820 339425 308620 287168 
2349.522 274303 269231 271485 281001 298607 324271 356900 393943 431884 
2353.862 469166 507512 553293 615768 704570 824461 973076 1138053 1298740 
2358.202 1431095 1508858 1510753 1424778 1250687 1002101 704503 395037 
2362.059 112272 -107572 -239791 -278303 -235585 -140167 -24783 80854 160199 
2366.399 212640 248907 285908 335744 402367 478487 549909 599477 615735 
2370.738 594865 542710 471587 398089 337568 300298 290550 305139 335711 
2375.078 369668 395004 402864 390361 361410 326957 300596 294661 316943 
2379.417 366915 435964 509569 571805 609729 616432 592807 546624 490262 
2383.757 435964 394407 371624 368673 382137 405816 433012 457424 475800 
2388.097 488471 499584 515706 544269 590452 653663 726740 795779 845077 
2392.436 859087 830171 760296 662290 555748 462067 399216 375537 390361 
2396.776 434505 495802 561454 621774 670587 703408 715986 703674 662423 
2401.115 591314 494641 383430 272778 179159 115586 86985 90332 115586 150719 
2405.937 184463 210982 229812 244664 260345 279907 303713 330140 355939 
2410.277 378887 398453 415699 433012 451851 474009 499849 529274 561686 
2414.616 596457 631297 662423 684657 691593 676958 636241 567526 472715 
2418.956 356635 227789 96231 -26042 -126553 -195049 -224988 -215781 -173852 
2423.296 -112641 -48406 4307 36183 47351 45992 46224 60772 96729 151448 
2428.117 213999 268302 299402 300132 273541 232696 195932 183037 208032 
2432.457 275862 380810 509303 641484 754952 830868 854638 819647 728432 
2436.797 593040 433078 272016 135141 42247 5235 26176 96695 200109 314589 
2441.618 418916 494508 529539 521046 473776 399117 311041 223944 148233 
2445.958 88940 46787 19814 6196 6428 23857 62926 125397 208032 300828 389599 
2451.262 460873 505090 521677 518194 507910 502503 508971 526520 547719 
2455.602 562947 565502 554951 537468 521511 514445 517729 526487 530767 
2459.941 520814 491423 443692 385254 326294 276923 243901 229447 232928 
2464.281 251527 282393 321883 365423 406479 437191 450392 441967 413013 
2468.620 369104 319828 274071 237138 209888 188374 168386 146609 124104 
2472.960 105312 96762 103755 128877 170839 226265 290517 359586 430558 
2477.300 500313 565435 620978 662058 685188 689801 678186 654558 622670 
2481.639 584380 538695 483927 419878 349771 282095 226828 193645 187380 
2485.979 206805 244200 289025 332229 368109 395999 418319 438253 456959 
2490.318 473312 484822 490030 489831 488239 490096 499086 515473 536937 
2494.658 558667 577313 591845 604686 619020 636540 655056 668330 668430 
2498.998 649249 610393 558302 504991 463129 442465 445384 467142 496764 
2503.337 522373 535444 533155 518857 500844 489433 492617 514578 554023 
2507.677 604487 655189 693618 708652 692589 644072 569218 481041 394938 
2512.016 326095 284383 272148 283720 308919 336639 359354 374775 385917 
2516.356 398487 417523 444422 476994 509900 537302 555018 560956 554487 
2520.696 535710 503564 456827 395767 324238 251460 190595 156520 161757 
2525.035 211115 299834 413543 532956 637237 710610 746654 748579 727603 
2529.375 699226 678916 676859 696638 734407 781705 827316 861112 877446 
2533.714 875222 857759 830901 800194 769324 738589 706262 670222 630136 
2538.054 588527 550240 521113 505422 503166 510497 520914 527681 527217 
2542.394 520118 511658 508938 517596 539624 571474 606544 636175 653828 
2546.733 656649 646163 626386 602330 577446 553392 529406 504161 476861 
2551.073 447938 419281 393346 373050 360847 359023 369701 394076 432216 
2555.412 481008 534748 585044 622769 641650 639759 621210 594665 570810 
2559.752 557572 557771 567592 579536 585740 582854 574261 569815 582356 
2564.092 621276 688839 777523 872167 953815 1007016 1024784 1010072 974338 
2568.431 931999 896073 872001 858024 846438 828909 799962 760893 718343 
2572.771 683396 666173 672611 702877 751666 810219 869080 921606 963147 
2577.110 991739 1006186 1004957 985894 947539 889997 817157 736099 657080 
2581.450 589921 542842 519554 519587 538463 570047 608900 650941 694182 
2585.790 736995 777888 814037 841657 857194 859286 849924 834453 820211 
2590.129 814734 822867 845442 879272 918120 956273 988784 1014223 1033685 
2594.469 1049395 1062582 1073643 1080551 1081216 1074805 1063312 1050724 
2598.326 1043052 1044812 1057832 1079190 1102575 1120048 1124267 1111743 
2602.184 1083674 1045742 1006120 973474 954546 952554 967630 996522 1034615 
2606.523 1075436 1113371 1142804 1159647 1161774 1149614 1126825 1098987 
2610.381 1074174 1060091 1062449 1083973 1123104 1175428 1234039 1292193 
2614.238 1344172 1387116 1420390 1445389 1464273 1478702 1489540 1496090 
2618.095 1497587 1492566 1481628 1465968 1448581 1433189 1422884 1419892 
2621.953 1423715 1432524 1442963 1451640 1456161 1456194 1453003 1449312 
2625.810 1448249 1452770 1465037 1486515 1518833 1563257 1620557 1690171 
2629.668 1769778 1854290 1936256 2007319 2060349 2090879 2098703 2088182 
2633.525 2066708 2042106 2020601 2005588 1996035 1988612 1978992 1963482 
2637.383 1940716 1912560 1882742 1857018 1840281 1836953 1848300 1873424 
2641.240 1908233 1947206 1984152 2013311 2030821 2035748 2030055 2017438 
2645.097 2002392 1988512 1977328 1968175 1958456 1945409 1927170 1904439 
2648.955 1880079 1858982 1846803 1848001 1865204 1898349 1944543 1998631 
2652.812 2054590 2105662 2145584 2170325 2178084 2170026 2150712 2127370 
2656.670 2108259 2100834 2109990 2136427 2176519 2222876 2267373 2301880 
2660.527 2321567 2325565 2317237 2302680 2288823 2281995 2286325 2302447 
2664.385 2328596 2361110 2395425 2427711 2455234 2477260 2494422 2508286 
2668.242 2520783 2533314 2546179 2558478 2568177 2572876 2570910 2561344 
2672.099 2545113 2524882 2504553 2488257 2479426 2479526 2487757 2501487 
2675.957 2516817 2529682 2537247 2538680 2534981 2528582 2521883 2516651 
2679.814 2513051 2509919 2505220 2497455 2486558 2473695 2461432 2452468 
2683.672 2448603 2450136 2455701 2463065 2469496 2473328 2473662 2470829 
2687.529 2465597 2458766 2450836 2442305 2433775 2426078 2419881 2416083 
2691.386 2413550 2410352 2403355 2389295 2366540 2336158 2301980 2269971 
2695.244 2246689 2236764 2241060 2256981 2279064 2300315 2314938 2319935 
2699.101 2315305 2303713 2288723 2273568 2259712 2246756 2233034 2216815 
2702.959 2197033 2174821 2153110 2136294 2129235 2136194 2158770 2195301 
2706.816 2241793 2290922 2335192 2368139 2386230 2390161 2384131 2374969 
2710.674 2369072 2370971 2381899 2399324 2419181 2437007 2450236 2459033 
2714.531 2465531 2472728 2482592 2494989 2507519 2515951 2516817 2508152 
2718.388 2490823 2468263 2445371 2426911 2416149 2414083 2419848 2431410 
2722.246 2446004 2462132 2478793 2496089 2514151 2532981 2551578 2568543 
2726.103 2581742 2589775 2592342 2591042 2588775 2589309 2596275 2611209 
2729.961 2633776 2660412 2686583 2707321 2719457 2722191 2717290 2707954 
2733.818 2697252 2686516 2674748 2659679 2638243 2609308 2574143 2536181 
2737.676 2500554 2471462 2451302 2439906 2434975 2432809 2430843 2427345 
2741.533 2421914 2414950 2407053 2398424 2389428 2380866 2374569 2373503 
2745.390 2380366 2396458 2420947 2450136 2478993 2502454 2517217 2522916 
2749.248 2521750 2517250 2512851 2510519 2510852 2513751 2519850 2531048 
2753.105 2550812 2582076 2625776 2679048 2735328 2785780 2821529 2836904 
2756.963 2830734 2806889 2772541 2736295 2705820 2685816 2678415 2683316 
2760.820 2698685 2722324 2752000 2784913 2818395 2849311 2875126 2894005 
2764.677 2905546 2910383 2910049 2905980 2899242 2890269 2879395 2867321 
2768.535 2855881 2847443 2845142 2851412 2867155 2891803 2922892 2957152 
2772.392 2991381 3023477 3052440 3078334 3102394 3125921 3150452 3176786 
2776.250 3205491 3236568 3269484 3303337 3337260 3370651 3403176 3435570 
2780.107 3468635 3503706 3541552 3582275 3625508 3670717 3718069 3768634 
2783.965 3825022 3889842 3965004 4050179 4142663 4236839 4325314 4401589 
2787.822 4460871 4501747 4526121 4538978 4546712 4555317 4569850 4593222 
2791.679 4626576 4669410 4720556 4777771 4838780 4900668 4960790 5016696 
2795.537 5066911 5111364 5151966 5191600 5234322 5284092 5344032 5415856 
2799.394 5499470 5593707 5696020 5804302 5915667 6027699 6138147 6244354 
2803.252 6344030 6435423 6518057 6593036 6662712 6731389 6802972 6881064 
2807.109 6967755 7063691 7167902 7279179 7396922 7521068 7651962 7789775 
2810.967 7933371 8080455 8227759 8372343 8513393 8652934 8796071 8949232 
2814.824 9118215 9306593 9513578 9735435 9966594 10202115 10439802 10680539 
2818.681 10927796 11185735 11456685 11740639 12035065 12336782 12644099 
2822.057 12958256 13283948 13628313 13998478 14398961 14830705 15290642 
2825.432 15772782 16270181 16777276 17290446 17808814 18333192 18865752 
2828.807 19409148 19966410 20541270 21138494 21763086 22420744 23117418 
2832.182 23857706 24646352 25487064 26383766 27340612 28361782 29451910 
2835.558 30615496 31857468 33184112 34604012 36129096 37775960 39563616 
2838.933 41513284 43646396 45980944 48532660 51314012 54335112 57604776 
2842.308 61130928 64918972 68968848 73272664 77811760 82553728 87457936 
2845.683 92474104 97545568 102617664 107631872 112527592 117243912 121710960 
2849.059 125854912 129600496 132870752 135597008 137721440 139199056 
2851.952 140001648 140117936 139555200 138338192 136511504 134135856 
2854.845 131281720 128029896 124460984 120650736 116673408 112592128 
2857.738 108463600 104338296 100255736 96249120 92345392 88564312 84923720 
2861.113 81440144 78129480 75009032 72094656 69399760 66934996 64705484 
2864.488 62712236 60951888 59417112 58097232 56978168 56043048 55271116 
2867.864 54638360 54119628 53686508 53310568 52963624 52615540 52239520 
2871.239 51810320 51307000 50717824 50040648 49285240 48470644 47624512 
2874.614 46776932 45955420 45184060 44479000 43850108 43303024 42839372 
2877.989 42459512 42163116 41949536 41817704 41766956 41797456 41910196 
2881.365 42107328 42390572 42760352 43214364 43747048 44349516 45012320 
2884.740 45726752 46486536 47289288 48134576 49022648 49952648 50920932 
2888.115 51921584 52947904 53993956 55056068 56133944 57229132 58344336 
2891.490 59482540 60646104 61836560 63055336 64303100 65579580 66882000 
2894.865 68205136 69540944 70880472 72216768 73547712 74877520 76216072 
2898.241 77577856 78977464 80425736 81928672 83485808 85092888 86743968 
2901.616 88434440 90163464 91933328 93749128 95617392 97544128 99534400 
2904.991 101591776 103719144 105919312 108195248 110550440 112988008 
2907.884 115511088 118122144 120823432 123617064 126504960 129489320 
2910.777 132572504 135755632 139037008 142410736 145866752 149387536 
2913.670 152950976 156531744 160100448 163628032 167084304 170436096 
2916.563 173648976 176683328 179495392 182041808 184279344 186169904 
2919.457 187684432 188800752 189505152 189790320 189654832 189102656 
2922.350 188144864 186800048 185091968 183050720 180709952 178103504 
2925.243 175267776 172238928 169051824 165740944 162336080 158860624 
2928.136 155332496 151763312 148162512 144540208 140908016 137280512 
2931.029 133672624 130096136 126559672 123068048 119623784 116231168 
2933.922 112897288 109632264 106447992 103354368 100357504 97459264 94658072 
2937.297 91951960 89340384 86825176 84409800 82097400 79888992 77783072 
2940.672 75776768 73867904 72056440 70345032 68738992 67242872 65859004 
2944.048 64586624 63422212 62361228 61401632 60544124 59792564 59151972 
2947.423 58625100 58210004 57898272 57676132 57525556 57427104 57363916 
2950.798 57320128 57282400 57239832 57180560 57093148 56966232 56788480 
2954.173 56550984 56247004 55872988 55427800 54912976 54331132 53685492 
2957.549 52978600 52211380 51383564 50494040 49543012 48533552 47472948 
2960.924 46372896 45246828 44108124 42965592 41822080 40674260 39515524 
2964.299 38339356 37143300 35931992 34716944 33513918 32339518 31207732 
2967.674 30127150 29100230 28124336 27194230 26303072 25444972 24615108 
2971.050 23810206 23028280 22268826 21532562 20821808 20140222 19492208 
2974.425 18881774 18311660 17782096 17290826 16833278 16403325 15994698 
2977.800 15601843 15220597 14848945 14486550 14134453 13793928 13466725 
2981.175 13153737 12855616 12572502 12305627 12056255 11826910 11620317 
2984.551 11438485 11281553 11147012 11029301 10921476 10816463 10709065 
2987.926 10598060 10487049 10383091 10294460 10229322 10193500 10189938 
2991.301 10219009 10279905 10372469 10497469 10656157 10849925 11078584 
2994.676 11339571 11627838 11937037 12260601 12593206 12931425 13273529 
2998.052 13618945 13966791 14316458 14666236 15014408 15359016 15697850 
3001.427 16028011 16345693 16645739 16921978 17167302 17375342 17540910 
3004.802 17659846 17729976 17749822 17719104 17638174 17508618 17333616 
3008.177 17117598 16865724 16582876 16272176 15934508 15568597 15172250 
3011.552 14743766 14284407 13798512 13295085 12783985 12275666 11778257 
3014.928 11296175 10829610 10375897 9930387 9489499 9051392 8617513 8191966 
3018.785 7780803 7390586 7026917 6692490 6387169 6107499 5848562 5604615 
3022.643 5371371 5147272 4933342 4732782 4548788 4383280 4235702 4102355 
3026.500 3977544 3855542 3732038 3605662 3477886 3352352 3233564 3124820 
3030.357 3028082 2942707 2866754 2797585 2732361 2669647 2608442 2549512 
3034.215 2494256 2445004 2404254 2374869 2358212 2354480 2361110 2373303 
3038.072 2384331 2386330 2373237 2340822 2288823 2220878 2144086 2067307 
3041.930 1999164 1946806 1913724 1899348 1898749 1904373 1907867 1901411 
3045.787 1880978 1846104 1800719 1750781 1703044 1662364 1630268 1604959 
3049.645 1582578 1558668 1530005 1496024 1458721 1421986 1389609 1365444 
3053.502 1351783 1349789 1359727 1380967 1412246 1451207 1494461 1537620 
3057.359 1576526 1608152 1631200 1646599 1656444 1662930 1667253 1668251 
3061.217 1663229 1648162 1620956 1580915 1530870 1475942 1422651 1377410 
3065.074 1344238 1325294 1319511 1323865 1334134 1345834 1354907 1358397 
3068.932 1355373 1346897 1335497 1325194 1319577 1320574 1327687 1337259 
3072.789 1343972 1342510 1328252 1300567 1261188 1214269 1164531 1116228 
3076.646 1071650 1032124 998016 969722 947739 932597 923930 919913 916891 
3080.986 911379 900588 884585 865826 849459 840097 840860 850554 865063 
3085.326 877280 880169 868914 841889 801489 752628 701350 653098 611786 
3089.665 580299 559994 551402 554288 566895 586105 606876 623898 632060 
3094.005 628045 612284 587698 559430 532492 510597 494608 482434 470459 
3098.344 455566 435997 412681 388206 366650 351197 342873 340453 340652 
3102.684 339856 334948 324503 309383 291578 273508 257362 244564 236309 
3107.024 234088 240719 259052 292208 341215 403295 471886 537037 587631 
3111.363 614574 614142 588693 546624 499119 457689 430326 419115 420740 
3115.703 428833 436097 437059 430259 416694 400112 383397 368805 356569 
3120.042 345990 336076 326194 316810 307990 299635 290251 277453 259086 
3124.382 233790 202529 168486 136765 112736 100739 102893 118834 146145 
3128.722 181314 221027 262965 306200 350169 394507 437921 477425 508905 
3133.061 527383 528876 511194 475302 425516 369435 314788 269595 239326 
3137.401 226066 228154 241514 261672 284283 306664 327753 347217 364461 
3141.740 378423 386514 386382 376963 358923 335048 309515 287002 270225 
3146.080 260279 256102 255405 256168 257129 259052 262832 269960 280238 
3150.420 292174 302586 307427 303216 288096 262368 228386 190529 154166 
3154.759 124171 104716 97789 103423 119431 141936 166464 188772 205612 
3159.099 215490 218739 216551 210551 202231 191888 179225 163812 144687 
3163.438 121917 96198 69156 42910 20212 3711 -3777 -397 14976 41386 76148 
3168.742 114228 148963 174585 185689 180154 159768 129739 97325 71078 57922 
3173.564 61699 82180 114559 151714 184794 206175 211081 199579 175579 146311 
3178.386 120690 105511 104219 115785 135539 156321 170773 174187 164011 
3182.726 141041 108030 68725 26872 -14247 -50791 -79348 -96243 -98396 -84582 
3187.547 -56622 -19780 18621 49770 66935 66670 50002 22498 -8581 -35054 
3192.369 -50990 -52812 -40786 -16964 14380 48544 81517 109256 129540 141870 
3197.191 147670 150023 152841 159735 172331 189302 206242 217645 218176 
3201.531 204518 177004 139649 99015 61236 31776 12292 1988 -2385 -4075 -5798 
3206.834 -8217 -10602 -11199 -8846 -3313 3810 10072 12823 9907 927 -13551 
3212.138 -31211 -49532 -66793 -82197 -96740 -112276 -130959 -154211 -181271 
3216.478 -209257 -234426 -252010 -258766 -253865 -239161 -218165 -195546 
3220.335 -174481 -156463 -140896 -126156 -111084 -96541 -84881 -79150 -81468 
3224.675 -91639 -105750 -117245 -119365 -106943 -78884 -38864 5632 45926 
3229.015 75320 90133 91293 83340 72304 63356 60043 63025 70912 81119 90432 
3234.319 96497 96795 89636 73795 49206 17461 -18389 -53541 -83224 -104061 
3239.140 -113999 -114131 -106910 -95249 -80541 -62751 -39096 -7256 33897 
3243.480 81782 130600 170508 192518 189634 160199 108560 43772 -22795 -81005 
3248.302 -124334 -151462 -164976 -171004 -175674 -183755 -197268 -215715 
3252.159 -236843 -257607 -275819 -290753 -302673 -312937 -322473 -331876 
3256.017 -340418 -346046 -346940 -340484 -325618 -302441 -273269 -242175 
3259.874 -213661 -192433 -181536 -181072 -188359 -198692 -206210 -206210 
3263.731 -196175 -176965 -152124 -126818 -106181 -93891 -91870 -100053 
3267.589 -117609 -143281 -176204 -215582 -259858 -306183 -350184 -386568 
3271.446 -410005 -416758 -406165 -380311 -343166 -300521 -257010 -216079 
3275.304 -179350 -147255 -120094 -98562 -83821 -77294 -79315 -89287 -104558 
3279.643 -122181 -138941 -152853 -163585 -171633 -178125 -183391 -185974 
3283.501 -183656 -173620 -154443 -127481 -96541 -68118 -49068 -43701 -53375 
3287.840 -75008 -102338 -127447 -144175 -149640 -144871 -134702 -124996 
3291.698 -121849 -127746 -142254 -161697 -180940 -195049 -200580 -196440 
3295.555 -184384 -167460 -149375 -133642 -122313 -115688 -112442 -109692 
3299.413 -104260 -93494 -76367 -54104 -30349 -10238 530 -1855 -18687 -48339 
3304.234 -86670 -128905 -170606 -209621 -245586 -278799 -309527 -336445 
3308.092 -356442 -366043 -362500 -346013 -319625 -289461 -261680 -241744 
3311.949 -231876 -231247 -235817 -241446 -244924 -244725 -242175 -239161 
3315.807 -237671 -238102 -239426 -239128 -234062 -221775 -201176 -173090 
3319.664 -139604 -104657 -73153 -50261 -40686 -47677 -72159 -112343 -163220 
3324.004 -218563 -271779 -317076 -350549 -370379 -375908 -366970 -343431 
3327.861 -305752 -255587 -197102 -137285 -84682 -48240 -34391 -44828 -75638 
3332.201 -118371 -162260 -196440 -213132 -209820 -188756 -156232 -120988 
3336.058 -92599 -78520 -83092 -106678 -145930 -192697 -238300 -273898 
3339.916 -293501 -295819 -284461 -266580 -250719 -242639 -244725 -254163 
3343.773 -264825 -270157 -266349 -253235 -235386 -218695 -209323 -209787 
3347.630 -219192 -233234 -246844 -256414 -260388 -260322 -259494 -260487 
3351.488 -264461 -270587 -276382 -279263 -277342 -270488 -259726 -247308 
3355.345 -235585 -226743 -222669 -224954 -234989 -253500 -280554 -314361 
3359.203 -351972 -389051 -420664 -442643 -452242 -448899 -433640 -410005 
3363.060 -381503 -352105 -325254 -303070 -286713 -276018 -270355 -269031 
3366.917 -272342 -280985 -297077 -322373 -357137 -398982 -442412 -480475 
3370.775 -505662 -512612 -500333 -472797 -437215 -402921 -377563 -364387 
3374.632 -362103 -364983 -366175 -359421 -342272 -316314 -286978 -260752 
3378.490 -243168 -237042 -242076 -254891 -270951 -286581 -299494 -309692 
3382.347 -318798 -328797 -340153 -352469 -362269 -365877 -359984 -343166 
3386.205 -317241 -286812 -258633 -238400 -230617 -235585 -250487 -269329 
3390.062 -286250 -295918 -296845 -289528 -277210 -263335 -250652 -239757 
3393.919 -229955 -220186 -210250 -200977 -195181 -194883 -201408 -213960 
3397.777 -229491 -243764 -252573 -252937 -244195 -227935 -206872 -184616 
3401.634 -165473 -152853 -150468 -161233 -186802 -226743 -278402 -336114 
3405.492 -392163 -437711 -465747 -471705 -454990 -419771 -373061 -323135 
3409.349 -277607 -241877 -217437 -203329 -195546 -189750 -181900 -170540 
3413.207 -156000 -141823 -132416 -131754 -142552 -164346 -193691 -225816 
3417.064 -255620 -279726 -297176 -310222 -322307 -336941 -355780 -377762 
3420.921 -398783 -414242 -419671 -412852 -394215 -366341 -332604 -296382 
3424.779 -260223 -225782 -194155 -166632 -145102 -130660 -123936 -123406 
3428.636 -125891 -126917 -122413 -110322 -91870 -71861 -57417 -55860 -72424 
3432.976 -108202 -159776 -219821 -278799 -328532 -362302 -378093 -377100 
3436.833 -363394 -341543 -315685 -288236 -259395 -228366 -193857 -155801 
3440.691 -115489 -76300 -42310 -18024 -6096 -7190 -18786 -37207 -56324 
3445.030 -70470 -75075 -66627 -44629 -10834 30948 75916 119298 157812 189932 
3449.852 215192 234652 250068 262600 273740 283620 291843 297380 298971 
3454.192 295556 286770 273673 258422 244034 233790 230508 234652 245161 
3458.531 258224 269297 273574 268203 253615 233492 214065 202297 203755 
3462.871 220364 250267 287698 326128 358857 381706 393379 395402 391124 
3467.210 383762 376333 370165 365920 363831 363499 365556 369933 376897 
3471.550 384922 392749 398321 400145 397160 389930 378622 363897 345394 
3475.890 322182 292804 256367 212772 164342 114791 69719 34162 12955 7388 
3480.711 16534 35587 58120 77673 89636 92022 86919 77805 69653 65742 67631 
3486.015 73232 77971 76579 64152 38735 1789 -41614 -85046 -121949 -147587 
3490.837 -160140 -160471 -151396 -136557 -119067 -100980 -83191 -66196 
3494.695 -50526 -37539 -29289 -28693 -38036 -58345 -89187 -128640 -173256 
3499.034 -219093 -262772 -301249 -332207 -353396 -363692 -361838 -347834 
3502.892 -323830 -293501 -262938 -238334 -224623 -223895 -235121 -253798 
3506.749 -273336 -287640 -292011 -285687 -271349 -254759 -241612 -235386 
3510.606 -235717 -239161 -241082 -238234 -230286 -220682 -214655 -217536 
3514.464 -231578 -255719 -285587 -315288 -338829 -352833 -356773 -352204 
3518.321 -342139 -329161 -315387 -302143 -290355 -281250 -275654 -273733 
3522.179 -273898 -272640 -265455 -248500 -220186 -182132 -138577 -95084 
3526.036 -56854 -27599 -9575 -4671 -14148 -40587 -85245 -147885 -223597 
3530.376 -304726 -379517 -437347 -471009 -479350 -467402 -444166 -419506 
3534.233 -399843 -386369 -374253 -357236 -328730 -287442 -237870 -188756 
3538.091 -149375 -126089 -120392 -129004 -145599 -163916 -179615 -191240 
3541.948 -200613 -210085 -221775 -236082 -251182 -264693 -274991 -282011 
3545.805 -288336 -296978 -310984 -330320 -352370 -371935 -382463 -378027 
3549.663 -353826 -307408 -240155 -157921 -70834 8449 66935 96762 96033 70249 
3554.485 28893 -16467 -55761 -81800 -92235 -88558 -75671 -60100 -47776 
3558.824 -43436 -49598 -66461 -92699 -125493 -161697 -197500 -229756 -255156 
3563.164 -271912 -279329 -278071 -270687 -259825 -248533 -238896 -231313 
3567.021 -225153 -220020 -217271 -219921 -231478 -253500 -285389 -323036 
3570.879 -359885 -387230 -397592 -386005 -352999 -303732 -247970 -196473 
3574.736 -157556 -135165 -127613 -129567 -133774 -134337 -129104 -118603 
3578.594 -106910 -98297 -97105 -105552 -124599 -154344 -194088 -242903 
3582.451 -298998 -359819 -421128 -478125 -525386 -557420 -570160 -560431 
3586.308 -527868 -475014 -409409 -342040 -284296 -245950 -231578 -241546 
3590.166 -271547 -313765 -357236 -388422 -395142 -368824 -309030 -224723 
3594.023 -135364 -63943 -27699 -34325 -77659 -142254 -207767 -257640 -281481 
3598.363 -277475 -251447 -214754 -180841 -160405 -160007 -179516 -213926 
3602.220 -255057 -294991 -328532 -352932 -369287 -380675 -391203 -404444 
3606.078 -421955 -441948 -459756 -468229 -461609 -437414 -398684 -351840 
3609.935 -303964 -260189 -222835 -191737 -165936 -145367 -131323 -126619 
3613.792 -134238 -155039 -187365 -226643 -266084 -297806 -313831 -306315 
3617.650 -270620 -207601 -125990 -40653 30418 73563 83306 63158 21371 -31940 
3622.472 -87166 -138511 -182364 -218099 -247076 -270786 -289627 -302872 
3626.329 -307739 -300786 -279958 -247341 -211608 -185809 -179416 -190412 
3630.187 -207336 -217039 -211376 -186868 -145831 -94421 -42972 -2783 17528 
3634.526 13552 -12988 -56324 -109063 -164644 -217437 -262772 -297110 -317705 
3638.866 -322738 -311745 -286216 -249361 -206309 -164644 -132449 -117676 
3642.723 -126089 -159776 -216344 -288832 -367234 -437215 -482461 -486731 
3646.581 -437314 -332472 -185510 -27964 101302 169778 163713 94044 -11232 
3650.920 -121220 -216145 -288071 -339424 -376802 -406827 -435030 -463893 
3654.778 -493019 -518039 -532204 -528365 -503742 -461345 -409376 -357402 
3658.635 -314858 -288534 -280918 -290389 -310454 -332240 -346311 -347470 
3662.492 -335253 -315321 -296051 -285952 -290720 -310951 -342504 -378557 
3666.350 -411694 -435196 -444596 -437711 -414805 -378192 -333035 -288336 
3670.207 -253335 -235121 -236380 -255255 -289197 -335650 -392858 -457638 
3674.065 -525618 -586639 -626907 -636700 -617676 -582867 -546003 -515921 
3677.922 -495005 -482031 -473260 -464191 -450753 -430529 -403319 -372300 
3681.780 -341808 -316877 -301978 -299958 -311447 -334789 -367565 -407456 
3685.637 -452871 -503345 -558479 -616617 -674383 -726022 -766078 -790454 
3689.494 -799649 -795482 -780234 -753708 -714907 -663896 -602919 -537002 
3693.352 -473359 -419870 -382463 -364420 -365215 -380212 -402458 -424802 
3697.209 -441915 -451514 -453699 -449297 -438605 -420962 -395241 -362136 
3701.067 -325519 -293203 -273932 -273634 -292309 -323963 -359653 -389812 
3704.924 -407622 -410767 -401200 -384714 -369088 -362004 -367632 -386237 
3708.781 -412256 -436520 -446781 -432647 -389448 -321910 -243301 -171236 
3712.639 -120856 -100417 -110256 -146229 -201871 -269859 -342967 -414607 
3716.496 -477331 -523401 -546632 -542760 -511420 -457207 -389514 -319360 
3720.354 -259362 -219921 -206939 -219556 -249924 -285952 -314394 -326082 
3724.211 -318500 -295720 -266945 -243367 -234558 -244559 -270852 -305620 
3728.069 -340616 -368724 -386237 -392659 -389911 -382165 -374816 -373988 
3731.926 -385641 -413812 -460385 -525022 -605169 -694497 -782550 -853125 
3735.783 -889830 -883415 -835201 -755527 -657411 -554740 -458266 -377001 
3739.641 -317970 -284031 -273567 -281448 -299958 -320751 -336478 -342868 
3743.498 -339491 -331280 -326347 -330121 -341808 -356111 -367996 -375080 
3747.356 -377630 -377729 -378126 -380675 -383622 -381039 -363427 -324857 
3751.213 -266282 -199421 -139869 -102073 -93129 -111978 -152588 -206939 
3755.071 -267408 -327340 -381073 -424537 -453500 -464456 -454725 -423081 
3758.928 -371671 -307010 -240453 -184153 -148415 -137650 -150899 -182463 
3762.785 -225517 -273369 -320354 -362600 -398419 -427218 -449462 -464886 
3766.643 -472433 -470414 -458035 -436156 -408085 -379285 -355879 -341444 
3770.500 -335352 -333333 -330022 -322009 -308401 -291283 -274097 -260752 
3774.358 -254527 -257474 -270620 -294031 -327836 -370876 -420068 -469983 
3778.215 -511718 -535182 -533858 -507317 -464357 -417189 -377762 -353131 
3782.073 -343828 -345847 -352270 -356442 -353826 -343993 -330320 -317407 
3785.930 -308202 -303070 -299296 -293402 -282375 -266017 -245950 -224723 
3789.787 -205316 -189717 -179549 -175376 -178489 -190213 -211807 -243102 
3793.645 -281945 -324956 -366903 -402756 -429900 -449561 -465813 -484017 
3797.502 -507019 -533693 -559670 -578102 -582039 -566024 -528365 -474286 
3801.360 -416262 -368459 -339292 -327969 -328664 -334127 -338497 -337670 
3805.217 -327638 -305653 -272177 -231777 -194155 -169348 -163916 -178323 
3809.074 -208429 -247904 -290587 -331975 -369386 -402690 -432746 -459789 
3812.932 -482130 -494343 -488452 -455916 -393652 -309626 -225054 -166367 
3816.789 -150369 -177330 -234293 -304428 -369949 -415732 -430727 -410138 
3820.647 -360249 -298766 -248500 -223332 -225418 -249063 -287177 -333399 
3824.504 -382066 -427781 -463993 -484877 -486863 -470811 -442213 -408118 
3828.362 -375345 -347602 -325486 -307209 -291018 -274660 -257971 -242705 
3832.219 -230849 -224524 -224988 -232340 -246480 -267309 -294792 -328201 
3836.076 -365447 -401465 -429502 -442511 -436156 -411065 -373227 -331478 
3839.934 -293203 -262342 -239228 -221179 -205117 -188657 -171368 -154675 
3843.791 -141061 -133774 -134834 -144738 -163154 -187630 -215847 -244096 
3847.649 -269064 -287905 -299097 -303335 -303468 -304064 -309394 -321844 
3851.506 -339127 -353297 -350449 -319360 -261481 -195612 -142916 -114131 
3855.364 -107407 -115589 -129832 -144307 -157060 -169414 -184517 -205846 
3859.221 -234658 -268832 -303434 -331313 -346576 -346212 -331876 -308500 
3863.078 -282806 -259461 -239625 -221279 -201242 -177893 -151926 -125526 
3866.936 -100384 -77957 -58046 -40388 -25611 -16301 -16732 -30548 -58080 
3871.275 -96541 -141161 -186603 -227372 -258832 -277309 -282475 -277144 
3875.133 -266746 -256613 -250156 -248334 -250454 -254990 -259130 -260554 
3878.990 -256613 -246049 -229458 -209091 -189386 -173620 -163585 -158649 
3882.848 -157358 -157722 -158119 -158384 -159378 -163452 -172660 -187365 
3886.705 -205481 -224060 -239426 -249096 -251083 -244559 -229558 -208760 
3890.563 -186603 -169248 -161399 -165009 -177529 -194055 -208992 -218695 
3894.420 -222007 -220351 -216874 -216079 -220914 -232075 -247341 -260587 
3898.277 -263865 -250189 -217371 -170143 -118504 -74445 -47677 -41614 -53210 
3902.617 -74379 -95548 -108434 -109527 -100517 -87166 -75638 -70404 -73551 
3906.957 -84947 -103001 -125990 -151859 -178489 -204256 -228001 -249262 
3910.814 -267773 -284395 -299958 -314924 -329194 -341676 -350615 -353197 
3914.671 -347470 -331876 -306779 -274660 -239327 -205846 -178423 -159776 
3918.529 -150833 -150369 -156596 -166764 -178357 -189087 -197367 -202434 
3922.386 -203925 -201905 -196009 -186968 -175574 -163419 -152919 -145930 
3926.244 -143546 -144672 -146792 -145400 -136093 -115324 -82462 -41249 1590 
3930.583 36647 55668 54078 32737 -2948 -44364 -83357 -114463 -135265 -144871 
3935.405 -143744 -132118 -111349 -83821 -54468 -29753 -16102 -17593 -33894 
3939.745 -59537 -85212 -100881 -99026 -77758 -42442 -4208 25149 37211 30882 
3944.566 10636 -16169 -42078 -63016 -78023 -88823 -97635 -105850 -112839 
3948.906 -116516 -114661 -107274 -96343 -85841 -79911 -81568 -91009 -106314 
3953.246 -123605 -138941 -149011 -152588 -150104 -142850 -133509 -123870 
3957.103 -115754 -109726 -106115 -104260 -103266 -102703 -101808 -100782 
3960.960 -99655 -98860 -97933 -96475 -93162 -87166 -78586 -68217 -58278 
3965.300 -51155 -48869 -52282 -60631 -72259 -85510 -98993 -112243 -125824 
3969.640 -140432 -155801 -170209 -181006 -185974 -183689 -174813 -161399 
3973.497 -146692 -133874 -123936 -116715 -110587 -103531 -94587 -83357 
3977.354 -70867 -58080 -46020 -34789 -24916 -16566 -11397 -11596 -19151 
3981.694 -35087 -58643 -86603 -114562 -137749 -153019 -159312 -158285 
3985.552 -153118 -147785 -145566 -147686 -153516 -161134 -167592 -170341 
3989.409 -168586 -162988 -156695 -153118 -155867 -166400 -183755 -204090 
3993.266 -222305 -233134 -233465 -223497 -207104 -189352 -175276 -166830 
3997.124 -162326 -156695 -143546 -118636 -81336 -35518 11298 50664 
##END=
