##TITLE=api_3 26.08. 11:22:17 2026 (GMT+02:00)
##JCAMP-DX=5.01  $$ Nicolet v. 970
##DATATYPE=INFRARED SPECTRUM
##ORIGIN=Vojna akademija
##OWNER=Nicolet
##LONGDATE=2026/08/26
##TIME=11:22:47
##SPECTROMETER/DATA SYSTEM=Nicolet iS20
##DATA PROCESSING=
Ratio against background
%Transmittance->Absorbance
Truncated
ElementMultiply or ElementDivide
##COMMENTS=
Number of sample scans: 8
Collection length: 11,90 sec
Sample gain: 8,0
Background collected on: Wed Aug 26 11:06:29 2026 (GMT+02:00);
Number of background scans: 8
Background gain: 8,0
Sample spacing:  1,000
Number of scan points: 12415
Resolution points: 8286
Number of FFT points: 65536
Apodization: N-B strong;
Phase correction: Mertz;
Laser frequency: 15798,00 cm-1
Number of rejected sample scans: 0
Number of rejected background scans: 0
Bench serial number: BER2010005;
##RESOLUTION= 4,000
##XUNITS=1/CM
##YUNITS=ABSORBANCE
##FIRSTX=400.156891
##LASTX=4000.123047
##FIRSTY=-0.000862
##MAXX=4000.123047
##MINX=400.156891
##MAXY=0.288552
##MINY=-0.009091
##XFACTOR=1.000000
##YFACTOR=1.000000E-009
##NPOINTS=7468
##DELTAX=0.482117
##ZPD=6100
##XYDATA=(X++(Y..Y))
400.157 -861557 -1341676 -1787971 -2209084 -2655477 -3201970 -3915833 
403.532 -4830650 -5914132 -7059568 -8087786 -8810555 -9091349 -8896329 
406.907 -8295069 -7412513 -6364963 -5208165 -3946502 -2566288 -1093239 
410.281 368706 1640778 2522349 2842807 2539647 1694229 529141 -676798 
414.138 -1661901 -2268551 -2471315 -2331338 -1944683 -1387291 -706174 63025 
417.995 835748 1404999 1492932 914965 -270521 -1805097 -3372343 -4689006 
421.852 -5558331 -5832377 -5440910 -4406136 -2858126 -1014174 869877 2556178 
425.709 3893687 4812379 5311864 5444039 5299621 4999166 4667233 4415848 
429.566 4310890 4356237 4497429 4651090 4738912 4719283 4601728 4431915 
433.423 4263139 4123094 4009747 3892049 3737218 3532767 3300900 3089780 
437.280 2955150 2931598 3027681 3230493 3518537 3866908 4246041 4617601 
441.137 4925702 5103184 5095305 4887365 4527125 4111855 3757104 3530462 
444.994 3421109 3331483 3124920 2671014 1922511 949864 -62055 -886688 
448.851 -1350066 -1369224 -974537 -274925 577346 1447949 2242726 2920090 
452.708 3477519 3917024 4217635 4335655 4219174 3844277 3241676 2518450 
456.565 1845139 1406661 1325825 1576160 1972801 2252817 2216182 1771840 
460.421 958830 -87862 -1161747 -2040958 -2548995 -2591782 -2196491 -1480685 
464.278 -608941 277519 1078459 1740102 2242859 2576509 2724025 2662312 
468.135 2376102 1882176 1239887 563246 -13319 -362401 -404874 -150203 292440 
472.474 747484 1060091 1157687 1085999 963778 922868 1038767 1307912 1654016 
476.813 1969140 2160469 2194136 2111721 2008184 1983852 2091911 2321134 
480.670 2599208 2829867 2920924 2825798 2548312 2130434 1626044 1086829 
484.527 559065 88145 -268402 -448932 -406165 -127348 348411 938109 1524286 
488.866 1998997 2297350 2417149 2416316 2388229 2421914 2560777 2795951 
492.723 3073362 3328812 3513593 3614081 3642816 3623570 3572553 3495121 
496.580 3394160 3282371 3191806 3173915 3277196 3532500 3934477 4439112 
500.437 4963504 5411260 5699781 5779017 5646941 5336652 4895609 4364169 
504.294 3774283 3158762 2561344 2051161 1714088 1626942 1836122 2326864 
508.151 3022710 3798148 4525150 5096847 5445750 5554372 5445280 5171850 
512.008 4798207 4390544 3999915 3656114 3373990 3153188 2988979 2872091 
515.865 2791882 2736128 2690584 2640410 2572710 2479826 2362109 2229204 
519.722 2099102 1992074 1929866 1928701 1997166 2136228 2339756 2594042 
523.579 2879262 3173481 3449330 3680574 3846282 3933006 3940696 3880548 
527.436 3772311 3637202 3493986 3358229 3241743 3153789 3101827 3088378 
531.293 3108801 3150251 3194643 3221447 3216707 3177486 3113974 3044698 
535.150 2989412 2959720 2953215 2954750 2944275 2909849 2853380 2793683 
539.007 2756669 2765071 2824131 2917455 3009831 3063251 3050671 2969128 
542.863 2840673 2707787 2616609 2600442 2674014 2828733 3039059 3269150 
546.720 3484800 3659222 3774416 3824421 3813891 3762685 3703298 3681777 
550.577 3745239 3924914 4227003 4623595 5060843 5465882 5772570 5936425 
554.434 5945629 5821831 5610354 5363220 5121623 4912632 4747052 4625605 
558.291 4545641 4505162 4503555 4539045 4606483 4695301 4788592 4867059 
562.148 4909046 4892794 4801993 4626442 4368922 4048507 3703999 3387514 
566.005 3153055 3045099 3079835 3240941 3479657 3733208 3939592 4059075 
569.862 4085331 4042788 3973063 3914382 3889073 3891347 3891313 3842706 
573.719 3703398 3448729 3087043 2661379 2248521 1939850 1809337 1895554 
577.576 2184312 2616042 3097622 3533335 3846550 3994364 3981657 3854473 
581.433 3681777 3522846 3412026 3347043 3300199 3232696 3118146 2955617 
585.290 2772474 2612975 2522216 2530681 2642377 2835837 3068723 3293722 
589.147 3464393 3546964 3527155 3410456 3221447 2999088 2791449 2639043 
593.004 2566743 2577243 2652811 2763004 2874392 2962790 3016270 3036390 
596.861 3032586 3015303 2988912 2950213 2891770 2807523 2698119 2572476 
600.717 2444171 2325531 2223475 2138425 2067574 2010748 1972734 1964680 
604.574 1999030 2084153 2219912 2397558 2600808 2810391 3009030 3180858 
608.431 3312853 3394761 3418705 3384242 3300533 3190904 3087010 3021108 
612.288 3014135 3064552 3144945 3207460 3203555 3096120 2877628 2573643 
616.145 2239362 1939351 1726330 1629337 1643938 1740468 1875587 2011680 
620.002 2124873 2210321 2279230 2351349 2445404 2570276 2721291 2879329 
623.859 3015970 3098589 3102627 3018105 2856115 2645844 2431310 2259379 
627.716 2166363 2173056 2280030 2469529 2708221 2956384 3173949 3324839 
631.573 3386145 3351284 3232462 3059147 2876093 2733761 2671147 2709421 
635.430 2841273 3036357 3248319 3434435 3566540 3636634 3655045 3641446 
639.287 3614015 3583678 3554547 3529794 3518236 3537644 3608869 3746308 
643.144 3947283 4186487 4422476 4606249 4702502 4699253 4611172 4469575 
647.001 4312095 4167318 4046768 3950325 3873294 3816632 3791062 3813925 
650.858 3899036 4048607 4248183 4468135 4672492 4832146 4927880 4954523 
654.715 4914810 4813551 4651928 4428668 4144101 3805200 3430126 3047902 
658.571 2692084 2398124 2195668 2101899 2121943 2246423 2453768 2709555 
662.428 2971197 3196545 3349414 3413929 3396330 3322736 3229358 3156993 
666.285 3141107 3201319 3326876 3464059 3537744 3496624 3355691 3169376 
670.142 2988011 2835637 2716023 2622009 2544013 2476627 2423213 2394193 
673.999 2405421 2470429 2593175 2765005 2964591 3161032 3320665 3418772 
677.856 3445055 3408185 3333787 3258735 3221246 3246149 3336826 3471240 
681.713 3609805 3705202 3724752 3660492 3536174 3397933 3301468 3289448 
685.570 3374357 3535372 3725822 3891414 3984365 3983295 3896963 3760747 
689.427 3620430 3520374 3492182 3549937 3691234 3900374 4154238 4424384 
693.284 4682573 4905796 5077806 5194986 5266216 5311764 5354598 5416057 
697.141 5508430 5633649 5786807 5961988 6156597 6374156 6619310 6893351 
700.998 7188012 7484458 7755706 7973731 8120695 8192371 8201725 8172552 
704.855 8134063 8113740 8132409 8206215 8346705 8562898 8860386 9240824 
708.712 9700197 10228474 10813168 11441071 12102451 12793164 13513962 
712.086 14267354 15055741 15879378 16738981 17637692 18585368 19596740 
715.461 20688624 21872348 23147298 24496284 25886330 27278052 28627598 
718.836 29895872 31052746 32068532 32913058 33552040 33949404 34079304 
722.211 33934824 33534892 32918316 32139170 31253912 30308984 29344520 
725.586 28390576 27470240 26603914 25806364 25085846 24443318 23873142 
728.961 23365426 22909996 22499636 22129270 21794336 21487578 21196730 
732.335 20906216 20601512 20272716 19919646 19551992 19187904 18846476 
735.710 18545702 18297318 18104102 17959800 17847340 17741398 17609016 
739.085 17417178 17141208 16771972 16322985 15830509 15347241 14924142 
742.460 14599513 14385946 14270299 14219250 14192990 14160468 14104469 
745.835 14025273 13932816 13838873 13747722 13655256 13550058 13420930 
749.209 13262562 13079085 12881419 12686913 12511830 12367702 12261317 
752.584 12193463 12159319 12150050 12153731 12156389 12143985 12104530 
755.959 12030433 11919770 11775771 11606670 11422871 11234797 11053432 
759.334 10888451 10747443 10635850 10553719 10496621 10455516 10420354 
762.709 10383702 10343626 10303892 10272271 10256462 10259413 10278683 
766.083 10307319 10338061 10365784 10390285 10414178 10440242 10468210 
769.458 10494449 10513696 10523506 10525611 10525271 10526799 10528021 
772.833 10516377 10472249 10374098 10209850 9983342 9716630 9439719 9183425 
776.690 8965738 8787685 8638231 8504743 8382882 8281453 8217325 8203582 
780.547 8238295 8299386 8348022 8342686 8258354 8093452 7873072 7635303 
784.404 7416672 7235210 7087098 6951526 6806641 6641212 6461991 6288524 
788.261 6143389 6039693 5974014 5929774 5887487 5835599 5777606 5729493 
792.118 5711295 5736375 5803160 5895044 5986612 6055518 6089421 6089220 
795.975 6066404 6035964 6010262 5995615 5993733 6002502 6018729 6036770 
799.832 6047790 6039592 5998739 5917649 5799836 5663222 5535880 5449877 
803.689 5428773 5478632 5587799 5731305 5879896 6009826 6110759 6185835 
807.546 6248320 6313873 6397526 6507832 6646528 6807280 6976375 7133813 
811.402 7255156 7320018 7317693 7255021 7157325 7064836 7020115 7050153 
815.259 7157729 7317592 7485436 7610754 7657863 7616385 7503875 7354862 
819.116 7208326 7093834 7022169 6987924 6974489 6964758 6945432 6909443 
822.973 6855851 6786245 6703358 6612581 6522093 6441207 6379771 6343257 
826.830 6329909 6333204 6344366 6359127 6380511 6418710 6483750 6578335 
830.687 6691312 6797923 6865444 6868104 6795904 6663486 6503594 6360606 
834.544 6273599 6263985 6332229 6460007 6618234 6774398 6903046 6986409 
838.401 7015569 6988732 6910924 6794659 6657867 6523909 6415415 6346955 
842.258 6322647 6334414 6366658 6402973 6434078 6460175 6490040 6534202 
846.115 6599562 6683910 6776990 6863896 6931595 6973681 6992066 6994120 
849.972 6990382 6989877 6997823 7016243 7044024 7076893 7108788 7131186 
853.829 7135969 7116804 7073660 7012437 6945769 6885608 6838583 6801727 
857.686 6764335 6712780 6639396 6549002 6460544 6399980 6388816 6436264 
861.543 6533260 6657597 6782610 6891331 6981964 7068002 7167261 7291309 
865.400 7434840 7576294 7682212 7723932 7688721 7585600 7441682 7291376 
869.256 7166251 7083932 7047762 7050019 7079756 7126942 7185081 7250708 
873.113 7319411 7384755 7439120 7476031 7492852 7491132 7475795 7450480 
876.970 7416773 7373566 7319041 7254549 7185183 7118218 7060425 7014929 
880.827 6979405 6949338 6922202 6900959 6895371 6917219 6975701 7070595 
884.684 7191650 7319647 7434334 7522586 7581587 7619353 7650309 7689767 
888.541 7747914 7830764 7940085 8076809 8240624 8428757 8632451 8834246 
892.398 9009578 9133983 9187587 9163999 9071489 8929377 8759690 8581283 
896.255 8406495 8242719 8097705 7982775 7910525 7891394 7923888 7991280 
900.112 8060674 8093654 8059527 7944877 7760597 7537824 7317828 7135059 
903.969 7012740 6957385 6963614 7020452 7117208 7245284 7394327 7549827 
907.826 7691723 7796387 7846250 7835014 7772572 7679548 7581823 7499594 
911.683 7441986 7407505 7390687 7388766 7407640 7459412 7556637 7703696 
915.540 7890719 8094161 8282804 8431426 8527044 8574286 8589799 8595645 
919.397 8607407 8629545 8655469 8673823 8674398 8653915 8616769 8573172 
923.254 8533195 8503898 8488017 8484200 8490822 8506500 8530491 8562087 
927.110 8597977 8633195 8661553 8678658 8683322 8679571 8674533 8676055 
930.967 8691165 8723956 8775784 8845912 8931746 9028996 9130938 9229283 
934.824 9314413 9377993 9416828 9433725 9438364 9442936 9458512 9490210 
938.681 9535051 9583115 9622172 9642464 9640398 9619903 9590160 9562791 
942.538 9546262 9545822 9561538 9589889 9625628 9662995 9696842 9723000 
946.395 9739807 9749362 9759326 9782132 9833544 9927946 10072012 10260634 
950.252 10475237 10688926 10870649 10997865 11063493 11078415 11067775 
953.627 11063221 11092520 11168294 11284512 11418278 11539021 11617254 
957.002 11635563 11593704 11508228 11405353 11311445 11246596 11217048 
960.377 11217626 11235647 11260130 11285838 11316546 11361985 11433042 
963.751 11534223 11660681 11797016 11922120 12014899 12058844 12047499 
967.126 11982915 11875330 11737813 11586013 11436069 11303045 11202598 
970.501 11147012 11143068 11190052 11279071 11394638 11517619 11632127 
973.876 11726750 11797118 11844854 11874172 11889598 11893854 11888917 
977.251 11876045 11857248 11834741 11808353 11774920 11726886 11655577 
980.625 11554571 11423857 11271725 11113799 10968097 10848192 10759636 
984.000 10698571 10654391 10614323 10569778 10518923 10466004 10417945 
987.375 10380886 10356758 10342913 10333175 10321028 10301042 10270303 
990.750 10227218 10172470 10107722 10036949 9967543 9909640 9873404 9866150 
994.607 9888454 9933166 9986225 10031998 10059092 10064382 10054921 10044036 
998.464 10047562 10075708 10130750 10205610 10288184 10363986 10421644 
1001.839 10454668 10460981 10441057 10397345 10333072 10253476 10166364 
1005.213 10082456 10012264 9963949 9939947 9935167 9937370 9931302 9902861 
1009.070 9842661 9749227 9627796 9490210 9349722 9219637 9110703 9029098 
1012.927 8976258 8948725 8939626 8939356 8938747 8931035 8913515 8887711 
1016.784 8858966 8833637 8816291 8808243 8806012 8803780 8794244 8771524 
1020.641 8733151 8680179 8617411 8551577 8491701 8446461 8423791 8428859 
1024.498 8462643 8520793 8593888 8670376 8738323 8790694 8827956 8859236 
1028.356 8898770 8960529 9053389 9174286 9307880 9427393 9504163 9513916 
1032.213 9444493 9300060 9100925 8877430 8661013 8479808 8349947 8274496 
1036.070 8244508 8244542 8256226 8263892 8257340 8232284 8190009 8136933 
1039.928 8082716 8038397 8014163 8017841 8051291 8109351 8178832 8242854 
1043.785 8284290 8291584 8262609 8206519 8140343 8083662 8054599 8064522 
1047.643 8116879 8209896 8339443 8500689 8688359 8894474 9105831 9303377 
1051.500 9466572 9575968 9620342 9599814 9525838 9416591 9290412 9161461 
1055.358 9036642 8919062 8812266 8723550 8665238 8649824 8682680 8757290 
1059.215 8853994 8946391 9008428 9024294 8993273 8927924 8846656 8765641 
1063.072 8693396 8629916 8571854 8519171 8478320 8461393 8479401 8533971 
1066.930 8613626 8695796 8755972 8776358 8755397 8707999 8659221 8630457 
1070.787 8630694 8651413 8671356 8664528 8613659 8517481 8391091 8258624 
1074.645 8142672 8058109 8006164 7978523 7962628 7949365 7935429 7924698 
1078.502 7924968 7944573 7988952 8059290 8151518 8256732 8362108 8450818 
1082.359 8506905 8518326 8480989 8401597 8297461 8191393 8102634 8042616 
1086.217 8010281 7995431 7984091 7967926 7947340 7931784 7932931 7958140 
1090.074 8003532 8055105 8091190 8092337 8049198 7964855 7853841 7736041 
1093.932 7630885 7551984 7507415 7500673 7532093 7600436 7700053 7820643 
1097.789 7945181 8053417 8128291 8159620 8150303 8113875 8071577 8042549 
1101.647 8038465 8059595 8097367 8137339 8165530 8172485 8153949 8109250 
1105.504 8040895 7953246 7853233 7751759 7663765 7604684 7586915 7614834 
1109.361 7682414 7773921 7867539 7942582 7982539 7979873 7935968 7859981 
1113.219 7766230 7672904 7601481 7572720 7605089 7709497 7884240 8112356 
1117.076 8362749 8598958 8782681 8887237 8903674 8842531 8729500 8598485 
1120.934 8484166 8410515 8389536 8418319 8481462 8554687 8610888 8627686 
1124.791 8591049 8500486 8369370 8223200 8090818 7998436 7961379 7981088 
1128.649 8045654 8135988 8234141 8327453 8413184 8495552 8582972 8682004 
1132.506 8794853 8918994 9048855 9179160 9305679 9426648 9541215 9647919 
1136.363 9744721 9829273 9900827 9960627 10013416 10065738 10123628 10192991 
1140.221 10276987 10377661 10495535 10629128 10772984 10916311 11044663 
1143.596 11140451 11189712 11188250 11145584 11084192 11034841 11027738 
1146.971 11081507 11198144 11362121 11547731 11725014 11870903 11974161 
1150.347 12034724 12060581 12061160 12044569 12014763 11974161 11926276 
1153.722 11877202 11835558 11810465 11807400 11826705 11863105 11907953 
1157.097 11950218 11980701 11992930 11983494 11951682 11899201 11829701 
1160.472 11748230 11661567 11576927 11500437 11436682 11388481 11356372 
1163.848 11340422 11339707 11352563 11375216 11402087 11425558 11437226 
1167.223 11431409 11405931 11363549 11310459 11253566 11197498 11143102 
1170.598 11087489 11026480 10957290 10880331 10798425 10715823 10635375 
1173.973 10557115 10479039 10398906 10316073 10232782 10153102 10080150 
1177.349 10014841 9955135 9897809 9841476 9789045 9746923 9723508 9723034 
1181.206 9743026 9772982 9798840 9806803 9790265 9751192 9699316 9645378 
1185.063 9596596 9552934 9508363 9455160 9390756 9320946 9260862 9229283 
1188.921 9240418 9299890 9400575 9525500 9651883 9759020 9831070 9858761 
1192.778 9839069 9772270 9662013 9513951 9339769 9155640 8980825 8835632 
1196.636 8734639 8684235 8681700 8717329 8777711 8849463 8922410 8989247 
1200.493 9044118 9082688 9101263 9098522 9077139 9044862 9012453 8990972 
1204.350 8988571 9007176 9042867 9088034 9134864 9178584 9217978 9255818 
1208.208 9295761 9340480 9390249 9444120 9500539 9558625 9618209 9679088 
1212.065 9739468 9795315 9841476 9873200 9889199 9890861 9883979 9874997 
1215.923 9869235 9869439 9875370 9885844 9900386 9920962 9951779 9997685 
1219.780 10061975 10144928 10243129 10350548 10459861 10564414 10660163 
1223.155 10744760 10818535 10883593 10943563 11002147 11063017 11127975 
1226.531 11195458 11260809 11317431 11359026 11383004 11391883 11393175 
1229.906 11397325 11412393 11440526 11475941 11506595 11517483 11495844 
1233.281 11435968 11339298 11214056 11070665 10919778 10769044 10624136 
1236.656 10489119 10368228 10265249 10183154 10122543 10081406 10056040 
1240.032 10042849 10040204 10048749 10069842 10103449 10145233 10186376 
1243.407 10214226 10217652 10189429 10129767 10045392 9948050 9849474 
1246.782 9758478 9680036 9616278 9568143 9537286 9525838 9536541 9569701 
1250.640 9622918 9690879 9766984 9845102 9920929 9991921 10056345 10111216 
1254.497 10152253 10173724 10171350 10143537 10093716 10029591 9961305 
1257.872 9899132 9851508 9824156 9819818 9839442 9881370 9941031 10011349 
1261.730 10082796 10145403 10192312 10220943 10235190 10242382 10251576 
1265.105 10268438 10293782 10323945 10353466 10378782 10400025 10420932 
1268.480 10446114 10477171 10510980 10538952 10550902 10540141 10507416 
1271.855 10461830 10418182 10392865 10396360 10431147 10490240 10561189 
1275.231 10629060 10680436 10707027 10705431 10677245 10627362 10565127 
1278.606 10502426 10452292 10428534 10440277 10490002 10571543 10671811 
1281.981 10773766 10861306 10924704 10962184 10979480 10985903 10989811 
1285.356 10996234 11004662 11011289 11012376 11007449 11000856 11000992 
1288.732 11018392 11062269 11137425 11243774 11375793 11524593 11679163 
1292.107 11829055 11965851 12084088 12182320 12262509 12329624 12389964 
1295.482 12449870 12514626 12586964 12667364 12753786 12843057 12930435 
1298.857 13011514 13082056 13139188 13182119 13213031 13236703 13258839 
1302.233 13284324 13315448 13350025 13382589 13406850 13418333 13417581 
1305.608 13409481 13401622 13401212 13410781 13426808 13440547 13442699 
1308.983 13426910 13392225 13344182 13291327 13242168 13200427 13164496 
1312.358 13128704 13085574 13029815 12960440 12880157 12793846 12705712 
1315.734 12618243 12532223 12447415 12363509 12281085 12200415 12121429 
1319.109 12043548 11966736 11892561 11825208 11771278 11737472 11727907 
1322.484 11742511 11775499 11817717 11858781 11891028 11912347 11925832 
1325.859 11938638 11958767 11992521 12042833 12110049 12192236 12287152 
1329.234 12392555 12506066 12625610 12748906 12874934 13004344 13140589 
1332.610 13288048 13450799 13629852 13821599 14017778 14208636 14387556 
1335.985 14554180 14716413 14888478 15085552 15315526 15573371 15838036 
1339.360 16079377 16268976 16392142 16453840 16474145 16478172 16486121 
1342.735 16510386 16554857 16617818 16695319 16784784 16885874 16999912 
1346.111 17127526 17266964 17413384 17560300 17701502 17833566 17956692 
1349.486 18074396 18190612 18307756 18425278 18539686 18645684 18738112 
1352.861 18813016 18870008 18911260 18942166 18972346 19014406 19082122 
1356.236 19190778 19353160 19578092 19869974 20229080 20654220 21146114 
1359.612 21713308 22374762 23161940 24111812 25254344 26592572 28085028 
1362.987 29644956 31164336 32548066 33730336 34680052 35384180 35836444 
1366.362 36037676 36002868 35775384 35429008 35071628 34817992 34760520 
1369.737 34961688 35447808 36227264 37310908 38726276 40517860 42725840 
1373.113 45352264 48310780 51407280 54384832 56987728 59046132 60490116 
1376.488 61303820 61484344 61016404 59882424 58099124 55749068 52985824 
1379.863 49988076 46933240 43954624 41130576 38510036 36120524 33976132 
1383.238 32077842 30405174 28914898 27545890 26236404 24936434 23626874 
1386.614 22329308 21097100 19989550 19043034 18258510 17610088 17064490 
1389.989 16591791 16170813 15786527 15425512 15074334 14719532 14352314 
1393.364 13973225 13595320 13241554 12934531 12685241 12488742 12330340 
1396.739 12194758 12073220 11963262 11863956 11771652 11677087 11570734 
1400.115 11449813 11320322 11196308 11092215 11018494 10976490 10958412 
1403.490 10949373 10935883 10912574 10887092 10874250 10887737 10929699 
1406.865 10990049 11051189 11097517 11121856 11127023 11123352 11121958 
1410.240 11128927 11142252 11155034 11162174 11166798 11180532 11219258 
1413.616 11294577 11408686 11553073 11713168 11873866 12027912 12176697 
1416.991 12328397 12489152 12655868 12812855 12941290 13035892 13113986 
1420.366 13203740 13330754 13505553 13725287 13976749 14245030 14517555 
1423.741 14790490 15069325 15364645 15685484 16033925 16409209 16813232 
1427.117 17255656 17754792 18333192 19008416 19782610 20638690 21546386 
1430.492 22476326 23410816 24347670 25292906 26253298 27230706 28225452 
1433.867 29244030 30303334 31437072 32686726 34077616 35579412 37097032 
1437.242 38512644 39752096 40817392 41765060 42666436 43589724 44582564 
1440.618 45669292 46848452 48100780 49398236 50713688 52031796 53346608 
1443.993 54659028 55973272 57295404 58636856 60016968 61462432 62997608 
1447.368 64630152 66344164 68102440 69869432 71636216 73426064 75286600 
1450.743 77266488 79391896 81646472 83970816 86288880 88525520 90645328 
1454.119 92655920 94590952 96486888 98345552 100096328 101584368 102654136 
1457.494 103279672 103581760 103734296 103839864 103923280 103975232 
1460.387 103984240 103949424 103874336 103755960 103569776 103259752 
1463.280 102744040 101928216 100742424 99177232 97273192 95080360 92617288 
1466.655 89856496 86767752 83352192 79665904 75791448 71825264 67835088 
1470.030 63809044 59676524 55331740 50725532 45976380 41417628 37454564 
1473.406 34314468 31954144 30151512 28653612 27291600 25989106 24750380 
1476.781 23616166 22624442 21781932 21064996 20435260 19856238 19302824 
1480.156 18762016 18230452 17709024 17200118 16707577 16237983 15801748 
1483.531 15409342 15070286 14786891 14552844 14354232 14174435 14000394 
1486.907 13825978 13651426 13475270 13283675 13050539 12744403 12353078 
1490.282 11902232 11447567 11046125 10730528 10505447 10354043 10251000 
1493.657 10171452 10096768 10016332 9927268 9832256 9734487 9633386 9524484 
1497.515 9404672 9276568 9150125 9037725 8947676 8881082 8831744 8791438 
1501.372 8754078 8720338 8696607 8693328 8721995 8790188 8900867 9048517 
1505.229 9217572 9371594 9456853 9423058 9270881 9058700 8850951 8678150 
1509.087 8542961 8441595 8370586 8327487 8309789 8311579 8325224 8342719 
1512.944 8359946 8377409 8398421 8425717 8457441 8483321 8486734 8449838 
1516.802 8366938 8251060 8128156 8021690 7943764 7892878 7855258 7808498 
1520.659 7725517 7590118 7407943 7206170 7012808 6841478 6691615 6557378 
1524.516 6434784 6324429 6228958 6150110 6084381 6022928 5956042 5879829 
1528.374 5797620 5719286 5654662 5611462 5589746 5583839 5581825 5569709 
1532.231 5535444 5473733 5391768 5308544 5244517 5209171 5202062 5218863 
1536.089 5257295 5318975 5408777 5531081 5682626 5845573 5979523 6029311 
1539.946 5960678 5796444 5605890 5448669 5347084 5288218 5246932 5197468 
1543.804 5124640 5026987 4915246 4805678 4712517 4642416 4594160 4562751 
1547.661 4542661 4528933 4518353 4509347 4501647 4496826 4497797 4507606 
1551.518 4529201 4564291 4612980 4673195 4741525 4814624 4893297 4983681 
1555.376 5097283 5248005 5448736 5704648 6003140 6288894 6433607 6292962 
1559.233 5872709 5368620 4950702 4661372 4472119 4345494 4256346 4191438 
1563.091 4146878 4123128 4121589 4140555 4174610 4217133 4263775 4314772 
1566.948 4373407 4442560 4518554 4588970 4629221 4615090 4538710 4418091 
1570.806 4285558 4170897 4091552 4051383 4047035 4071317 4116270 4172938 
1574.663 4231620 4280205 4302959 4287064 4230851 4146510 4053223 3967479 
1578.520 3898301 3847452 3810582 3780065 3745707 3699087 3635899 3558923 
1582.378 3477118 3401707 3342869 3306476 3292387 3295926 3309915 3328111 
1586.235 3346976 3365876 3386145 3409254 3436505 3467566 3501935 3538880 
1590.093 3577231 3614950 3648162 3671686 3679271 3666807 3633794 3584246 
1593.950 3526721 3472242 3431395 3411491 3415966 3443185 3488875 3547064 
1597.807 3612678 3681243 3749216 3814326 3874197 3927422 3972294 4006636 
1601.665 4027638 4031685 4016301 3982058 3934343 3883892 3842505 3820844 
1605.522 3823418 3846617 3878108 3900441 3897498 3858651 3784510 3686322 
1609.380 3581006 3484967 3409822 3360900 3338061 3338095 3357160 3391054 
1613.237 3435470 3483498 3525251 3544859 3523313 3445055 3308713 3136301 
1617.095 2967527 2838071 2762437 2735962 2745165 2777876 2826298 2887101 
1620.952 2959887 3042963 3130961 3212768 3274325 3305274 3305841 3285509 
1624.809 3256197 3225886 3197146 3166639 3128825 3079401 3018039 2950013 
1628.667 2883398 2825431 2779944 2747432 2726192 2715789 2717523 2734695 
1632.524 2771341 2830968 2913318 3013601 3118446 3205858 3253093 3250222 
1636.382 3208862 3150785 3092950 3040894 2992482 2943608 2891970 2837604 
1640.239 2783579 2733728 2691717 2659979 2639377 2630809 2636310 2659612 
1644.097 2705787 2779544 2882864 3009597 3142175 3254161 3321567 3339664 
1647.954 3324472 3298730 3278698 3272022 3280835 3304272 3340632 3386613 
1651.811 3435169 3469670 3466196 3412894 3331784 3257600 3207794 3181025 
1655.669 3169176 3164102 3159263 3150618 3137302 3121016 3106332 3098890 
1659.526 3102728 3119547 3146947 3179489 3209263 3229792 3237904 3236802 
1663.384 3234666 3239306 3255496 3284341 3324505 3374023 3431596 3496524 
1667.241 3567442 3642248 3716064 3781435 3830972 3860490 3872525 3873895 
1671.099 3872726 3874363 3880649 3890143 3899170 3902313 3892617 3864167 
1674.956 3815262 3752391 3687558 3633493 3598379 3584046 3589692 3612444 
1678.813 3648830 3693373 3740861 3786783 3829401 3870385 3913079 3959654 
1682.671 4007372 4042086 4039410 3980353 3874129 3755566 3656515 3591697 
1686.528 3562565 3566206 3598278 3652539 3720709 3791162 3852467 3894824 
1690.386 3914182 3912644 3897732 3879813 3869148 3875500 3907194 3970889 
1694.243 4070748 4205188 4361391 4516244 4647507 4748392 4828528 4902981 
1698.100 4981770 5062418 5127054 5142679 5081292 4949161 4791842 4656885 
1701.958 4569113 4530071 4530340 4558096 4600556 4644995 4678252 4691583 
1705.815 4683511 4660770 4633776 4611975 4600255 4598848 4604575 4612344 
1709.673 4616998 4615190 4605780 4590376 4572964 4557628 4548587 4549626 
1713.530 4563554 4592117 4635785 4691884 4751776 4799078 4809799 4756968 
1717.388 4626475 4432049 4213419 4014295 3860791 3757338 3693172 3652305 
1721.245 3618692 3580939 3533234 3477686 3422746 3381069 3362236 3370350 
1725.102 3401907 3449464 3503639 3557220 3605929 3648964 3688026 3726290 
1728.960 3766963 3813289 3867477 3931501 4006302 4091418 4182673 4271136 
1732.817 4338901 4361492 4322034 4229211 4120619 4033859 3988612 3984599 
1736.675 4012957 4062286 4121254 4177621 4217835 4230951 4211044 4160995 
1740.532 4089344 4008008 3927790 3856813 3801824 3766562 3751656 3753862 
1744.390 3767598 3786349 3804699 3820109 3831741 3839530 3842639 3837558 
1748.247 3818638 3778695 3711285 3613346 3487072 3341434 3189769 3046834 
1752.104 2924760 2829100 2760403 2715089 2687550 2670714 2656912 2637877 
1755.962 2606942 2561911 2506720 2450869 2404488 2373770 2360477 2361576 
1759.819 2370771 2380533 2383931 2376302 2357445 2331528 2304545 2281395 
1763.677 2264042 2252384 2245357 2242393 2243692 2250952 2266573 2293520 
1767.534 2333160 2385863 2449869 2522316 2599375 2676548 2747099 2800419 
1771.391 2824197 2807823 2751200 2665813 2571410 2484392 2414050 2364475 
1775.249 2336258 2329395 2342987 2374569 2419781 2471862 2522783 2562977 
1779.106 2583442 2577743 2544713 2490357 2424879 2360643 2306178 2264608 
1782.964 2234832 2212852 2193203 2170825 2142920 2108758 2070370 2031054 
1786.821 1994204 1962483 1937055 1917485 1902676 1891061 1882442 1878915 
1790.679 1885237 1908832 1954129 2019702 2095040 2165197 2215849 2238829 
1794.536 2232168 2199098 2146250 2082289 2016906 1958356 1912892 1884139 
1798.393 1872825 1877118 1892625 1913292 1931497 1940949 1938519 1925872 
1802.251 1907934 1891560 1882509 1882908 1891394 1903574 1913858 1917718 
1806.108 1913192 1901311 1885870 1871560 1862409 1860712 1866968 1879580 
1809.966 1895421 1910263 1917918 1911362 1885437 1837785 1772007 1696857 
1813.823 1625911 1573100 1549524 1559300 1596579 1645701 1685215 1696757 
1817.681 1670114 1608518 1525915 1442630 1376812 1339087 1331044 1346764 
1821.538 1376778 1411914 1446719 1478935 1508625 1535990 1560663 1581048 
1825.395 1596313 1607187 1615868 1624814 1635324 1646399 1655778 1660734 
1829.253 1660834 1659969 1664925 1681257 1709664 1744128 1774102 1786978 
1833.110 1772339 1724500 1645301 1544769 1439672 1350587 1293755 1279431 
1836.968 1307746 1369931 1449179 1526680 1587300 1621455 1628106 1611943 
1840.825 1581680 1546066 1512781 1487147 1471221 1465270 1469659 1485385 
1844.682 1515042 1560663 1620856 1690703 1761893 1824143 1866303 1880212 
1848.540 1861045 1809503 1732451 1640080 1544004 1455097 1383958 1340316 
1852.397 1332140 1363549 1431593 1524585 1622220 1700683 1736742 1712824 
1856.255 1623351 1476907 1297477 1116659 970419 887639 884087 961055 1104601 
1860.594 1287806 1476474 1640313 1757302 1819485 1832528 1810934 1772439 
1864.452 1730954 1694130 1660801 1623916 1574663 1509822 1435948 1372058 
1868.309 1342344 1366208 1446287 1565751 1695793 1807739 1881311 1904439 
1872.167 1874988 1797259 1680824 1537054 1379138 1220482 1073211 948104 
1876.024 852679 789871 757673 749873 760329 783763 819282 869744 939072 
1880.364 1028803 1135429 1249192 1355605 1438608 1484620 1486714 1446586 
1884.221 1374983 1288570 1206560 1144731 1113836 1117988 1156159 1221978 
1888.078 1305420 1395359 1480032 1550787 1603862 1640612 1665092 1682288 
1891.936 1695926 1706903 1713822 1713290 1700516 1670180 1617530 1539947 
1895.793 1438441 1319378 1193071 1075137 982839 931899 932364 984201 1076366 
1900.133 1188120 1298607 1389609 1453767 1493996 1521327 1548327 1582645 
1903.990 1622885 1658639 1674970 1657940 1600669 1506896 1390839 1270858 
1907.848 1166657 1091679 1050824 1040494 1051521 1073775 1099186 1124466 
1911.705 1149249 1174930 1201045 1224569 1239389 1239688 1222343 1190778 
1915.563 1155029 1132372 1142073 1198686 1304323 1443395 1585172 1693398 
1919.420 1742897 1722405 1635756 1496456 1325958 1149216 989149 864930 
1923.277 784892 747417 742870 759134 783398 803945 812078 803049 777523 
1927.617 741841 706660 682865 676759 686848 704005 713929 704736 671781 
1931.957 620380 563478 513715 478586 455268 431785 394407 335976 262003 
1936.296 192087 152443 166364 244332 378622 545795 715157 861012 968858 
1940.636 1039232 1085999 1132705 1199716 1295582 1409653 1515874 1577922 
1944.493 1560098 1440536 1217093 912873 569881 245559 -4572 -144208 -164048 
1948.833 -85212 50466 195103 316346 404688 472848 543340 631529 732515 
1953.172 820577 855966 806501 663153 449430 213535 11762 -109162 -135000 
1957.512 -81237 11597 101070 153139 153769 107798 33069 -48207 -115324 
1961.852 -147156 -123340 -26605 151150 399481 682135 940267 1115895 1163202 
1966.191 1074573 885049 664779 489334 407806 427241 518061 636805 749973 
1970.531 847898 940998 1041192 1141708 1204201 1168285 977127 606677 87814 
1974.870 -493880 -1015397 -1368398 -1497195 -1416123 -1192677 -913901 
1978.246 -645368 -408251 -183656 62230 352523 682401 1020234 1322668 1549058 
1982.585 1682022 1727627 1711128 1657807 1583742 1488344 1360990 1191841 
1986.443 981943 747417 514777 308852 143162 18754 -71795 -135927 -174316 
1990.782 -180013 -143579 -60763 62197 211015 369833 532060 701981 892885 
1995.122 1119051 1383792 1673241 1954495 2181314 2310441 2311807 2183179 
1998.979 1950567 1666289 1391437 1182372 1080817 1101678 1229055 1413509 
2002.837 1587566 1672376 1598474 1326656 859020 247183 -418115 -1018604 
2006.694 -1447563 -1638630 -1574950 -1289053 -845552 -323301 208463 694746 
2010.552 1099718 1406163 1606855 1703643 1705805 1635756 1526846 1415803 
2014.409 1339685 1317251 1347429 1406994 1463275 1484786 1457158 1390706 
2018.266 1316221 1270193 1278700 1350387 1471321 1612209 1737973 1821381 
2022.124 1850995 1832062 1780391 1717215 1659204 1617231 1595747 1595814 
2025.981 1615967 1652619 1700317 1746323 1773404 1763955 1706271 1601101 
2029.839 1464805 1327221 1221712 1174565 1198088 1284715 1412445 1552051 
2033.696 1682355 1795628 1899547 2009150 2136760 2284893 2439373 2578209 
2037.554 2675281 2714156 2687350 2599075 2460599 2285692 2088748 1882475 
2041.411 1682055 1505400 1373089 1305752 1315057 1397520 1531668 1682787 
2045.268 1809237 1880113 1881344 1819951 1717814 1603795 1500911 1417764 
2049.126 1348061 1276939 1190678 1084305 965504 852579 768959 735502 765308 
2053.465 860979 1015618 1213372 1432857 1651554 1846137 1995202 2083221 
2057.323 2099868 2043005 1921013 1753443 1567514 1396689 1273682 1221712 
2061.180 1252515 1361688 1531468 1733715 1934392 2104396 2222576 2282594 
2065.038 2291921 2269005 2234732 2206691 2193503 2193470 2196667 2190539 
2068.895 2164864 2114418 2041074 1950667 1850164 1744560 1634625 1518101 
2072.752 1391703 1254442 1110879 970851 849359 763349 726010 745592 822004 
2077.092 945613 1099020 1260490 1408224 1524519 1600802 1637386 1642242 
2080.949 1626011 1600370 1572435 1546731 1524884 1508725 1500911 1504702 
2084.807 1521526 1548360 1576825 1595215 1592754 1565585 1519531 1470789 
2088.664 1440270 1444891 1492566 1576858 1681955 1787244 1878349 1950601 
2092.522 2009616 2065177 2122343 2176619 2212585 2209755 2153309 2044236 
2096.379 1903408 1767049 1674538 1657076 1724168 1862542 2040108 2220578 
2100.237 2371604 2474894 2527282 2536714 2514018 2466397 2394992 2296251 
2104.094 2167895 2013577 1846237 1686379 1556706 1474413 1446154 1465436 
2107.951 1515874 1574963 1621854 1644304 1640213 1617630 1590925 1576293 
2111.809 1585039 1621920 1683818 1762492 1846936 1926305 1992306 2038178 
2115.666 2058685 2049263 2007885 1936389 1842510 1741632 1652452 1594051 
2119.524 1579652 1611211 1678829 1764022 1847834 1917186 1971337 2020501 
2123.381 2081323 2166496 2277132 2397491 2500154 2550745 2519217 2390461 
2127.239 2167062 1870762 1534760 1200247 904141 673806 525226 460940 469597 
2131.578 528046 608203 680609 723255 729494 708751 683065 677157 709116 
2135.918 779415 871736 957169 1008843 1009540 959295 870806 765606 662357 
2140.257 571772 499219 448634 428535 455401 545928 706760 922967 1156824 
2144.597 1351152 1447584 1407825 1225101 930007 579470 244465 -12988 -151826 
2148.937 -152091 -12259 257859 637967 1098489 1591623 2051860 2408719 
2152.794 2592875 2561844 2315138 1901477 1412213 957236 646993 556876 719538 
2157.134 1117656 1696159 2366940 3029083 3594637 3994431 4191137 4178625 
2160.991 3974568 3613213 3143343 2622976 2110056 1660635 1323200 1133004 
2164.848 1113803 1272220 1590958 2026526 2512152 2971831 3330382 3535974 
2168.706 3567876 3440780 3195244 2886734 2570476 2283127 2045135 1863308 
2172.563 1738805 1675635 1680126 1753775 1884239 2040641 2176952 2240528 
2176.421 2195001 2030055 1769145 1459785 1164863 939504 816792 804609 888536 
2180.760 1041192 1230849 1430995 1621422 1785514 1910297 1983919 1995968 
2184.618 1943279 1831996 1677664 1503039 1333669 1193370 1100349 1067963 
2188.475 1103538 1207657 1374784 1591191 1835756 2082322 2305578 2483992 
2192.333 2605342 2668313 2681182 2656312 2603908 2530448 2435941 2317670 
2196.190 2177019 2019203 1857651 1709298 1588763 1504270 1454731 1431394 
2200.047 1421388 1414540 1408656 1410750 1435981 1501011 1618362 1789074 
2203.905 1999197 2221877 2424113 2571510 2640810 2624742 2533681 2392827 
2207.762 2237097 2102898 2017938 1995768 2033584 2113220 2205958 2278164 
2211.620 2301914 2257580 2141056 1964979 1755805 1547196 1372923 1258263 
2215.477 1211611 1222709 1263547 1301099 1302395 1251086 1149880 1023921 
2219.334 908358 839333 840894 915629 1045941 1198187 1337757 1436680 1484021 
2223.674 1487945 1470922 1462178 1485817 1557006 1677265 1836654 2017405 
2227.531 2201096 2372104 2520117 2641010 2734228 2801586 2845342 2867355 
2231.389 2870523 2857816 2833002 2798785 2756602 2703253 2633443 2540113 
2235.246 2417915 2268305 2102299 1940117 1807606 1731486 1730322 1807972 
2239.104 1950601 2131133 2314938 2470129 2576643 2630676 2642210 2628442 
2242.961 2607708 2589775 2574710 2554745 2520416 2467797 2402989 2340655 
2246.819 2300615 2300348 2346718 2434342 2546146 2659845 2754268 2816927 
2250.676 2846209 2850945 2845876 2844308 2854480 2876861 2903878 2925260 
2254.533 2931598 2918656 2888435 2848244 2808190 2776943 2758569 2752234 
2258.391 2752367 2751700 2743397 2724892 2697819 2668046 2643177 2630209 
2262.248 2633243 2652344 2684682 2724925 2768773 2812191 2852913 2888768 
2266.106 2916387 2930931 2927362 2900910 2850878 2782178 2705387 2634843 
2269.963 2586875 2573443 2599575 2662712 2752801 2856315 2958419 3048669 
2273.821 3121182 3175117 3212935 3237403 3250489 3252125 3241142 3217474 
2277.678 3183394 3144911 3111104 3091915 3096921 3130894 3194476 3281569 
2281.535 3382539 3483965 3571485 3633627 3660258 3646792 3593100 3505409 
2285.393 3394160 3274559 3164136 3078567 3030985 3027882 3068089 3142842 
2289.250 3237904 3337627 3427555 3498595 3548668 3582008 3606965 3633159 
2293.108 3667676 3713290 3766562 3820276 3864769 3891447 3895359 3876604 
2296.965 3840733 3797245 3756803 3729431 3721177 3733508 3762852 3801824 
2300.823 3840433 3869851 3883591 3879512 3860289 3831674 3802426 3780734 
2304.680 3772378 3780399 3804766 3843475 3894523 3957347 4032053 4118980 
2308.537 4216464 4318621 4415480 4494683 4543666 4555786 4532181 4483602 
2312.395 4427062 4381574 4361157 4370461 4403463 4446042 4482832 4501145 
2316.252 4497261 4476605 4452100 4437974 4446075 4481560 4542493 4621854 
2320.110 4711144 4804204 4898390 4993032 5087494 5178221 5259006 5321323 
2323.967 5358221 5367077 5350506 5316292 5274903 5237307 5212223 5204778 
2327.824 5215945 5243109 5282415 5328669 5377879 5427498 5475646 5521585 
2331.682 5563903 5599916 5625727 5635025 5621498 5580046 5508799 5410824 
2335.539 5295395 5176075 5068016 4983983 4932236 4914777 4928550 4968230 
2339.397 5028998 5108246 5204410 5315956 5436691 5555177 5656039 5721502 
2343.254 5737853 5699277 5610119 5484270 5343092 5208836 5097920 5020551 
2347.112 4979190 4971314 4991859 5035501 5096914 5170039 5249313 5328501 
2350.969 5403141 5472156 5539303 5613677 5705152 5821864 5964474 6124940 
2354.826 6286507 6430783 6542241 6614567 6651844 6667119 6676372 6691816 
2358.684 6718736 6752826 6783351 6796409 6782139 6736706 6664360 6576047 
2362.541 6485600 6406974 6348098 6310141 6286137 6263816 6228622 6168359 
2366.399 6077829 5958662 5819346 5672219 5530410 5404785 5303043 5230332 
2370.256 5189286 5180635 5202900 5249917 5310925 5369224 5406026 5403308 
2374.114 5349768 5244450 5097820 4928751 4760485 4614252 4502283 4426760 
2377.971 4380235 4349075 4318420 4276524 4218437 4145339 4062855 3978580 
2381.828 3899304 3829234 3770105 3722246 3685854 3662329 3654076 3663299 
2385.686 3690566 3732873 3783307 3830504 3862964 3870252 3847018 3794839 
2389.543 3722413 3644052 3575059 3529860 3516866 3537610 3586585 3653241 
2393.401 3725321 3790961 3841770 3873829 3886833 3883290 3867510 3844411 
2397.258 3818370 3794103 3775720 3766562 3768701 3782405 3804933 3831039 
2401.115 3853938 3866908 3865271 3847686 3817668 3781770 3747679 3722346 
2404.973 3709246 3707776 3713724 3721644 3727326 3729531 3730567 3735179 
2408.830 3748247 3772010 3804732 3840633 3872492 3893386 3900073 3893654 
2412.688 3879545 3865037 3856779 3858785 3871355 3892016 3916188 3939793 
2416.545 3959320 3972728 3978647 3976541 3966543 3949890 3929729 3909769 
2420.403 3894824 3888104 3889408 3895760 3900842 3898702 3885597 3862563 
2424.260 3835050 3811919 3801390 3808342 3832209 3867644 3906258 3939893 
2428.117 3963566 3975337 3975738 3965940 3945978 3914717 3871355 3816899 
2431.975 3756636 3698953 3654243 3630520 3630252 3649432 3679004 3707442 
2435.832 3725755 3731336 3728428 3725454 3732305 3755433 3795240 3845781 
2439.690 3896462 3937252 3960156 3963199 3949556 3926419 3902012 3883390 
2443.547 3874765 3876838 3888104 3905021 3923276 3939692 3951462 3957548 
2447.405 3957849 3953970 3948152 3943571 3943772 3951028 3966944 3991454 
2451.262 4022522 4055965 4086568 4108042 4114498 4101586 4068139 4017003 
2455.119 3954204 3889909 3835184 3799585 3790092 3808677 3852400 3913981 
2458.977 3984165 4053323 4113059 4158486 4186788 4198364 4194884 4179227 
2462.834 4154271 4122927 4087404 4050313 4013626 3979985 3951596 3930799 
2466.692 3919163 3916723 3921972 3931267 3940662 3945945 3944173 3934777 
2470.549 3919531 3901444 3883691 3868480 3856311 3845915 3836488 3827864 
2474.406 3822415 3823919 3835986 3860289 3894657 3933173 3967813 3991454 
2478.264 4001219 4000249 3996872 4002189 4025765 4071083 4133965 4202780 
2482.121 4262503 4298509 4301688 4271270 4214021 4141626 4066801 3999814 
2485.979 3945243 3902480 3867711 3836254 3805735 3777692 3756903 3751088 
2489.836 3766796 3807674 3872057 3952365 4036066 4108076 4155475 4169191 
2493.694 4147848 4097405 4030648 3962263 3905155 3867377 3849625 3846951 
2497.551 3850628 3853236 3850862 3844511 3839497 3841603 3854807 3877907 
2501.408 3905021 3927890 3938890 3934878 3918495 3897532 3882220 3880348 
2505.266 3895125 3922774 3955174 3981322 3992324 3984767 3961493 3930698 
2509.123 3902948 3888906 3894490 3920568 3962463 4011853 4059276 4095967 
2512.981 4116739 4120385 4109246 4088742 4065865 4047470 4038708 4043189 
2516.838 4061417 4091953 4131356 4175346 4218939 4257183 4285625 4300416 
2520.696 4298877 4279736 4243531 4193379 4134233 4073524 4019144 3979283 
2524.553 3960958 3967579 3999514 4052821 4120184 4191840 4257518 4309016 
2528.410 4340775 4352154 4346197 4329263 4308682 4290578 4278933 4273846 
2532.268 4272508 4269999 4261600 4243833 4216096 4180632 4142763 4108778 
2536.125 4085164 4077337 4087304 4114030 4153368 4199401 4245439 4286462 
2539.983 4320294 4347971 4372972 4399748 4431112 4467433 4505196 4539045 
2543.840 4563387 4574805 4574035 4565630 4557058 4555786 4566233 4588668 
2547.698 4618606 4648512 4670348 4677449 4667300 4641311 4604708 4565128 
2551.555 4531545 4511456 4510820 4531980 4573332 4628920 4689573 4744138 
2555.412 4781892 4795627 4782696 4746349 4693726 4635283 4581603 4541523 
2559.270 4521735 4526322 4556456 4611272 4686994 4776833 4870645 4956668 
2563.127 5023735 5063893 5075492 5063826 5040127 5016662 5004327 5007847 
2566.985 5024070 5043847 5055948 5051121 5025545 4983111 4934046 4892191 
2570.842 4870578 4878619 4919401 4989748 5080856 5180467 5275942 5355471 
2574.699 5410723 5438436 5440080 5421325 5390426 5356410 5325885 5303177 
2578.557 5289761 5285132 5288956 5301835 5326287 5364561 5418204 5485209 
2582.414 5559876 5633783 5697330 5742553 5765754 5767433 5752760 5728317 
2586.272 5701896 5679369 5665001 5661343 5669701 5690213 5722643 5764679 
2590.129 5812999 5861996 5906195 5940086 5960543 5967329 5963063 5953086 
2593.987 5943177 5939179 5944756 5961282 5987653 6020879 6056392 6089354 
2597.844 6114825 6129645 6131963 6122419 6104710 6084045 6067547 6062809 
2601.701 6075678 6110020 6166107 6240152 6324060 6407176 6477528 6524245 
2605.559 6540357 6524750 6482640 6424460 6364540 6317100 6292962 6297231 
2609.416 6328060 6377989 6435087 6487147 6523876 6538911 6531141 6503930 
2613.274 6464681 6421838 6384311 6359563 6350721 6358353 6378931 6406840 
2617.131 6435390 6459099 6475141 6483818 6488223 6492798 6502383 6519570 
2620.989 6544898 6576182 6609722 6641112 6666346 6683068 6690639 6690336 
2624.846 6685053 6679030 6676608 6681554 6695484 6717525 6743672 6767566 
2628.703 6782375 6782509 6765210 6732432 6689361 6643332 6601984 6571136 
2632.561 6553947 6550348 6558353 6575173 6598217 6625097 6654569 6684953 
2636.418 6714833 6742797 6767735 6789341 6808021 6824917 6840905 6856086 
2640.276 6870022 6881804 6890624 6896549 6900959 6906144 6914257 6926411 
2644.133 6942268 6959607 6975466 6986745 6991897 6990954 6985701 6979439 
2647.990 6975499 6976913 6985600 7002369 7026884 7058033 7093800 7132096 
2651.848 7170091 7204890 7234435 7257278 7272844 7281875 7285850 7286794 
2655.705 7286659 7287265 7289793 7294880 7302664 7312908 7324803 7337709 
2659.563 7351054 7364669 7379026 7395473 7415358 7439525 7468446 7500774 
2663.420 7534082 7565201 7590792 7608259 7616655 7616453 7609776 7599660 
2667.278 7589545 7582363 7580508 7584858 7595210 7609979 7627075 7644071 
2671.135 7659144 7671589 7681909 7691385 7701267 7711757 7720964 7725923 
2674.992 7722651 7708181 7682043 7647341 7609911 7577238 7556300 7551074 
2678.850 7561728 7584487 7613148 7640698 7661404 7672263 7673073 7665383 
2682.707 7652231 7636517 7620870 7606977 7595951 7587825 7582127 7577035 
2686.565 7570764 7561020 7546758 7528519 7508999 7492043 7481727 7480952 
2690.422 7489953 7506910 7527305 7546927 7562470 7572821 7578823 7582633 
2694.280 7586308 7590219 7593388 7593422 7588095 7576226 7558491 7537319 
2698.137 7516281 7498482 7486346 7480582 7480851 7485975 7494571 7505359 
2701.994 7517495 7529699 7541364 7551782 7560852 7569314 7578586 7590287 
2705.852 7605325 7623770 7644340 7664979 7683899 7700424 7716208 7734658 
2709.709 7760091 7796387 7845103 7904283 7968567 8030870 8083426 8120290 
2713.567 8139296 8141963 8133287 8120492 8111208 8111647 8125690 8154387 
2717.424 8195950 8246736 8301852 8356095 8405042 8445278 8475414 8496059 
2721.281 8509811 8520557 8533296 8552017 8579322 8615079 8656720 8699075 
2725.139 8736025 8762226 8774025 8771186 8756039 8733726 8709352 8687379 
2728.996 8669666 8654996 8639414 8617546 8584426 8536945 8475178 8402069 
2732.854 8323670 8247513 8180385 8127581 8091528 8070936 8061822 8058109 
2736.711 8053215 8041570 8020069 7988682 7950175 7909513 7872263 7842977 
2740.569 7824016 7815279 7813964 7816123 7817269 7813862 7804012 7787583 
2744.426 7765623 7740055 7712836 7685551 7659684 7636517 7616992 7602189 
2748.283 7593186 7590455 7594029 7603808 7618948 7638675 7662112 7688586 
2752.141 7717119 7746666 7775608 7802258 7824692 7841189 7851108 7854617 
2755.998 7853099 7848712 7843787 7840953 7841628 7846891 7856607 7869934 
2759.856 7885421 7901854 7918152 7934045 7949670 7966172 7984733 8006569 
2763.713 8031815 8059932 8089334 8118163 8144563 8167589 8187408 8205405 
2767.571 8223538 8244339 8269430 8299825 8335761 8376936 8422845 8473218 
2771.428 8527450 8584932 8644450 8704416 8762598 8817406 8868062 8915138 
2775.285 8960902 9008259 9060223 9118553 9182917 9251181 9319254 9382699 
2779.143 9437958 9483674 9521232 9553883 9586841 9624747 9670550 9724593 
2783.000 9785080 9848152 9909844 9967781 10021996 10075063 10131530 10196078 
2786.858 10271864 10360288 10459725 10566927 10678398 10791632 10905711 
2790.233 11021518 11140348 11262951 11388277 11513229 11633419 11744690 
2793.608 11843935 11930464 12006452 12076218 12144360 12216432 12297003 
2796.983 12389112 12495290 12616605 12752932 12902649 13062525 13227719 
2800.359 13392635 13552519 13704085 13846365 13981300 14112135 14242428 
2803.734 14374918 14510429 14648312 14787438 14927365 15069908 15218539 
2807.109 15378445 15554413 15749212 15962247 16189178 16422939 16655309 
2810.484 16879640 17092094 17293102 17486714 17680276 17880864 18094292 
2813.860 18323412 18567350 18822530 19084268 19349384 19616742 19889190 
2817.235 20172292 20473188 20798414 21151122 21531030 21933540 22351528 
2820.610 22776134 23200806 23621660 24038932 24456988 24883694 25328380 
2823.985 25800456 26308634 26858646 27453862 28095138 28781510 29510920 
2827.361 30282090 31094886 31951290 32856126 33816500 34841868 35942828 
2830.736 37130124 38414788 39806380 41313288 42942656 44700256 46591908 
2834.111 48624080 50804520 53143784 55654440 58349640 61242124 64341792 
2837.486 67652912 71173648 74896464 78808120 82891896 87131496 91510520 
2840.862 96015864 100638768 105373872 110219680 115177480 120247864 
2843.755 125429440 130715264 136090112 141531792 147009728 152485456 
2846.648 157918416 163261104 168459728 173455488 178176912 182544912 
2849.541 186475936 189882496 192686560 194822736 196242944 196921328 
2852.434 196852976 196055040 194562272 192429072 189725280 186528096 
2855.327 182925984 179007120 174854448 170550208 166164528 161759504 
2858.220 157390432 153100848 148928352 144904560 141054480 137402096 
2861.113 133969872 130778264 127848584 125199376 122843232 120787552 
2864.006 119029792 117558528 116352904 115387992 114633976 114060552 
2866.899 113639888 113342472 113137856 112993168 112866864 112713752 
2869.792 112485648 112132824 111615088 110903560 109985024 108863304 
2872.685 107558480 106102408 104532320 102891072 101220288 99559152 97947272 
2876.061 96420280 95010544 93747272 92652312 91741248 91023240 90500992 
2879.436 90174104 90039920 90095320 90336520 90758344 91353432 92111600 
2882.811 93020928 94068928 95243672 96536792 97942456 99456688 101077160 
2886.186 102799120 104615864 106518064 108494472 110533904 112627000 
2889.079 114764848 116941024 119148872 121380576 123628384 125883240 
2891.972 128136784 130382880 132616608 134835296 137036544 139218096 
2894.865 141377280 143512080 145622096 147708864 149777232 151833728 
2897.759 153884896 155936688 157993456 160058096 162133264 164221728 
2900.652 166326624 168451856 170600416 172774704 174977216 177211344 
2903.545 179482960 181800784 184174864 186615232 189129184 191719296 
2906.438 194384144 197120592 199926544 202804048 205759696 208804320 
2909.331 211950064 215206400 218578560 222066432 225665776 229368608 
2912.224 233165488 237045712 240995488 244998848 249037008 253087008 
2915.117 257124656 261122352 265045888 268856640 272504800 275930752 
2918.010 279071648 281859680 284230336 286129536 287508256 288326560 
2920.903 288552448 288159584 287132640 285470944 283192192 280331392 
2923.796 276940352 273079968 268809568 264188080 259268464 254097280 
2926.689 248722272 243189712 237545808 231837040 226104448 220382944 
2929.582 214701392 209079248 203530016 198062000 192679392 187385008 
2932.475 182182160 177076320 172077536 167199072 162455984 157864288 
2935.368 153435600 149177424 145092768 141181360 137443312 133881480 
2938.261 130502480 127317328 124338984 121579376 119049272 116754696 
2941.155 114698432 112880528 111299184 109952720 108839464 107958328 
2944.048 107308464 106887800 106693832 106721488 106963840 107411344 
2946.941 108050616 108865136 109833696 110929448 112122576 113378432 
2949.834 114657832 115922440 117130776 118242856 119222688 120037176 
2952.727 120661064 121077152 121275816 121255312 121018520 120572176 
2955.620 119923480 119081088 118054744 116856720 115502056 114007608 
2958.513 112389792 110662680 108835032 106910472 104887536 102762928 
2961.406 100534096 98200888 95767648 93242528 90636960 87963992 85237976 
2964.781 82474800 79690272 76902800 74131296 71394752 68712480 66099992 
2968.156 63569360 61128296 58779280 56521656 54352460 52268596 50267728 
2971.532 48348444 46509988 44751604 43071576 41467496 39936808 38477996 
2974.907 37090936 35776896 34537924 33375640 32290474 31280190 30340820 
2978.282 29466450 28650534 27885644 27164354 26479122 25822678 25189558 
2981.657 24575870 23980766 23406130 22855860 22333528 21841232 21378170 
2985.033 20941090 20525394 20126756 19743080 19374224 19021640 18686948 
2988.408 18370178 18069352 17780818 17499926 17223320 16948540 16675279 
2991.783 16404185 16136389 15873054 15615272 15364474 15122603 14891667 
2995.158 14672748 14464968 14266190 14071919 13878111 13682645 13485797 
2998.534 13290508 13101179 12921321 12751603 12589727 12430946 12271031 
3001.909 12107971 11943713 11783772 11635632 11505744 11396781 11307058 
3005.284 11230955 11161086 11090073 11012275 10924806 10826587 10718031 
3008.659 10600165 10474558 10343151 10209036 10076387 9949473 9832561 
3012.035 9728116 9637078 9558083 9489194 9428036 9372406 9320913 9271863 
3015.892 9224138 9175268 9122648 9063504 8995810 8918961 8834415 8745930 
3019.750 8659255 8580606 8516265 8470111 8442980 8432034 8430920 8432068 
3023.607 8427440 8411157 8381024 8337923 8285167 8227455 8168737 8111546 
3027.464 8057400 8007514 7963033 7925777 7897737 7879247 7868551 7861533 
3031.322 7852289 7835218 7806812 7766871 7718671 7666732 7615576 7567764 
3035.179 7523327 7481087 7439154 7397664 7358434 7324466 7298655 7282144 
3039.037 7273451 7269071 7264421 7255661 7240702 7219477 7192728 7161569 
3042.894 7126639 7087502 7044092 6997588 6950584 6907053 6870797 6844507 
3046.751 6827845 6818589 6812060 6803309 6789712 6770595 6747778 6724625 
3050.609 6704536 6689192 6678728 6671561 6665202 6657530 6647538 6635123 
3054.466 6621362 6607468 6594483 6582943 6571944 6560540 6547219 6531006 
3058.324 6511767 6490780 6470230 6453180 6442485 6439896 6445243 6455937 
3062.181 6467977 6475813 6474266 6460141 6432733 6394331 6350284 6308023 
3066.039 6274136 6254438 6251413 6263581 6285398 6308931 6325538 6328060 
3069.896 6313133 6282305 6241833 6200490 6167754 6150245 6150480 6165032 
3073.753 6187146 6208590 6221833 6222438 6210271 6188289 6160764 6131963 
3077.611 6104576 6078433 6051856 6022659 5989702 5953926 5918723 5888495 
3081.468 5868545 5862567 5871030 5891551 5918992 5946469 5967127 5976601 
3085.326 5973006 5958494 5936660 5912442 5889637 5870358 5854238 5840100 
3089.183 5826196 5812059 5798627 5787848 5781938 5781435 5785632 5791878 
3093.041 5796411 5795672 5787176 5770387 5745944 5715727 5682122 5648016 
3096.898 5615960 5588739 5568534 5556788 5553432 5557124 5564944 5573670 
3100.755 5581087 5586390 5590820 5596794 5607266 5623311 5644491 5667955 
3104.613 5690515 5708912 5720931 5726102 5724624 5717003 5703339 5683666 
3108.470 5658590 5629621 5600419 5575482 5559473 5555580 5564708 5584880 
3112.328 5612805 5644525 5677489 5710154 5742217 5772704 5799164 5817532 
3116.185 5822603 5809641 5777137 5727377 5667016 5605588 5553398 5518464 
3120.042 5505141 5512423 5535478 5566521 5596828 5619585 5630762 5630494 
3123.900 5621766 5610220 5601292 5599144 5605420 5618746 5636368 5654595 
3127.757 5671145 5685277 5698673 5712941 5729660 5747522 5763571 5773174 
3131.615 5772234 5759005 5735133 5705857 5677523 5656374 5646002 5646169 
3135.472 5654025 5665136 5674904 5680007 5678966 5671346 5656978 5636167 
3139.330 5609314 5577563 5543834 5512893 5489638 5478968 5483296 5502054 
3143.187 5530847 5563735 5594646 5619216 5636435 5648016 5657549 5668862 
3147.044 5684405 5704346 5727008 5749100 5766963 5778211 5781166 5775659 
3150.902 5762698 5743694 5720830 5696457 5673226 5653789 5640262 5633850 
3154.759 5633817 5638483 5644995 5650164 5651910 5650164 5646539 5644995 
3158.617 5650265 5665370 5692025 5728284 5769447 5807828 5836506 5848865 
3162.474 5841778 5816223 5776633 5730567 5686117 5651003 5629755 5623881 
3166.332 5631064 5646707 5664666 5679134 5686251 5684841 5676482 5664699 
3170.189 5654696 5650198 5653857 5665438 5682659 5701224 5715828 5722543 
3174.046 5718950 5705051 5683062 5657113 5632306 5613107 5603004 5602702 
3177.904 5610858 5623411 5635495 5642410 5641605 5633380 5621162 5610489 
3181.761 5606427 5612872 5629588 5653084 5677321 5695920 5704581 5702567 
3185.619 5692999 5680880 5671044 5666177 5665606 5666411 5664767 5658624 
3189.476 5647915 5635361 5624284 5617000 5613409 5610891 5606025 5596425 
3193.333 5582765 5569005 5560849 5563668 5578603 5602601 5628044 5645901 
3197.191 5648452 5632709 5601493 5561923 5522960 5492222 5473431 5466788 
3201.048 5469237 5476720 5486417 5497323 5509302 5522960 5537626 5551083 
3204.906 5560547 5562728 5556385 5542726 5525007 5507557 5494571 5488363 
3208.763 5488934 5493799 5499101 5500208 5493900 5478062 5452159 5417634 
3212.621 5377410 5334941 5294691 5260548 5235429 5221076 5217756 5224362 
3216.478 5239420 5261051 5287782 5318069 5350372 5382073 5410153 5430484 
3220.335 5439241 5434208 5414984 5384052 5345877 5306531 5271884 5246932 
3224.193 5234691 5236033 5249883 5273628 5303814 5336317 5366574 5390526 
3228.050 5404349 5405489 5393546 5370499 5339839 5306933 5277384 5255450 
3231.908 5243578 5241868 5247200 5255350 5261051 5260280 5250151 5230365 
3235.765 5202867 5171481 5140868 5115622 5099362 5094266 5100233 5115488 
3239.623 5137180 5160852 5182915 5200050 5210043 5212357 5208031 5199748 
3243.480 5190862 5184994 5185463 5193679 5208970 5228755 5249078 5265545 
3247.337 5274903 5275640 5268296 5254880 5238279 5220908 5204510 5189521 
3251.195 5176075 5164607 5155118 5148848 5146031 5146601 5148647 5149552 
3255.052 5146233 5137013 5122025 5103921 5086421 5073984 5069860 5074956 
3258.910 5088701 5108749 5132452 5157532 5181976 5204041 5221143 5230533 
3262.767 5229661 5217219 5194852 5166753 5139661 5119981 5112336 5117332 
3266.625 5131614 5148747 5162595 5168966 5167524 5161522 5156291 5156627 
3270.482 5164808 5179964 5198709 5216649 5230499 5238347 5240963 5239990 
3274.339 5237777 5235530 5234289 5235228 5239286 5248408 5263936 5286776 
3278.197 5315554 5347990 5379422 5405489 5423103 5430316 5427330 5415118 
3282.054 5395358 5369157 5337424 5301634 5264003 5228219 5199011 5180769 
3285.912 5177382 5189990 5217689 5256993 5302976 5349466 5390996 5422801 
3289.769 5442026 5447629 5441321 5426491 5408173 5392137 5383213 5384320 
3293.626 5395727 5415051 5438134 5460412 5477156 5485612 5484001 5472559 
3297.484 5452192 5425082 5394351 5362850 5333868 5309785 5291739 5279397 
3301.341 5270576 5262527 5252231 5238548 5222115 5205147 5191633 5184860 
3305.199 5187475 5200318 5222786 5252398 5286239 5320015 5349566 5370667 
3309.056 5379993 5375934 5360133 5336518 5311193 5291236 5281979 5285568 
3312.914 5300326 5321323 5341918 5355437 5358154 5348695 5328669 5301198 
3316.771 5270106 5239252 5211888 5191667 5181641 5184524 5201626 5231472 
3320.628 5270341 5311495 5347990 5373451 5384085 5379355 5362113 5337021 
3324.486 5309516 5284830 5266719 5258066 5260582 5274567 5299588 5333063 
3328.343 5371908 5411629 5448199 5478666 5501920 5518195 5528799 5535142 
3332.201 5537760 5536753 5532189 5525142 5517021 5510980 5509537 5514571 
3336.058 5526484 5543465 5563332 5583906 5604044 5623814 5643115 5661577 
3339.916 5677120 5686856 5687829 5678899 5661712 5640765 5622304 5611462 
3343.773 5611294 5620357 5634220 5646338 5650567 5643753 5625828 5600218 
3347.630 5571857 5546150 5526283 5514134 5509235 5510175 5515007 5521920 
3351.488 5529806 5537961 5545847 5553231 5560010 5565413 5568837 5569105 
3355.345 5565514 5557761 5546552 5534068 5523732 5519437 5524101 5539303 
3359.203 5563702 5594143 5625593 5653152 5673259 5684808 5688668 5688098 
3363.060 5687258 5689810 5698169 5713545 5734864 5759240 5783214 5802153 
3366.917 5812395 5811824 5801011 5783214 5763471 5748126 5742351 5748227 
3370.775 5764545 5786236 5806484 5817600 5814208 5794027 5757930 5709550 
3374.632 5654360 5597936 5544774 5498464 5460949 5433437 5416393 5409783 
3378.490 5413340 5426257 5446857 5472962 5501819 5530444 5556318 5577395 
3382.347 5593203 5604850 5614651 5625358 5639456 5657583 5678161 5697095 
3386.205 5709751 5711631 5700687 5678194 5648721 5618544 5593707 5579073 
3390.062 5575817 5582597 5595586 5610657 5624855 5636972 5647277 5657348 
3393.919 5667888 5678664 5687795 5692663 5690649 5680074 5661107 5635630 
3397.777 5606729 5578234 5553063 5533800 5521048 5514269 5512222 5513128 
3401.634 5515678 5519437 5524974 5533900 5548666 5570918 5600889 5637543 
3405.492 5677724 5717037 5750544 5773745 5783483 5778849 5760684 5731708 
3409.349 5695550 5656307 5617269 5580550 5546686 5514638 5482760 5449977 
3413.207 5415856 5383213 5356175 5340208 5340409 5359530 5396800 5447495 
3417.064 5504739 5560916 5609515 5647848 5676650 5699545 5721502 5746179 
3420.921 5774618 5804436 5830663 5847655 5851115 5839730 5815417 5783852 
3424.779 5752290 5727713 5715996 5719588 5737584 5765284 5796310 5824047 
3428.636 5843122 5850980 5847891 5836338 5819581 5800172 5779353 5756923 
3432.494 5732380 5706394 5681316 5661510 5651943 5656273 5675173 5705185 
3436.351 5739363 5769347 5787814 5791139 5780024 5759374 5735905 5716096 
3440.208 5703272 5697430 5696188 5695819 5694073 5690615 5687795 5689474 
3444.066 5698941 5717171 5742687 5772100 5799668 5820756 5832376 5834391 
3447.923 5828816 5819010 5807962 5797989 5790265 5785665 5785229 5790131 
3451.781 5801716 5820051 5843995 5870325 5895010 5912913 5920504 5916103 
3455.638 5900989 5878352 5853029 5829655 5811924 5801481 5798291 5800944 
3459.496 5807223 5814241 5819447 5820689 5815887 5804335 5786605 5764276 
3463.353 5740203 5717339 5697867 5683028 5672655 5666008 5662115 5661208 
3467.210 5664397 5673663 5690649 5715828 5747690 5782778 5815988 5842685 
3471.068 5859040 5863272 5855078 5835801 5807458 5771999 5732245 5691891 
3474.925 5655803 5629420 5618443 5626197 5652984 5695215 5745810 5795202 
3478.783 5833820 5854943 5854943 5836103 5804671 5770455 5743460 5731070 
3482.640 5736241 5756756 5785766 5813704 5831905 5833249 5815283 5780259 
3486.498 5735234 5689977 5654226 5635663 5637039 5656441 5688534 5726068 
3490.355 5762127 5791474 5810951 5819883 5819211 5810884 5798660 5786673 
3494.212 5779386 5780763 5792751 5814074 5839864 5863104 5876068 5872575 
3498.070 5850712 5812159 5762363 5708509 5658355 5617974 5592297 5584275 
3501.927 5594411 5622304 5664397 5715492 5768205 5814477 5848361 5866597 
3505.785 5870123 5863507 5853566 5846917 5848327 5858638 5874960 5890947 
3509.642 5900552 5899612 5887890 5868410 5845641 5823980 5805779 5791777 
3513.500 5781502 5775189 5773645 5779286 5794429 5820521 5856992 5900317 
3517.357 5944722 5983252 6009893 6021248 6016377 5997462 5969042 5936291 
3521.214 5903911 5876672 5856924 5845238 5839327 5835498 5828715 5815216 
3525.072 5793623 5766224 5738155 5717272 5711195 5725094 5759945 5811152 
3528.929 5871030 5930379 5980833 6018124 6040634 6050008 6048664 6039324 
3532.787 6023331 6000822 5971931 5936727 5896925 5856018 5818574 5789863 
3536.644 5774114 5772772 5785262 5808566 5838588 5870694 5900116 5923258 
3540.501 5937668 5941800 5936727 5925173 5910729 5898134 5891417 5892760 
3544.359 5901829 5915734 5930513 5941967 5949022 5952851 5957587 5967598 
3548.216 5985301 6011270 6042482 6074233 6100712 6116774 6119026 6106693 
3552.074 6082298 6050545 6016679 5985134 5958562 5937634 5922015 5911535 
3555.931 5905590 5904280 5907337 5914189 5923728 5934712 5945293 5954195 
3559.789 5961249 5966926 5973443 5984025 6002267 6030958 6071881 6124570 
3563.646 6185869 6250438 6310544 6357513 6384109 6386362 6366960 6335457 
3567.503 6304493 6283112 6274372 6275011 6278943 6280490 6275784 6263514 
3571.361 6244454 6221127 6196087 6172224 6151757 6136063 6126250 6122957 
3575.218 6126486 6135929 6149539 6164360 6176559 6182878 6181063 6170510 
3579.076 6153001 6131728 6110591 6093554 6083944 6083641 6094193 6116438 
3582.933 6151287 6199044 6259715 6332397 6414171 6499827 6580555 6644005 
3586.791 6677987 6673984 6633171 6566797 6491082 6420593 6364338 6326648 
3590.648 6307889 6306376 6319083 6343189 6374627 6409328 6443023 6471845 
3594.505 6492999 6505545 6511027 6512406 6513483 6517922 6527643 6542981 
3598.363 6561717 6580589 6595256 6602321 6600201 6590244 6575644 6560574 
3602.220 6549137 6544024 6546277 6556167 6573323 6597476 6627721 6662375 
3606.078 6698142 6729807 6751311 6757571 6746802 6722303 6691749 6663755 
3609.935 6645048 6638521 6643567 6656756 6673344 6689091 6700296 6705579 
3613.792 6705714 6702584 6698580 6695451 6694879 6698210 6706824 6721967 
3617.650 6743167 6768004 6791293 6806674 6809535 6798428 6776081 6748148 
3621.507 6720486 6698142 6685154 6684111 6696830 6724861 6768912 6829696 
3625.365 6906952 7000955 7110606 7232414 7358805 7471244 7543083 7548916 
3629.222 7483615 7368679 7236625 7114042 7013447 6939507 6891196 6864670 
3633.080 6853292 6848142 6840199 6821820 6790082 6746936 6698042 6650565 
3636.937 6611707 6586678 6577932 6584424 6602825 6628528 6656521 6682294 
3640.794 6702483 6714463 6717087 6711838 6702584 6695181 6697133 6716583 
3644.652 6760432 6835520 6946543 7095652 7279078 7485335 7693005 7871182 
3648.509 7986082 8009944 7931379 7764105 7544061 7317289 7120745 6975701 
3652.367 6887729 6851744 6859755 6902239 6969573 7050120 7130142 7195255 
3656.224 7233054 7238916 7216411 7173830 7119701 7060829 7001864 6945837 
3660.082 6895337 6852350 6818791 6796039 6784932 6785942 6798496 6821080 
3663.939 6851273 6885473 6920754 6954557 6985331 7013279 7039377 7064365 
3667.796 7088647 7110876 7127953 7137114 7138192 7135329 7136070 7147186 
3671.654 7171876 7210347 7260883 7320523 7384283 7444311 7487863 7501549 
3675.511 7480177 7433458 7379700 7333093 7300036 7279819 7269441 7262972 
3679.369 7253875 7235951 7204081 7156718 7096057 7028264 6961796 6906211 
3683.226 6870392 6859048 6872311 6905437 6951324 7001965 7051736 7098044 
3687.083 7141055 7183229 7226147 7267892 7302226 7318973 7309403 7270857 
3690.941 7207046 7128155 7046954 6976408 6925804 6900219 6900151 6922067 
3694.798 6959068 7001796 7040791 7067699 7077701 7070663 7050389 7022876 
3698.656 6993749 6967755 6947318 6932975 6923178 6915940 6908735 6900084 
3702.513 6889884 6879313 6870460 6865747 6867801 6879280 6902306 6939002 
3706.371 6990348 7056249 7135666 7226821 7326960 7432413 7537622 7634156 
3710.228 7710542 7754087 7754863 7710812 7630346 7529935 7427391 7336867 
3714.085 7266477 7217927 7188956 7174942 7170697 7171540 7174470 7178378 
3717.943 7184408 7194514 7210381 7232515 7259232 7287636 7314188 7336867 
3721.800 7356278 7376161 7401472 7436828 7483447 7537453 7589814 7628693 
3725.658 7642688 7625557 7579160 7514832 7448019 7392574 7358401 7350043 
3729.515 7368376 7411954 7478053 7563178 7661370 7764948 7863221 7943663 
3733.373 7993136 7998097 7948724 7843820 7697760 7539544 7400663 7302058 
3737.230 7246295 7223419 7220117 7226181 7236390 7251483 7275641 7314828 
3741.087 7373431 7452906 7550029 7655435 7754053 7822937 7841358 7805597 
3744.945 7738301 7671083 7627513 7615070 7631391 7670341 7725045 7788291 
3748.802 7850804 7900504 7923416 7906342 7842370 7735400 7600402 7459142 
3752.660 7332722 7235614 7172483 7141459 7136508 7150520 7176795 7210078 
3756.517 7246868 7284604 7320692 7352268 7374038 7380745 7368309 7336766 
3760.375 7291612 7243229 7203172 7179894 7178513 7199230 7238714 7288849 
3764.232 7339462 7379262 7400259 7401438 7388867 7372859 7362613 7364096 
3768.089 7377812 7399551 7420144 7429042 7418627 7387013 7338687 7281942 
3771.947 7225440 7175481 7136373 7111415 7101816 7108451 7131119 7168508 
3775.804 7217894 7275944 7337945 7398405 7451592 7491773 7515034 7520293 
3779.662 7510719 7492650 7472660 7456244 7445626 7441311 7441750 7444412 
3783.519 7445154 7439458 7422537 7391125 7345056 7287704 7226080 7169856 
3787.376 7128357 7109596 7117983 7151766 7203643 7262568 7316480 7354862 
3791.234 7372589 7370567 7354761 7333969 7317120 7311223 7319614 7342225 
3795.091 7375453 7413841 7449974 7478491 7497200 7508629 7517124 7528722 
3798.949 7548276 7577879 7615542 7652198 7673241 7662787 7615239 7540184 
3802.806 7456210 7380037 7322276 7287906 7277157 7287029 7311088 7340270 
3806.664 7364265 7376229 7376599 7371308 7368309 7373566 7390282 7419099 
3810.521 7458536 7506201 7559031 7613688 7667070 7716614 7758843 7789843 
3814.378 7805530 7801751 7778576 7742416 7705989 7681065 7675332 7690307 
3818.236 7723528 7770480 7824253 7875130 7908433 7908670 7869024 7797298 
3822.093 7712634 7634224 7574406 7537285 7522687 7526699 7543320 7563178 
3825.951 7576125 7573428 7551007 7511157 7460828 7410201 7367803 7341046 
3829.808 7335586 7354391 7398135 7463727 7545039 7633549 7720593 7799255 
3833.666 7864907 7915755 7952133 7976903 7994419 8010247 8028946 8051966 
3837.523 8076911 8096827 8104254 8093485 8064894 8023074 7975688 7928882 
3841.380 7886197 7847599 7810590 7771728 7728486 7681268 7633482 7590489 
3845.238 7557177 7537184 7531419 7538802 7557278 7584116 7617734 7657189 
3849.095 7703257 7758067 7824725 7906004 8004105 8116947 8234748 8335356 
3852.953 8388794 8375011 8302359 8200881 8099899 8016087 7953314 7909074 
3856.810 7878066 7854582 7833463 7811231 7786841 7761508 7738537 7722651 
3860.667 7718435 7728655 7752603 7785863 7821250 7850365 7866864 7868113 
3864.525 7856237 7837006 7816358 7798513 7784918 7774663 7766567 7760496 
3868.382 7758573 7764982 7784615 7819699 7866965 7919198 7968567 8009033 
3872.240 8036676 8047746 8039376 8010923 7965665 7911099 7856979 7811433 
3876.097 7778542 7758978 7750916 7751051 7755234 7759349 7759956 7755874 
3879.955 7748926 7743968 7746733 7761440 7789135 7828706 7877829 7933438 
3883.812 7991584 8047071 8092472 8120323 8127616 8117251 8097300 8076573 
3887.669 8062126 8057164 8062328 8075830 8094633 8113301 8125725 8127007 
3891.527 8114550 8089232 8054970 8016526 7977747 7942380 7913596 7893823 
3895.384 7885488 7890314 7908906 7940457 7982877 8032457 8084844 8136258 
3899.242 8184369 8228671 8269498 8307526 8342111 8370586 8388726 8391159 
3903.099 8373491 8333600 8273348 8198281 8116711 8036743 7964451 7904249 
3906.957 7858328 7827323 7810894 7806778 7811669 7820879 7829988 7835014 
3910.814 7834070 7827694 7818281 7809274 7803910 7803742 7808971 7817472 
3914.671 7826715 7834104 7838119 7839064 7839164 7841796 7849623 7864131 
3918.529 7884679 7908704 7933471 7955541 7973258 7985745 7992934 7995735 
3922.386 7994554 7989796 7981796 7971233 7959287 7948049 7939275 7934180 
3926.244 7932189 7932290 7932695 7932492 7932088 7933404 7939748 7954596 
3930.101 7979502 8012779 8049367 8081401 8099899 8099831 8080252 8046397 
3933.958 8006029 7968163 7939714 7924664 7923989 7935766 7956993 7983349 
3937.816 8010956 8036777 8058481 8074413 8083662 8085619 8080050 8067628 
3941.673 8050514 8031308 8014129 8002721 7999043 8003532 8015075 8031241 
3945.531 8049502 8067595 8083223 8095071 8102229 8104625 8102431 8096557 
3949.388 8087510 8075190 8060270 8042819 8023748 8004713 7988074 7976262 
3953.246 7971335 7974170 7984261 7999211 8015513 8029520 8037823 8038870 
3957.103 8032794 8021520 8007851 7994520 7984126 7977814 7975351 7975925 
3960.960 7977949 7980447 7982573 7983991 7984935 7985205 7984665 7982472 
3964.818 7977646 7969040 7956384 7940490 7922943 7906982 7895544 7891798 
3968.675 7897704 7913461 7937824 7967993 8000797 8032760 8061282 8084168 
3972.533 8099966 8107664 8106448 8096017 8077282 8052472 8025098 8000460 
3976.390 7984091 7980784 7993035 8020407 8059459 8103511 8145373 8178697 
3980.248 8199057 8205709 8200813 8189400 8176266 8165800 8159925 8158338 
3984.105 8159317 8160600 8161342 8161444 8162491 8166070 8173565 8185248 
3987.962 8200206 8216345 8231879 8245217 8255990 8264297 8270613 8274732 
3991.820 8276421 8274698 8268823 8258927 8246028 8232284 8219789 8210706 
3995.677 8205810 8204967 8206621 8209558 8212631 8215907 8220094 8226577 
3999.535 8236336 8249573 8264838 
##END=
