##TITLE=api_4 28 10:09:52 2026 (GMT+02:00)
##JCAMP-DX=5.01  $$ Nicolet v. 970
##DATATYPE=INFRARED SPECTRUM
##ORIGIN=Vojna akademija
##OWNER=Nicolet
##LONGDATE=2026/08/28
##TIME=10:10:25
##SPECTROMETER/DATA SYSTEM=Nicolet iS20
##DATA PROCESSING=
Ratio against background
%Transmittance->Absorbance
Truncated
ElementMultiply or ElementDivide
##COMMENTS=
Number of sample scans: 8
Collection length: 11,90 sec
Sample gain: 8,0
Background collected on: Fri Aug 28 10:08:01 2026 (GMT+02:00);
Number of background scans: 8
Background gain: 8,0
Sample spacing:  1,000
Number of scan points: 12415
Resolution points: 8286
Number of FFT points: 65536
Apodization: N-B strong;
Phase correction: Mertz;
Laser frequency: 15798,00 cm-1
Number of rejected sample scans: 0
Number of rejected background scans: 0
Bench serial number: BER2010005;
##RESOLUTION= 4,000
##XUNITS=1/CM
##YUNITS=ABSORBANCE
##FIRSTX=400.156891
##LASTX=4000.123047
##FIRSTY=0.006932
##MAXX=4000.123047
##MINX=400.156891
##MAXY=0.283913
##MINY=-0.003114
##XFACTOR=1.000000
##YFACTOR=1.000000E-009
##NPOINTS=7468
##DELTAX=0.482117
##ZPD=6100
##XYDATA=(X++(Y..Y))
400.157 6931831 6979405 6398904 5420788 4340407 3390553 2652111 2066109 
404.014 1489075 794120 -51619 -934037 -1627043 -1879531 -1544246 -626179 
407.871 713663 2238229 3694075 4909482 5852223 6619445 7367264 8213036 
411.728 9158449 10060991 10669366 10705872 10005008 8576957 6624054 4453941 
415.585 2443572 969290 367015 938042 2831134 5879191 9395395 12378714 
419.442 14048852 14322417 13674506 12720860 11906625 11415217 11243331 
422.816 11239626 11179172 10827402 10051496 8867724 7444109 6013084 4794187 
426.673 3934376 3476884 3378197 3530596 3807072 4079611 4259191 4306507 
430.530 4226936 4061785 3874029 3732873 3696146 3804131 4074293 4499370 
434.387 5042138 5631199 6171451 6549372 6672772 6505814 6081289 5491350 
438.244 4857275 4305938 3928291 3769938 3816231 4000116 4212281 4334985 
442.101 4284521 4030882 3607800 3091048 2568210 2103131 1732351 1477571 
445.958 1355705 1392634 1614870 2026859 2595208 3240908 3857548 4325347 
449.815 4544168 4448753 4015599 3274225 2305611 1239422 218938 -616220 
453.672 -1155568 -1332526 -1118323 -520621 416329 1593053 2859917 4031484 
457.529 4923054 5436355 5598473 5537860 5400088 5291907 5253639 5269805 
461.386 5302506 5317801 5307973 5293316 5306028 5371606 5493665 5655031 
465.243 5830394 6000318 6167149 6350250 6574601 6850498 7157830 7445390 
469.100 7646768 7692229 7529429 7131119 6499255 5664162 4691985 3683013 
472.957 2751600 2013777 1554744 1407326 1555177 1936822 2457733 2995384 
476.813 3431128 3666673 3652172 3402775 2990680 2523749 2107493 1835523 
480.670 1768413 1927969 2293053 2805488 3380568 3916689 4326619 4552003 
484.527 4579560 4442861 4214155 3974969 3787352 3682980 3658520 3690231 
488.384 3748815 3816097 3891380 3992190 4145373 4380368 4720456 5176142 
492.241 5742351 6392414 7080732 7740460 8294050 8668145 8799756 8658478 
496.098 8254572 7647341 6924963 6190239 5528665 4985692 4574671 4288135 
499.955 4115969 4057035 4116572 4291849 4554915 4851914 5113409 5280571 
503.812 5331688 5284059 5188179 5100099 5065569 5099227 5184424 5280806 
507.669 5345877 5352485 5291370 5167222 4987268 4755226 4474596 4162300 
511.526 3859788 3627212 3535606 3635832 3936583 4395229 4929187 5440180 
515.383 5839864 6085691 6191280 6218673 6240992 6313032 6442115 6593036 
519.240 6706891 6735158 6661736 6505915 6310410 6121949 5978784 5899511 
523.097 5889469 5944252 6056022 6213665 6399375 6587553 6743571 6835890 
526.954 6845416 6772379 6633743 6452810 6249127 6031630 5800541 5554741 
530.811 5300862 5057289 4852182 4710641 4645364 4647105 4689305 4734893 
534.667 4756130 4746014 4722733 4719317 4769497 4888538 5063759 5254478 
538.524 5404046 5462358 5395995 5203068 4910722 4570787 4241457 3979048 
542.381 3823953 3790293 3863866 4003995 4157583 4267556 4292753 4221449 
546.238 4075965 3903349 3757805 3683047 3694375 3779430 3907428 4047704 
550.095 4181201 4308782 4443029 4596906 4769899 4944066 5090411 5185262 
553.952 5224094 5228286 5235664 5282684 5383448 5518934 5639960 5688735 
557.809 5627372 5454541 5213396 4973794 4812781 4781356 4892425 5118304 
561.666 5407435 5700217 5946267 6115430 6191885 6168796 6043423 5818876 
565.523 5508698 5142075 4765677 4429639 4175748 4021719 3954338 3933875 
569.380 3911507 3853202 3751890 3632391 3538913 3520741 3609905 3811852 
573.237 4104396 4448184 4797671 5111096 5360167 5528598 5611496 5611999 
577.094 5540344 5412568 5247636 5068922 4899496 4757604 4653603 4584918 
580.951 4534659 4475333 4379799 4224795 4000550 3713657 3386145 3052606 
584.808 2752134 2522383 2388962 2361843 2434875 2590675 2804421 3049804 
588.665 3306209 3559424 3802159 4031283 4243364 4428802 4572495 4653267 
592.521 4651224 4554179 4362563 4091084 3768400 3434435 3131361 2901910 
596.378 2777543 2773675 2888735 3106565 3403577 3751723 4125302 4500073 
600.235 4853858 5165613 5415185 5583638 5656139 5624083 5488397 5259844 
604.092 4959550 4613013 4245138 3878275 3530596 3219577 2966726 2797051 
607.949 2738196 2812859 3030284 3379934 3830404 4333948 4828327 5253472 
611.806 5559339 5712739 5703977 5545747 5270140 4918999 4542192 4187624 
615.663 3891313 3673590 3533468 3452336 3400237 3349647 3285609 3210999 
619.520 3144578 3113373 3141207 3237002 3390686 3573088 3747044 3874698 
623.377 3933072 3921102 3861326 3792532 3759243 3797780 3921504 4114899 
627.234 4334885 4525284 4626810 4598379 4429940 4148517 3812120 3494353 
631.091 3268783 3181358 3243579 3429325 3688928 3960256 4188227 4340173 
634.948 4404869 4392920 4325180 4225597 4113762 4003225 3903416 3820443 
638.805 3757571 3714760 3687826 3669547 3651102 3627112 3596541 3563767 
642.662 3533134 3506010 3477152 3435570 3369115 3271921 3150485 3024879 
646.519 2922792 2873392 2895206 2990580 3144144 3327343 3510085 3666607 
650.375 3783976 3861460 3907495 3932003 3943471 3946480 3939993 3921069 
654.232 3885563 3831808 3762284 3686455 3619193 3580338 3589124 3656783 
658.089 3779831 3939057 4098877 4218437 4267690 4235702 4139418 4016535 
661.946 3916489 3879612 3923510 4036233 4184045 4321566 4407078 4411563 
665.803 4319558 4129149 3851899 3526654 3221213 3012634 2943841 2997653 
669.660 3125054 3283673 3452937 3626644 3803897 3981523 4149253 4289105 
673.517 4380268 4402727 4345829 4212716 4023458 3810582 3614382 3471941 
677.374 3404311 3411191 3471574 3553278 3621933 3653608 3642749 3600751 
681.231 3549570 3509818 3495255 3507413 3537744 3573589 3605228 3627847 
685.088 3643250 3656047 3670316 3687692 3707776 3729231 3751689 3775519 
688.945 3800086 3822147 3835017 3830705 3804465 3760045 3711719 3681744 
692.802 3697516 3781870 3946647 4190702 4499839 4852216 5221411 5585383 
696.659 5926449 6231883 6494244 6707565 6868373 6977183 7038804 7063388 
700.516 7063893 7055676 7052948 7069214 7118387 7212537 7362714 7574877 
704.373 7847802 8171775 8529613 8902862 9275247 9639077 9995480 10352381 
708.229 10718404 11097245 11487916 11887112 12296730 12730755 13215456 
711.604 13785651 14471957 15288137 16222162 17239074 18291962 19335942 
714.979 20348928 21338146 22336772 23386652 24522964 25756154 27066412 
718.354 28403874 29701082 30888920 31901934 32690798 33223920 33487934 
721.729 33489938 33257470 32836114 32277412 31632002 30937556 30212108 
725.104 29459144 28674248 27856636 27017150 26178614 25371058 24622998 
728.478 23950234 23354098 22821530 22332762 21867678 21412942 20962302 
731.853 20514662 20069704 19624854 19176546 18723338 18270224 17832496 
735.228 17432834 17097954 16851704 16705683 16655792 16680237 16745731 
738.603 16810270 16835344 16791810 16662642 16446097 16154891 15812470 
741.978 15445940 15081675 14738830 14425507 14139587 13871679 13609167 
745.352 13342474 13068842 12794904 12536589 12313432 12144939 12044230 
748.727 12012890 12039290 12099965 12167599 12214387 12221374 12182558 
752.102 12105143 12006724 11908226 11828919 11776997 11749320 11731890 
755.477 11706121 11654997 11569441 11452093 11317158 11184579 11073316 
758.852 10996744 10956679 10944242 10942339 10933810 10906424 10858417 
762.227 10799819 10749446 10729408 10756647 10837899 10966737 11125459 
765.601 11289272 11434777 11544704 11609733 11628757 11605308 11544056 
768.976 11448248 11320015 11163160 10985461 10801856 10631606 10493872 
772.351 10402537 10359167 10352856 10361543 10360016 10325269 10242382 
775.726 10108197 9929098 9718968 9493326 9269561 9061914 8882029 8737445 
779.583 8628024 8545428 8472543 8388693 8272841 8112019 7905396 7665417 
783.440 7414650 7176188 6968967 6800650 6666715 6555023 6452440 6348905 
787.297 6240622 6130552 6024541 5930043 5852492 5795840 5763101 5755211 
791.154 5771865 5809675 5861996 5918052 5967363 6001091 6015638 6012244 
795.010 5998000 5981001 5967698 5960947 5959334 5959267 5956210 5947342 
798.867 5931420 5909856 5885808 5865153 5856421 5869284 5912611 5990743 
802.724 6098527 6220253 6332128 6409900 6436533 6410539 6349040 6284927 
806.581 6252791 6280322 6376543 6528416 6703930 6863492 6972940 7009912 
810.438 6971694 6872008 6737581 6597577 6480253 6407647 6391742 6434314 
814.295 6524986 6645990 6772413 6880727 6955398 6991695 6997217 6988765 
818.152 6984355 6996174 7026951 7069787 7115793 7159548 7204283 7260513 
822.009 7341180 7452334 7587016 7724304 7836736 7899492 7900943 7848172 
825.866 7764206 7678975 7615104 7580272 7562942 7538397 7477211 7358569 
829.723 7179186 6955466 6718131 6505040 6351662 6278943 6291415 6374122 
833.580 6499289 6630816 6735394 6790957 6789610 6739331 6659011 6572246 
837.437 6497809 6444570 6410875 6389085 6371533 6357378 6355193 6380310 
841.294 6448236 6566057 6727856 6915738 7105521 7273316 7405853 7501751 
845.151 7569078 7617835 7653243 7670038 7654794 7590320 7466828 7287434 
849.008 7072650 6854403 6669744 6551760 6518629 6570766 6689562 6844406 
852.865 6998093 7117848 7184913 7196097 7165274 7117410 7082012 7080564 
856.721 7121856 7198152 7289624 7370904 7420852 7429514 7400764 7348763 
860.578 7289725 7237266 7195828 7161164 7124618 7078947 7021159 6954085 
864.435 6883487 6814584 6749561 6687341 6626577 6568949 6521084 6493706 
868.292 6498179 6541737 6624087 6736773 6865242 6991560 7101344 7183801 
872.149 7233593 7249664 7233189 7187170 7115692 7025637 6925872 6826735 
876.006 6739365 6672940 6634988 6629639 6658741 6720352 6808391 6913180 
879.863 7021294 7118117 7193167 7241005 7265331 7276719 7290399 7317760 
883.720 7364163 7426245 7495111 7561526 7621713 7679885 7746531 7833496 
887.577 7946261 8080050 8220263 8346097 8437237 8482071 8478828 8435514 
891.434 8364539 8278582 8186902 8095409 8008661 7930974 7867843 7822870 
895.291 7796050 7782624 7773213 7757696 7728722 7683494 7624242 7555491 
899.148 7480379 7399281 7311156 7216175 7119262 7031329 6966408 6936813 
903.005 6947924 6995197 7065308 7140550 7206944 7255897 7287029 7304383 
906.862 7312807 7314256 7307348 7290736 7266712 7242656 7230696 7240702 
910.719 7276921 7333463 7397124 7451322 7484896 7497437 7499459 7508393 
914.575 7540117 7603403 7696141 7807891 7925137 8038498 8144496 8244778 
918.432 8341740 8432237 8506500 8549989 8548097 8494471 8394402 8265311 
922.289 8129978 8012172 7929692 7890752 7895341 7937048 8007277 8095241 
926.146 8191054 8283817 8362276 8417576 8444400 8444129 8424974 8401056 
930.003 8388591 8400989 8447913 8533127 8654861 8807600 8982211 9166503 
933.860 9342816 9491362 9591482 9625967 9587619 9482489 9329545 9154490 
937.717 8985121 8842362 8734977 8661452 8612544 8578106 8551544 8533465 
941.574 8529478 8546509 8588177 8651718 8727843 8805031 8872289 8924576 
945.431 8963810 8997366 9034138 9081030 9139939 9207013 9275485 9339465 
949.288 9397325 9453805 9518760 9603100 9714732 9853643 10010433 10167110 
953.145 10303282 10400365 10447167 10442517 10394664 10317803 10226065 
956.520 10132615 10047019 9977071 9932149 9923200 9961847 10056582 10205949 
960.377 10396088 10598331 10778215 10899290 10936223 10882913 10754643 
963.751 10584988 10414483 10284281 10221520 10235665 10317295 10443162 
967.126 10582000 10703767 10788304 10826519 10822680 10789866 10746186 
970.501 10707502 10682847 10673136 10671166 10666581 10649432 10615715 
973.876 10568487 10517023 10472352 10444078 10436407 10447675 10471809 
977.251 10501645 10531111 10555960 10573954 10582645 10578062 10555995 
980.625 10512474 10446895 10363850 10272407 10184137 10109045 10053361 
984.000 10017824 9999074 9991547 9990598 9993413 9998532 10004771 10009111 
987.857 10006839 9993039 9964017 9920251 9866218 9810057 9760749 9725067 
991.714 9706702 9705685 9719747 9746042 9782165 9826359 9876590 9929370 
995.571 9979512 10020944 10048885 10060550 10057430 10044171 10026505 
998.946 10008094 9989445 9965814 9930183 9874895 9795993 9696232 9586671 
1002.803 9484081 9406874 9370679 9381581 9433149 9507143 9579490 9626542 
1006.660 9633115 9598188 9533865 9460544 9397156 9355478 9333777 9320472 
1010.517 9299890 9261844 9207791 9150633 9108200 9094766 9112192 9147486 
1014.374 9176859 9176622 9133848 9052137 8950889 8855584 8788193 8756107 
1018.231 8750123 8749582 8733692 8689069 8616837 8530018 8448048 8386766 
1022.087 8353393 8346232 8357750 8380349 8410076 8447271 8493998 8549989 
1025.945 8611090 8669260 8715808 8745119 8756140 8751374 8733963 8704890 
1029.802 8662872 8606731 8540257 8474300 8427102 8418960 8462745 8558539 
1033.660 8688697 8823154 8923933 8958771 8910370 8779469 8583783 8351940 
1037.517 8117859 7909749 7750309 7652838 7621376 7651557 7732500 7848679 
1041.374 7981426 8112930 8228974 8320157 8383220 8418960 8429906 8418251 
1045.232 8385280 8333195 8266999 8196187 8133354 8091628 8081164 8106077 
1049.089 8164179 8247851 8348191 8456630 8565602 8668517 8756986 8820179 
1052.947 8846723 8827585 8761381 8656585 8532350 8412508 8319482 8268553 
1056.804 8263892 8299420 8361905 8437541 8514981 8587941 8654286 8714355 
1060.661 8767839 8814126 8851999 8880541 8899750 8909220 8907089 8889503 
1064.519 8850984 8787212 8698399 8592942 8485856 8398759 8352988 8363932 
1068.376 8437913 8568981 8739980 8925387 9098996 9235612 9317392 9335537 
1072.234 9290988 9194863 9064688 8924609 8797558 8703402 8655435 8658410 
1076.091 8708642 8794684 8901408 9011067 9106847 9176250 9211785 9213173 
1079.949 9185929 9140988 9089489 9040194 8995708 8953054 8904384 8843781 
1083.806 8771422 8696607 8636001 8607001 8621231 8677373 8760062 8842463 
1087.663 8896267 8901103 8850748 8754856 8635121 8517651 8422812 8362378 
1091.521 8337416 8340996 8361466 8386395 8404570 8404570 8377106 8315935 
1095.378 8220566 8099123 7968263 7850298 7764915 7724236 7727339 7761069 
1099.236 7805192 7841425 7861938 7872060 7888424 7931683 8016526 8144867 
1103.093 8301987 8461123 8592875 8671255 8683593 8632046 8532620 8408724 
1106.951 8286249 8188354 8130518 8118365 8148547 8209659 8284155 8352717 
1110.808 8398759 8410379 8383726 8323129 8238700 8143179 8047814 7962088 
1114.665 7891798 7841189 7814773 7816797 7852390 7924698 8032457 8168872 
1118.523 8321407 8475314 8615045 8730514 8817271 8877599 8917540 8943820 
1122.380 8961443 8971388 8971794 8958635 8929276 8883382 8824270 8758575 
1126.238 8695086 8641949 8605853 8591117 8598822 8628936 8680584 8752726 
1130.095 8844458 8954305 9079237 9213950 9351381 9483166 9600390 9696131 
1133.953 9766916 9813548 9841814 9861575 9885810 9926285 9993277 10091613 
1137.810 10218806 10364087 10510844 10639552 10732091 10777909 10777808 
1141.185 10745404 10702782 10677346 10692424 10760009 10879312 11037254 
1144.560 11213988 11389229 11549637 11691213 11818943 11941431 12065964 
1147.936 12193838 12319534 12431390 12517320 12569807 12587612 12577073 
1151.311 12549242 12516331 12487890 12469203 12460884 12460236 12462998 
1154.686 12465248 12464361 12459042 12448199 12431866 12409773 12381543 
1158.061 12346668 12305081 12257022 12203755 12148074 12094002 12046988 
1161.437 12012787 11995723 11998004 12017863 12049885 12084804 12111787 
1164.812 12120986 12105484 12064294 12002875 11933154 11868553 11822586 
1168.187 11802770 11808489 11829157 11848259 11847578 11812848 11739107 
1171.562 11632092 11506152 11378583 11263802 11168702 11090787 11021009 
1174.938 10948727 10867761 10777841 10684681 10596158 10517905 10450187 
1178.313 10388351 10324827 10254324 10176946 10099175 10030777 9981918 
1181.688 9958186 9958321 9975002 9997956 10016909 10024505 10017146 9994463 
1185.546 9958050 9909979 9853711 9794332 9738248 9693624 9667873 9664621 
1189.403 9682815 9715308 9751565 9779828 9791621 9783860 9759597 9725338 
1193.260 9689489 9659031 9636841 9621833 9611027 9600356 9586976 9570649 
1197.118 9553240 9538269 9529294 9528344 9535355 9548023 9562045 9573156 
1200.975 9578880 9579016 9577153 9578406 9588399 9609265 9639517 9671702 
1204.833 9696131 9702568 9684068 9639991 9577085 9507550 9445441 9404233 
1208.690 9392483 9412088 9458512 9521910 9589889 9649240 9690235 9707854 
1212.547 9703279 9683832 9661539 9649816 9658963 9694673 9753802 9827782 
1216.405 9903030 9967272 10012366 10036780 10045901 10049631 10059397 
1219.780 10083508 10126986 10190005 10268878 10356962 10446624 10529956 
1223.155 10599655 10651844 10686515 10709676 10731446 10764934 10821627 
1226.531 10906560 11016353 11138751 11257545 11354910 11419911 11449439 
1229.906 11448861 11428790 11399502 11367937 11334912 11296855 11248908 
1233.281 11188149 11115193 11033855 10949679 10867115 10788813 10715245 
1236.656 10646275 10581763 10522013 10467770 10418284 10371621 10324522 
1240.032 10274578 10221316 10166771 10115251 10071300 10037084 10011721 
1243.407 9991480 9971951 9950491 9928048 9908658 9897979 9900081 9915200 
1247.264 9938625 9963136 9980291 9983987 9972357 9947507 9914454 9878488 
1251.122 9844153 9813548 9787384 9763900 9741298 9717782 9691624 9662623 
1254.979 9632200 9603574 9581726 9571834 9577593 9599272 9632809 9670787 
1258.837 9705110 9729065 9740078 9740044 9734318 9727371 9721746 9716664 
1262.694 9709480 9698638 9685288 9674379 9672786 9686474 9717409 9763832 
1266.551 9820631 9883573 9951372 10026946 10115794 10222707 10347223 
1269.927 10481346 10609366 10712597 10773052 10779948 10732668 10640638 
1273.302 10520009 10388928 10264875 10160360 10082694 10034846 10015350 
1276.677 10019554 10040306 10069977 10101075 10127597 10147064 10160089 
1280.052 10170196 10182238 10200657 10227660 10263213 10305488 10352177 
1283.428 10402096 10455855 10515665 10584377 10663932 10753930 10850842 
1286.803 10948489 11039021 11114139 11167750 11196682 11202258 11190427 
1290.178 11170368 11153879 11151738 11172271 11218647 11289102 11376644 
1293.553 11472709 11569509 11662859 11753030 11845126 11945722 12060342 
1296.929 12190158 12331022 12473773 12606850 12719836 12806507 12866538 
1300.304 12904971 12930333 12951907 12976417 13005915 13038521 13069764 
1303.679 13094555 13110809 13119552 13124709 13131266 13142023 13155548 
1307.054 13166750 13167741 13150971 13113269 13056584 12988093 12916679 
1310.430 12850361 12792550 12741673 12692440 12637891 12574174 12501054 
1313.805 12422422 12344317 12271576 12206310 12147529 12091890 12036769 
1317.180 11980327 11923142 11866170 11811214 11758001 11705508 11652751 
1320.555 11600102 11549978 11506731 11474954 11458182 11457502 11471041 
1323.931 11494789 11523982 11554503 11583972 11611843 11639478 11669020 
1327.306 11703603 11746597 11802055 11873662 11964421 12075605 12206890 
1330.681 12354918 12514967 12682341 12852545 13023362 13194586 13366836 
1334.056 13540624 13716054 13891760 14066786 14240785 14415745 14595298 
1337.432 14784285 14984672 15193626 15401172 15591849 15749315 15861955 
1340.807 15927738 15953414 15951557 15935643 15919488 15914366 15929593 
1344.182 15972698 16048536 16158536 16300624 16469568 16657995 16857492 
1347.557 17060492 17260760 17454394 17638830 17812714 17974582 18122412 
1350.932 18254052 18368344 18466350 18552202 18631918 18713100 18802704 
1354.308 18905964 19026624 19167336 19331196 19523434 19751402 20022962 
1357.683 20345666 20724486 21162880 21664788 22239078 22903254 23685514 
1361.058 24619210 25732528 27029316 28472294 29982880 31462864 32825500 
1364.433 34012144 34995804 35765456 36313352 36634656 36732436 36631736 
1367.809 36387280 36089088 35843604 35746060 35871960 36263572 36942888 
1371.184 37928372 39247064 40936432 43027928 45515752 48314744 51241264 
1374.559 54056432 56522036 58479120 59859604 60645040 60829024 60393084 
1377.934 59316792 57611812 55351276 52676172 49752928 46748664 43791244 
1381.310 40958932 38304252 35860624 33649628 31678942 29933002 28372712 
1384.685 26940076 25576074 24234034 22897492 21588764 20358720 19262090 
1388.060 18330360 17561576 16930212 16405836 15961491 15578317 15241634 
1391.435 14936315 14645227 14350293 14036189 13697109 13339672 12982392 
1394.811 12647613 12351271 12096080 11876079 11683111 11513910 11369331 
1398.186 11249622 11149357 11054180 10946620 10816327 10664782 10505515 
1401.561 10356351 10234071 10147776 10096497 10070893 10058109 10047800 
1404.936 10038034 10034949 10046138 10074250 10114234 10156188 10191430 
1408.312 10217414 10238922 10264841 10303078 10355231 10414517 10469805 
1411.687 10512406 10542517 10570457 10611811 10679588 10779268 10906934 
1415.062 11052481 11205624 11363039 11529460 11715245 11928353 12163339 
1418.437 12395214 12589522 12722566 12799375 12847085 12898895 12977032 
1421.813 13089945 13237079 13412899 13612961 13836376 14085951 14365157 
1425.188 14674770 15013448 15381466 15785255 16240116 16768597 17393828 
1428.563 18130012 18972486 19897480 20869294 21854820 22834032 23799742 
1431.938 24751608 25689394 26609552 27509034 28394290 29285286 30222588 
1435.314 31260640 32446868 33779040 35186952 36561228 37817924 38940380 
1438.689 39968048 40961448 41979936 43064256 44230932 45470536 46758224 
1442.064 48063840 49363636 50648752 51922256 53193180 54472004 55768012 
1445.439 57092920 58463920 59902316 61425792 63036068 64713524 66422612 
1448.815 68134928 69851536 71604136 73445680 75425488 77564784 79836984 
1452.190 82169744 84474520 86666496 88705936 90599600 92384856 94106544 
1455.565 95784008 97381272 98791960 99899400 100672272 101181712 101543592 
1458.940 101826416 102046848 102198552 102278256 102293104 102254104 
1461.833 102163752 102002680 101718728 101233128 100452032 99303736 97772144 
1465.209 95889112 93696824 91211272 88407520 85261880 81783728 78038656 
1468.584 74116952 70120256 66117428 62094244 57973772 53641856 49042424 
1471.959 44289852 39718472 35741168 32596744 30251394 28486126 27045500 
1475.334 25755380 24533060 23376862 22321634 21400308 20615826 19942126 
1478.710 19339892 18773710 18220880 17673028 17132316 16604323 16094679 
1482.085 15607510 15148266 14725290 14348478 14026402 13760273 13540966 
1485.460 13348453 13158895 12953238 12724715 12480797 12237119 12005259 
1488.835 11782070 11548548 11283491 10983966 10671030 10378136 10131327 
1492.211 9940218 9796874 9683188 9577593 9461594 9323994 9163999 8991852 
1496.068 8825149 8678962 8559383 8460346 8371802 8287127 8204020 8122686 
1499.925 8041806 7956384 7860048 7748521 7623365 7491065 7364535 7259367 
1503.783 7190168 7171843 7215569 7327533 7497740 7688418 7829820 7859745 
1507.640 7776721 7629907 7469693 7324769 7208932 7129333 7089590 7091240 
1511.498 7130142 7196569 7276146 7354559 7419841 7462614 7475997 7452603 
1515.355 7385665 7272642 7123035 6960415 6813978 6706992 6645990 6622439 
1519.213 6617157 6606559 6564644 6471340 6325841 6153001 5990576 5862701 
1523.070 5770891 5701157 5636770 5564910 5479639 5382542 5281174 5184491 
1526.927 5099831 5029936 4974699 4931968 4900200 4877145 4859453 4842566 
1530.785 4819884 4785208 4733988 4666530 4590878 4522538 4477308 4461842 
1534.642 4471048 4495051 4526255 4564057 4611942 4676779 4766180 4883813 
1538.500 5025645 5172822 5290633 5344133 5321088 5238749 5123702 4994474 
1542.357 4857744 4716101 4574906 4444502 4338199 4266552 4230148 4220010 
1546.214 4221549 4222185 4213318 4191773 4157583 4114096 4065229 4016502 
1550.072 3973197 3940127 3921504 3920668 3938689 3974568 4022387 4072053 
1553.929 4110885 4130754 4131925 4125068 4125469 4146510 4195988 4270199 
1557.787 4346130 4375850 4315676 4183242 4053691 3977377 3954572 3964369 
1561.644 3987709 4011787 4031250 4044828 4053457 4058607 4059510 4053858 
1565.502 4039343 4016368 3989248 3965038 3952833 3959153 3985435 4023558 
1569.359 4057905 4073691 4067035 4046768 4027070 4019445 4027973 4049811 
1573.216 4077237 4099680 4105600 4084929 4034059 3958350 3872224 3793000 
1577.074 3730734 3684818 3649699 3620129 3593033 3568010 3545194 3524416 
1580.931 3505242 3486938 3469403 3453037 3439578 3430360 3425852 3426052 
1584.789 3429492 3434935 3442350 3452169 3465194 3481193 3498228 3512591 
1588.646 3520641 3520207 3512223 3501501 3494954 3499931 3521543 3561997 
1592.504 3619694 3690098 3766997 3844110 3915385 3975604 4021418 4051751 
1596.361 4068373 4076267 4082354 4092923 4112725 4142161 4178290 4214992 
1600.218 4245104 4263306 4267456 4258957 4242093 4222519 4205188 4193713 
1604.076 4190468 4195654 4208266 4225798 4244134 4257350 4259291 4244669 
1607.933 4210843 4158787 4092187 4016535 3935948 3853537 3771175 3690733 
1611.791 3615151 3547632 3491714 3450031 3424115 3414063 3419206 3436906 
1615.648 3462990 3490011 3509484 3514261 3501401 3473177 3434435 3391054 
1619.505 3348212 3310416 3280434 3258801 3243312 3229124 3209663 3180924 
1623.363 3143977 3105164 3072728 3050438 3037825 3030050 3020541 3003826 
1627.220 2977836 2945776 2914653 2891970 2882197 2885333 2897474 2913819 
1631.078 2930264 2944975 2957118 2966426 2971063 2967427 2949712 2912951 
1634.935 2858149 2797952 2753434 2741797 2763971 2808089 2859050 2907047 
1638.793 2946143 2975233 2995751 3009297 3017138 3019207 3014435 3002057 
1642.650 2982540 2958553 2934200 2915253 2907381 2914853 2938203 2972865 
1646.507 3008763 3033754 3041228 3032553 3014102 2992115 2970963 2954483 
1650.365 2946176 2952348 2981205 3042830 3139471 3248619 3321701 3322736 
1654.222 3264911 3183461 3103395 3033887 2976701 2930464 2893772 2866254 
1658.080 2849011 2843141 2849411 2866421 2890636 2915487 2934300 2941172 
1661.937 2934434 2918455 2902277 2895339 2901644 2919156 2941606 2963123 
1665.795 2978303 2985676 2986143 2983674 2984575 2995852 3022309 3063017 
1669.652 3110437 3153355 3182693 3195110 3192473 3179089 3160030 3138337 
1673.509 3115309 3090013 3059847 3022676 2978970 2933667 2893805 2866721 
1677.367 2856749 2867221 2898775 2949579 3014102 3083673 3148750 3201652 
1681.224 3239105 3261372 3270319 3266747 3250589 3225085 3199316 3187567 
1685.082 3198114 3227789 3267748 3308279 3339731 3353053 3342903 3308345 
1688.939 3255663 3197179 3148015 3119848 3117411 3138070 3174683 3219644 
1692.797 3266747 3313354 3359298 3406582 3456711 3509184 3558823 3598980 
1696.654 3625341 3638572 3642782 3644787 3652739 3677600 3731670 3819741 
1700.511 3930966 4042721 4137444 4210441 4265381 4308782 4346966 4385088 
1704.369 4425890 4468470 4507204 4533420 4539245 4520797 4479685 4421739 
1708.226 4353191 4281476 4213218 4153267 4105433 4071183 4050145 4039444 
1712.084 4034962 4030949 4020816 3999614 3965071 3920467 3873962 3836522 
1715.941 3815496 3809078 3802426 3773280 3706807 3606063 3491080 3385076 
1719.798 3303137 3249321 3220278 3207861 3203121 3197680 3186298 3168508 
1723.656 3147949 3130360 3120148 3119447 3128091 3144144 3166372 3193608 
1727.513 3225653 3261138 3297361 3329814 3354189 3367211 3370016 3366343 
1731.371 3361702 3360834 3364974 3371653 3374825 3369215 3354957 3339397 
1735.228 3329647 3328545 3333954 3341300 3346208 3345874 3339029 3326776 
1739.086 3311317 3293588 3271053 3239105 3191906 3126489 3044532 2952148 
1742.943 2858516 2772174 2698752 2638643 2588542 2544713 2505953 2475394 
1746.800 2459566 2465397 2497388 2553545 2624675 2694618 2744364 2756202 
1750.658 2717290 2625276 2488357 2323766 2150712 1987547 1847801 1739537 
1754.515 1667054 1630435 1624149 1636188 1651055 1654315 1638749 1606556 
1758.373 1566682 1529273 1500911 1483656 1474745 1467631 1454366 1429300 
1762.230 1391670 1345535 1297643 1253678 1218190 1194267 1184033 1190246 
1766.088 1214568 1257133 1315057 1381798 1448182 1506198 1551951 1586469 
1769.945 1613473 1637485 1660967 1681623 1693298 1688209 1662231 1617630 
1773.802 1560497 1497354 1434087 1374751 1322236 1278435 1243775 1217392 
1777.660 1197191 1181608 1169947 1163800 1166491 1181409 1209451 1247397 
1781.517 1288471 1324131 1347795 1355107 1344837 1319378 1282622 1238392 
1785.375 1189515 1136990 1081980 1026844 977327 941263 927384 942193 986990 
1789.714 1055673 1135296 1205563 1244041 1234970 1176492 1083840 980050 
1793.572 886245 814601 769324 750006 754288 778684 817589 864067 909221 
1797.911 944584 964176 966833 956007 939338 925524 920045 922502 927151 
1802.251 926421 914201 887706 848131 798535 742605 683031 622736 564971 
1806.590 514909 479714 466114 478785 516833 573663 638431 698364 744065 
1810.930 771581 783332 784294 779016 768361 748944 716750 669724 610592 
1815.270 547719 492253 454969 441437 449463 469365 488305 496300 488438 
1819.609 466910 438982 413112 395833 390262 395900 410293 431088 456230 
1823.949 484491 514644 544866 572403 594798 610691 620281 624694 624860 
1828.288 621409 614375 603027 587665 569383 550174 531297 513350 495868 
1832.628 478818 462797 450060 444422 449065 465451 491490 522307 550672 
1836.968 570346 578740 577645 573531 572801 580067 595097 612151 620845 
1841.307 609563 566928 484623 361543 206142 37708 -118636 -239426 -310686 
1845.647 -330849 -306381 -247242 -163088 -64142 39729 138456 222386 286074 
1849.986 328946 355574 373216 390295 412913 442763 477160 510464 535146 
1854.326 545065 537567 513151 475302 429563 382468 340851 309748 293666 
1858.666 295059 314622 351296 400576 455500 506616 544932 563777 561720 
1863.005 541781 512123 482832 462698 457490 468967 493911 527117 563810 
1867.345 599344 630766 655853 671151 673009 659171 630501 591679 551169 
1871.684 518625 501076 500745 511824 522904 518890 487642 425317 340254 
1876.024 250764 178794 144389 155658 207800 282625 355839 403926 409928 
1880.364 369767 291710 193380 94607 14579 -34524 -48671 -32768 1491 39696 
1885.185 68891 82213 79827 68261 56000 50598 54939 64914 71244 65013 41055 
1890.489 2948 -39295 -74611 -94686 -96806 -84284 -62486 -34988 -3512 34228 
1895.311 80092 131396 178165 206507 201700 156884 78335 -13319 -90015 
1899.651 -123340 -96641 -12491 107301 226662 310179 329410 274204 152476 
1903.990 -13187 -195976 -371108 -518867 -627734 -691122 -707729 -680371 
1907.848 -617312 -532104 -440624 -359355 -299825 -264461 -246513 -233631 
1911.705 -214324 -181635 -138411 -93957 -61956 -54203 -77559 -131257 -208859 
1916.045 -299660 -390905 -470976 -529291 -558413 -557950 -533594 -494608 
1919.902 -452143 -414971 -387396 -369817 -358958 -350714 -344192 -345384 
1923.760 -365248 -418049 -511420 -641134 -788635 -926102 -1020587 -1046800 
1927.617 -997744 -885829 -740907 -598683 -490206 -429436 -410403 -410105 
1931.474 -400935 -360381 -280256 -168222 -47014 54840 112836 111046 45130 
1935.814 -78785 -246414 -440161 -640373 -829116 -996092 -1138846 -1262954 
1939.672 -1379859 -1499308 -1622752 -1739560 -1823112 -1838158 -1755797 
1943.047 -1565178 -1279506 -936781 -589452 -285852 -66263 48312 58584 -18985 
1947.386 -155768 -322638 -492854 -648214 -777588 -875776 -941013 -972884 
1951.244 -972950 -944022 -892111 -827363 -760488 -702800 -662936 -645335 
1955.101 -648875 -667204 -690130 -703726 -695820 -657411 -586540 -487624 
1958.959 -371406 -252209 -143082 -52646 16401 66703 102197 123607 127651 
1963.298 108726 61699 -12988 -106645 -206376 -295819 -361375 -398353 -409310 
1967.638 -401763 -385442 -365712 -341312 -309858 -267640 -211906 -144374 
1971.495 -66793 19682 112802 208960 300231 367711 387244 336905 205645 4705 
1976.317 -230485 -450687 -615922 -706737 -736078 -743950 -779077 -877430 
1980.174 -1044783 -1254265 -1459121 -1608161 -1662561 -1611396 -1475368 
1983.550 -1299030 -1131411 -1012984 -963594 -979959 -1041214 -1118323 
1986.925 -1181112 -1203317 -1169513 -1075787 -931260 -759397 -595176 -481932 
1990.782 -458266 -541503 -714742 -928714 -1106855 -1175560 -1090760 -848528 
1994.640 -489213 -83290 289356 569881 730424 783829 773672 759599 793389 
1998.979 900057 1069192 1259825 1417631 1484753 1423615 1227759 924628 
2002.837 565833 219966 -48869 -196374 -202368 -76466 149924 431022 723819 
2007.176 999245 1243742 1455297 1633029 1768580 1848234 1854556 1780158 
2011.034 1633993 1442963 1242679 1066435 936083 851583 798136 754354 702943 
2015.373 644238 593006 565137 569052 589456 588925 517928 337435 36283 
2019.713 -359819 -790421 -1175395 -1428937 -1488081 -1324829 -951262 -409641 
2023.570 231469 889764 1487479 1949735 2227072 2304179 2201196 1968042 
2027.428 1673407 1391902 1181409 1079322 1092642 1206494 1393465 1626277 
2031.285 1883906 2149913 2409952 2647577 2844675 2988178 3071159 3098456 
2035.143 3080469 3027081 2941940 2820395 2653178 2433809 2169360 1885970 
2039.000 1623118 1424247 1324297 1330778 1422551 1552250 1666821 1723136 
2042.858 1700683 1603596 1454698 1284649 1115497 960590 823033 700222 591480 
2047.197 502602 440574 409564 407806 421404 432183 423195 382037 305636 
2051.537 198551 70879 -66793 -202434 -325055 -424372 -490405 -517212 -505629 
2055.876 -465449 -415567 -377729 -370545 -402094 -466541 -543422 -606558 
2059.734 -630943 -601430 -518039 -392295 -243268 -88061 59777 191424 299568 
2064.073 373747 398321 355607 232696 30716 -228962 -502716 -738558 -883845 
2068.413 -901766 -784832 -555004 -260024 41253 291213 452349 511526 480875 
2072.752 387476 263164 134611 17064 -86040 -178158 -263700 -344755 -417917 
2077.092 -474849 -506390 -506456 -472102 -405867 -314460 -205680 -89353 
2080.949 25215 128744 213402 274701 313726 336871 355939 384326 432481 
2085.289 503631 592343 686350 769191 825689 847334 832162 783896 708718 
2089.629 613346 502702 380644 252123 125231 10536 -78388 -131257 -142519 
2093.968 -113899 -54767 21835 103854 183004 256035 322944 384193 437556 
2098.308 478818 501375 499948 473776 425317 362007 292208 223878 163414 
2102.647 114890 81716 67002 75552 111642 177734 274204 395568 533155 674934 
2107.469 806999 916991 994031 1031327 1026578 981943 903012 796775 671151 
2111.809 533288 389532 247581 115918 5434 -72424 -108798 -100848 -54601 
2116.148 15738 89669 146808 175347 175215 157282 140875 144488 177303 235215 
2120.970 301989 355209 373614 345626 271717 163050 37111 -89651 -204190 
2125.310 -298104 -368261 -412786 -430694 -423544 -397790 -362666 -332207 
2129.167 -315785 -313732 -314030 -294726 -230220 -103697 82180 300729 504626 
2133.507 642413 671715 576052 371624 105942 -159378 -366903 -477133 -481170 
2137.846 -400273 -278137 -164810 -107572 -137285 -259395 -453599 -680205 
2141.704 -891979 -1043494 -1108739 -1086926 -1005017 -907024 -842245 -848297 
2145.561 -939591 -1104509 -1309370 -1516643 -1689032 -1802820 -1849178 
2148.937 -1826610 -1734214 -1569767 -1330115 -1014372 -637163 -226246 182706 
2152.794 547321 830337 1008112 1067896 1009540 842255 583252 256102 -102173 
2157.134 -440823 -705380 -845353 -840393 -714279 -537532 -402325 -393089 
2160.991 -562284 -911884 -1396274 -1930531 -2421399 -2784782 -2965849 
2164.366 -2948671 -2753900 -2428845 -2030866 -1618626 -1238836 -915852 
2167.741 -655658 -449628 -280819 -131157 10503 150123 287433 415699 527051 
2172.081 610526 652335 638365 557838 409199 207999 -11596 -203428 -319062 
2176.421 -327803 -231147 -67753 99347 195369 166265 994 -265057 -558678 
2180.760 -795680 -907917 -874321 -723640 -528894 -372763 -326148 -428145 
2184.618 -679610 -1049609 -1490789 -1952995 -2386240 -2747216 -3000106 
2187.993 -3114011 -3073973 -2887586 -2590991 -2240401 -1903217 -1636748 
2191.368 -1467905 -1390692 -1368398 -1349670 -1284990 -1146678 -932185 
2194.743 -661811 -366274 -76831 183568 401272 570876 693120 769092 802850 
2199.083 800991 769457 713597 634018 523899 370795 166099 -91572 -387197 
2203.423 -689898 -959296 -1158443 -1265993 -1281851 -1227272 -1129791 
2206.798 -1017314 -903717 -788503 -664293 -525122 -375246 -231611 -117808 
2210.655 -55396 -52746 -101245 -174548 -239062 -266448 -238665 -155702 
2214.513 -31211 111510 249902 362670 434571 457324 425981 341348 209755 
2218.852 45661 -129866 -290190 -407258 -460947 -442577 -358461 -229491 
2222.710 -86670 36051 111676 125761 82080 -198 -90479 -156695 -176932 
2227.049 -143744 -66097 33764 129175 203026 249040 276657 304277 350467 
2231.389 425649 527681 642148 750438 836877 893483 921440 928446 920610 
2235.729 899028 858622 790867 690797 561321 414771 269131 143494 49836 
2240.068 -10238 -43834 -61028 -69874 -72424 -63778 -35717 16368 91790 180584 
2244.890 267805 338231 380910 392981 380578 356900 336573 333191 355076 
2249.229 402798 469099 540520 599908 630036 619020 563577 471853 361875 
2253.569 256831 181413 152211 174949 241979 337435 439413 527748 589788 
2257.909 620015 622238 607241 590352 586371 609862 670288 769125 900123 
2262.248 1048133 1192572 1310637 1383360 1399315 1356769 1262583 1130080 
2266.106 975633 813439 655753 511360 386614 285808 209921 157249 121718 
2270.445 94773 68824 40524 12491 -5632 -1192 35156 104384 196993 294827 
2275.267 375438 421669 426113 394308 342310 289522 252886 240387 249935 
2279.607 271949 296253 314854 327321 340353 364229 408569 476894 565867 
2283.946 663120 752662 815996 839864 818884 758304 672246 582621 512090 
2288.286 477724 488007 538861 615967 699027 769656 816659 838868 844379 
2292.625 845707 853775 872566 896272 913139 910881 881962 828743 763548 
2296.965 705399 672080 674967 715389 784858 868449 950395 1019205 1069424 
2301.305 1100748 1115463 1115962 1104103 1079887 1046107 1008378 975367 
2305.162 957335 961652 989514 1034150 1083607 1121742 1136591 1123536 
2309.020 1087162 1039464 995293 967397 962151 978655 1009806 1046639 1082079 
2313.359 1112839 1140213 1167787 1199118 1235335 1274779 1314094 1349058 
2317.217 1377077 1397653 1411847 1421820 1429067 1433588 1433920 1428136 
2321.074 1414141 1390938 1358863 1320375 1278302 1236133 1197456 1164730 
2324.931 1139349 1122274 1113138 1110813 1114799 1124300 1139681 1161541 
2328.789 1189914 1223838 1260523 1294818 1320741 1333669 1331708 1316453 
2332.646 1293888 1270293 1251252 1239256 1232012 1224204 1209783 1183734 
2336.504 1145096 1097957 1050591 1012264 991773 994263 1020467 1066734 
2340.361 1127057 1194333 1261852 1324496 1378141 1419260 1444060 1448082 
2344.219 1426474 1376579 1299404 1201443 1094038 991540 906465 848396 821938 
2348.558 826851 859518 913504 981610 1057533 1136890 1218588 1303691 1393664 
2352.898 1485484 1569675 1630601 1649891 1613240 1517403 1372657 1203636 
2356.755 1039132 905934 820079 784062 788809 821041 871470 937611 1024884 
2361.095 1142007 1293389 1473349 1665823 1844673 1983652 2061814 2070270 
2364.952 2012612 1904972 1768480 1624382 1490737 1378839 1292492 1229886 
2368.810 1185529 1151109 1118354 1080884 1034947 980614 921473 863701 814402 
2373.149 779116 760794 759034 770751 791962 818518 848894 883290 923034 
2377.489 969124 1021662 1076898 1129981 1175196 1208055 1226463 1231780 
2381.346 1227095 1216229 1201942 1184565 1162372 1133369 1096296 1052252 
2385.204 1005322 960922 923864 896670 878177 864631 851949 838204 824992 
2389.543 818319 825556 852181 899061 960988 1028305 1089520 1135562 1162970 
2393.883 1173867 1174033 1169880 1165262 1159514 1148551 1127655 1094735 
2397.740 1051853 1005223 963180 933095 919049 920709 934656 956173 981544 
2402.080 1009208 1039498 1073277 1110979 1151375 1192140 1231049 1265973 
2405.937 1296214 1321505 1341247 1354043 1357666 1349988 1329980 1299072 
2409.795 1260855 1219951 1180844 1146325 1116626 1090517 1065438 1039597 
2413.652 1012264 983636 954480 925225 895674 865195 833557 800958 768162 
2417.992 736298 705930 676991 648851 621177 595230 574062 561952 563810 
2422.331 583252 621077 675332 741011 812510 883821 950096 1007880 1054643 
2426.671 1088955 1109384 1115364 1107092 1085966 1055241 1018242 980050 
2430.528 945613 919448 906299 909852 931933 971748 1025515 1085833 1143502 
2434.868 1190413 1220748 1233674 1233341 1227493 1224470 1230318 1246566 
2438.725 1270127 1294984 1313529 1320109 1312532 1292093 1262184 1228424 
2442.583 1196061 1169382 1151774 1144565 1147056 1156325 1167654 1174930 
2446.440 1172106 1155627 1125562 1085899 1043483 1006120 979718 966634 
2450.298 964940 969722 975400 977061 972578 961785 946244 927616 906498 
2454.637 883257 857360 829639 802551 780012 767200 769224 789074 827282 
2458.977 880999 944352 1008942 1066435 1108620 1130346 1130878 1113636 
2462.834 1085700 1055108 1028803 1009341 994961 979983 958232 926819 888602 
2467.174 852148 830768 837441 879505 956273 1057832 1168319 1269296 1346798 
2471.513 1392833 1407027 1394761 1363450 1320009 1267967 1209318 1144797 
2475.371 1076599 1009241 949200 903377 877214 872433 886975 915563 951358 
2479.710 987455 1018806 1042288 1057301 1065139 1068527 1071052 1076200 
2483.568 1086564 1102309 1121842 1139947 1150212 1146392 1123935 1082246 
2487.425 1025382 961619 901252 854937 831100 833822 862905 912840 975201 
2491.765 1038867 1092476 1126559 1135196 1117291 1077031 1023589 969224 
2495.622 924926 899293 895143 909420 933859 959129 976729 982308 977260 
2499.962 967231 960723 965338 986525 1025482 1079887 1144731 1214335 1283652 
2504.302 1348526 1405963 1453136 1487645 1506730 1508160 1491402 1457890 
2508.159 1412180 1361854 1315091 1280561 1264943 1270293 1294253 1330545 
2512.016 1369532 1401044 1418363 1418163 1402573 1377908 1352149 1332174 
2515.874 1321538 1319677 1322635 1325061 1323167 1315789 1305187 1295649 
2519.731 1290764 1292259 1298141 1304190 1305652 1299770 1287341 1272519 
2523.589 1261653 1259892 1269562 1288437 1310438 1326856 1331010 1318547 
2527.446 1289900 1249657 1205165 1164132 1133004 1115862 1112806 1122174 
2531.303 1140246 1162405 1184432 1203304 1217558 1227294 1234538 1241715 
2535.161 1252083 1268166 1291495 1322236 1359029 1399116 1437810 1470756 
2539.018 1493065 1501144 1494328 1475078 1449113 1424446 1409121 1407625 
2542.876 1420457 1442464 1465636 1481162 1483190 1471820 1452471 1434220 
2546.733 1425277 1431427 1452504 1484487 1520994 1557504 1592355 1627142 
2550.591 1664460 1705406 1746290 1780524 1798922 1794730 1766750 1720508 
2554.448 1666455 1616034 1578787 1557671 1549989 1549125 1548626 1545401 
2558.305 1541144 1541510 1553115 1581314 1626211 1683352 1746024 1805976 
2562.163 1857750 1899248 1932029 1959920 1987447 2017705 2051527 2087316 
2566.020 2121011 2147782 2163333 2165197 2154042 2134030 2111954 2094341 
2569.878 2087083 2091545 2104996 2120878 2131666 2132398 2122043 2105728 
2573.735 2091112 2087283 2099668 2128236 2167228 2207357 2239095 2255582 
2577.593 2255815 2243192 2224575 2207190 2196600 2194569 2200430 2211386 
2581.450 2224475 2237430 2249587 2260944 2272236 2284060 2296551 2309176 
2585.307 2321501 2332527 2342088 2350749 2359910 2372104 2390428 2417215 
2589.165 2453368 2497588 2546012 2593175 2634776 2667713 2692351 2711922 
2593.022 2730593 2751700 2776076 2800786 2821263 2832735 2833202 2824231 
2596.880 2811291 2801086 2798952 2807456 2824531 2845509 2864753 2878028 
2600.737 2884232 2884565 2881730 2878562 2876194 2874326 2872191 2869990 
2604.594 2869056 2872158 2881931 2899475 2923859 2951180 2977269 2998120 
2608.452 3012133 3020474 3026981 3035189 3047535 3064519 3083339 3100291 
2612.309 3111037 3113006 3105397 3089780 3069124 3047268 3027581 3012667 
2616.167 3004760 3004993 3013301 3029717 3053407 3083172 3117612 3155525 
2620.024 3195377 3235667 3274759 3310048 3339463 3360633 3372454 3375092 
2623.882 3371018 3363572 3356459 3352953 3354623 3360667 3368647 3376194 
2627.739 3381103 3382939 3383474 3385410 3391388 3402842 3418672 3435670 
2631.596 3449129 3454774 3449564 3433833 3410857 3385778 3364941 3353454 
2635.454 3353254 3363271 3379734 3396998 3409421 3413328 3407985 3395662 
2639.311 3381236 3370484 3368948 3380068 3404178 3438743 3479022 3519138 
2643.169 3553311 3578367 3593568 3601185 3605896 3614048 3630587 3658821 
2647.026 3698686 3747311 3798749 3846416 3884527 3909568 3920735 3920534 
2650.884 3913045 3902714 3893085 3885864 3881250 3877840 3874330 3870285 
2654.741 3866307 3864435 3867210 3877105 3895492 3921905 3954338 3989582 
2658.598 4024027 4054059 4077538 4093693 4103259 4108611 4112491 4117776 
2662.456 4126205 4138247 4152732 4167585 4180298 4189364 4194583 4197560 
2666.313 4201609 4210040 4225865 4249956 4280707 4314203 4345561 4369692 
2670.171 4382879 4384452 4375817 4360187 4342047 4325381 4312898 4305938 
2674.028 4304666 4308515 4316680 4328928 4344791 4364002 4386092 4409990 
2677.885 4433689 4455414 4472755 4483702 4486615 4480488 4465624 4443029 
2681.743 4415480 4386795 4361090 4342649 4334350 4336893 4349142 4367617 
2685.600 4388100 4406375 4419697 4426928 4428969 4427865 4425823 4424953 
2689.458 4426124 4429404 4434258 4439715 4444234 4446142 4443497 4434057 
2693.315 4415915 4387966 4350481 4305436 4256346 4207397 4162768 4125469 
2697.173 4096837 4077103 4064728 4057805 4054293 4052888 4052922 4054661 
2701.030 4059510 4069109 4085063 4108744 4139586 4175246 4212248 4245505 
2704.887 4270434 4284822 4289440 4288370 4288001 4295564 4315877 4350682 
2708.745 4397137 4449389 4500107 4542828 4574069 4593725 4605211 4612913 
2712.602 4622021 4636422 4657521 4685487 4718613 4754690 4790870 4825177 
2716.460 4855097 4879625 4898725 4913336 4925903 4939575 4957372 4981067 
2720.317 5011400 5047065 5085684 5124540 5161220 5194115 5222484 5245960 
2724.175 5264036 5276043 5280940 5277888 5267155 5250219 5229460 5208400 
2728.032 5190158 5176745 5168999 5165814 5165211 5164305 5160483 5151799 
2731.889 5136878 5115689 5088231 5054876 5015925 4971381 4920909 4864781 
2735.747 4803735 4739247 4674066 4611071 4553208 4502584 4459900 4424384 
2739.604 4394526 4368654 4345728 4325983 4310623 4301085 4298275 4301721 
2743.462 4309251 4317851 4324645 4328158 4328125 4326519 4325950 4328493 
2747.319 4335086 4344724 4354731 4362228 4365006 4362094 4354899 4345695 
2751.177 4336993 4330836 4327656 4326452 4325347 4322737 4317617 4310690 
2755.034 4304231 4301487 4305636 4319056 4342281 4373808 4411028 4450326 
2758.891 4488490 4523644 4555652 4584985 4613482 4642149 4670817 4698215 
2762.749 4721930 4740085 4751507 4756801 4757839 4757370 4757873 4760653 
2766.606 4765711 4772143 4778944 4786046 4794756 4807420 4827388 4857007 
2770.464 4897787 4949026 5009322 5075693 5145327 5215978 5285602 5352485 
2774.321 5415353 5472425 5522188 5563802 5596996 5623076 5644290 5664196 
2778.178 5686352 5714619 5752390 5801447 5862869 5936223 6020173 6112237 
2782.036 6209800 6310376 6411379 6511397 6609352 6704267 6795500 6882074 
2785.893 6962839 7037087 7104746 7166958 7225912 7284671 7346572 7414178 
2789.751 7489447 7572450 7662551 7757865 7856372 7955305 8052405 8145813 
2793.608 8234648 8319077 8401124 8484368 8573138 8671288 8781194 8902659 
2797.466 9032548 9165658 9296742 9421501 9537930 9647851 9755089 9864287 
2801.323 9979613 10103347 10234817 10372097 10511965 10651946 10791463 
2804.698 10931670 11075083 11225685 11386984 11561308 11749558 11950899 
2808.073 12162113 12378544 12595287 12807360 13011309 13206029 13393113 
2811.449 13576860 13762564 13956493 14162694 14383514 14618669 14866088 
2814.824 15122945 15386890 15656456 15931586 16213495 16503502 16803450 
2818.199 17114944 17439390 17777918 18131532 18500888 18885442 19284016 
2821.574 19694954 20116552 20548634 20992832 21453046 21934690 22444050 
2824.950 22986322 23565442 24183586 24842046 25542654 26288604 27085138 
2828.325 27939246 28858662 29849482 30916920 32063928 33292708 34605984 
2831.700 36008480 37507520 39113328 40836904 42689684 44681968 46821956 
2835.075 49117472 51576308 54206824 57019540 60025336 63233940 66652320 
2838.451 70281488 74116016 78142848 82344888 86701448 91192312 95802064 
2841.826 100519480 105339576 110261792 115287088 120414888 125640424 
2844.719 130951896 136331776 141755344 147190672 152601600 157942272 
2847.612 163157024 168182576 172941600 177350496 181325296 184780480 
2850.505 187641360 189845104 191341392 192097824 192099792 191354720 
2853.398 189892032 187768304 185062144 181863216 178273264 174388032 
2856.291 170290864 166056368 161742928 157400064 153073408 148803312 
2859.184 144630240 140593216 136726160 133061112 129624696 126438272 
2862.077 123520400 120884664 118539424 116488104 114727040 113245920 
2864.970 112027528 111050600 110289128 109714072 109296104 109001816 
2867.864 108795792 108641216 108496392 108319768 108070288 107707528 
2870.757 107198816 106518400 105650288 104591376 103350544 101949712 
2873.650 100419344 98800104 97136584 95473296 93856584 92326336 90917256 
2877.025 89658136 88568136 87659632 86938504 86405048 86057432 85893096 
2880.400 85909888 86106304 86481304 87031728 87752376 88635464 89670920 
2883.775 90847128 92154240 93582592 95123496 96769016 98509312 100333296 
2887.151 102229240 104185424 106192728 108245664 110341792 112480160 
2890.044 114659088 116873456 119114744 121370808 123628568 125876696 
2892.937 128106920 130314304 132497144 134654816 136787584 138895552 
2895.830 140980400 143045344 145095536 147137888 149178640 151222576 
2898.723 153272128 155327904 157390064 159459760 161540000 163635568 
2901.616 165751968 167894672 170069440 172281392 174537472 176845440 
2904.509 179214416 181652896 184167376 186760672 189432032 192178864 
2907.402 194998960 197892928 200864816 203921280 207070224 210318192 
2910.295 213669392 217125344 220685568 224348080 228108944 231961600 
2913.188 235894736 239891872 243933104 247992928 252045040 256061136 
2916.081 260007472 263845536 267526416 270990336 274172864 277004448 
2918.974 279419168 281360992 282781408 283642176 283913184 283570720 
2921.867 282601664 281005600 278798464 276012576 272694848 268902048 
2924.760 264691264 260120544 255244528 250113072 244776912 239283680 
2927.654 233678704 228005440 222300384 216595120 210916656 205285808 
2930.547 199721008 194236992 188843840 183548912 178357072 173271808 
2933.440 168298992 163447200 158727504 154153104 149735120 145481952 
2936.333 141398992 137488000 133751112 130191680 126815080 123629312 
2939.226 120642952 117863192 115297024 112949496 110826744 108936704 
2942.119 107287592 105888656 104746408 103861704 103229536 102838672 
2945.012 102675704 102726080 102977880 103421632 104047640 104843888 
2947.905 105791416 106862080 108021976 109231416 110449456 111641608 
2950.798 112775872 113825624 114768560 115581088 116239696 116721784 
2953.691 117005696 117075072 116920080 116538016 115932704 115114592 
2956.584 114098896 112902608 111545904 110047944 108424768 106689128 
2959.477 104848312 102904512 100856552 98702120 96440512 94074232 91609976 
2962.853 89059184 86436504 83758480 81042960 78306424 75563440 72827000 
2966.228 70107712 67414856 64758368 62148260 59595944 57114048 54712616 
2969.603 52400796 50184148 48063952 46039664 44109260 42270368 40520732 
2972.978 38858664 37281592 35785600 34366284 33018048 31736006 30517236 
2976.354 29360046 28264524 27231270 26259634 25347242 24490044 23682190 
2979.729 22918448 22194648 21508086 20857960 20244008 19666004 19122908 
2983.104 18612722 18133156 17681278 17254380 16850362 16466470 16099975 
2986.479 15747597 15405737 15071006 14741469 14416361 14096425 13783257 
2989.854 13478756 13184510 12901148 12628715 12366236 12112809 11867157 
2993.230 11627974 11393923 11163636 10936359 10712257 10492989 10280855 
2996.605 10079303 9891200 9717545 9557236 9406772 9260591 9112565 8957925 
3000.462 8794076 8620993 8441359 8259097 8078598 7903237 7735131 7574877 
3004.320 7422032 7275506 7134049 6996476 6862078 6730346 6601581 6476755 
3008.177 6357277 6245597 6143826 6053838 5975996 5909117 5850241 5794967 
3012.035 5738759 5677590 5609079 5532894 5450414 5364394 5277284 5191466 
3015.892 5108145 5027288 4948423 4871214 4795694 4723236 4655645 4594964 
3019.750 4542795 4499672 4464654 4435731 4410526 4386560 4362563 4338299 
3023.607 4314203 4291582 4270768 4251629 4232958 4212817 4188929 4159991 
3027.464 4125335 4085230 4041149 3994197 3945443 3895593 3844243 3790861 
3031.322 3735146 3677233 3617790 3558790 3503071 3453405 3413161 3385544 
3035.179 3371920 3372988 3386880 3409655 3435169 3456110 3465161 3456678 
3039.037 3427722 3379166 3316158 3245448 3175684 3114107 3064986 3029850 
3042.894 3006595 2991614 2981038 2971297 2960721 2949479 2937836 2926828 
3046.751 2916721 2907081 2896974 2885433 2871224 2853947 2833235 2809090 
3050.609 2781978 2753401 2725592 2701719 2685883 2681015 2688450 2706921 
3054.466 2732194 2757636 2776443 2782645 2773208 2748199 2710722 2665213 
3058.324 2616775 2570110 2528748 2495889 2473395 2461965 2460432 2465264 
3062.181 2471362 2471695 2461065 2436907 2400956 2358978 2319635 2290588 
3066.039 2276233 2275799 2284126 2294252 2299582 2297317 2288723 2278331 
3069.896 2271003 2269504 2273068 2277765 2278131 2269971 2251851 2226207 
3073.753 2197466 2170592 2148315 2131533 2118214 2106128 2094075 2082023 
3077.611 2071436 2063545 2057919 2051527 2040774 2020967 1990176 1949702 
3081.468 1904140 1859747 1822546 1796460 1781821 1776365 1776132 1777796 
3085.326 1779226 1780291 1782387 1786878 1795129 1807240 1822513 1840148 
3089.183 1859381 1879547 1900113 1920547 1939351 1955227 1966211 1971370 
3093.041 1970338 1964114 1954029 1941781 1929433 1917785 1907435 1898316 
3096.898 1890296 1882975 1876153 1868931 1860945 1851095 1838451 1821847 
3100.755 1800752 1775067 1745924 1715884 1687943 1665557 1651887 1648461 
3104.613 1654415 1667719 1683419 1697090 1705206 1705772 1699518 1688674 
3108.470 1676567 1665757 1657608 1652386 1649459 1648528 1649193 1652220 
3112.328 1657674 1664692 1670746 1672043 1664958 1646698 1617497 1580217 
3116.185 1539615 1501443 1469958 1447517 1434120 1428734 1429765 1436580 
3120.042 1449279 1468462 1493331 1522158 1551619 1577856 1598374 1612309 
3123.900 1620989 1627508 1634426 1642740 1650590 1654348 1648893 1630102 
3127.757 1596379 1549091 1492932 1434519 1380667 1338256 1312033 1304821 
3131.615 1316586 1345003 1384756 1428867 1470390 1502873 1522823 1530138 
3135.472 1528276 1522258 1517769 1518833 1526181 1537886 1549457 1556773 
3139.330 1556573 1548061 1532898 1514510 1496356 1481029 1469758 1462278 
3143.187 1458023 1455995 1455762 1457624 1461613 1467597 1474346 1480032 
3147.044 1482758 1480963 1474579 1464938 1455064 1448249 1447451 1454299 
3150.902 1468163 1486149 1504137 1517736 1523588 1520562 1510155 1495824 
3154.759 1481794 1472152 1468961 1472285 1480098 1489142 1496223 1498883 
3158.617 1496057 1487745 1474679 1457690 1437976 1416734 1395459 1376512 
3162.474 1362020 1354243 1354243 1361721 1375183 1391969 1409819 1427139 
3166.332 1442830 1457258 1470656 1482459 1492267 1498517 1500014 1496855 
3170.189 1489840 1481195 1473549 1469193 1469625 1474945 1484620 1496822 
3174.046 1509822 1521160 1528343 1528642 1519564 1499581 1468429 1428701 
3177.904 1384058 1339851 1300966 1270625 1249723 1237561 1232012 1231348 
3181.761 1235235 1244108 1259227 1282223 1312565 1348825 1388113 1426740 
3185.619 1461247 1488809 1507262 1514976 1511185 1495525 1469094 1434984 
3189.476 1397620 1362220 1333968 1315689 1307679 1307181 1310039 1312299 
3193.333 1311933 1309474 1307281 1308112 1313562 1322236 1330412 1333304 
3197.191 1326391 1308211 1280395 1248029 1216595 1191841 1177222 1173136 
3201.048 1178252 1189881 1204999 1221246 1236232 1247763 1253279 1250056 
3204.906 1236166 1210680 1175030 1132572 1088723 1048665 1016847 995924 
3208.763 985529 983138 985861 990013 993832 996190 997750 999112 1000839 
3213.103 1002300 1002101 998647 991673 982075 972777 968028 971748 985861 
3217.442 1009341 1037704 1064176 1081116 1083176 1068793 1040394 1003662 
3221.300 965969 933560 909520 894080 885016 878874 873661 868681 865727 
3225.639 867287 875853 892254 915696 943322 971017 994761 1010902 1016614 
3229.979 1010636 993134 966135 933327 899625 870474 850388 841790 843881 
3234.319 853277 864399 871769 871636 863004 847367 828743 811182 796875 
3238.658 786751 779282 771979 762354 749608 734241 718940 707523 703740 
3242.998 711141 731419 764677 808095 857095 904672 943156 966368 969988 
3247.337 953583 919680 873861 822834 772179 726175 686549 653596 627282 
3251.677 608236 598614 601135 618456 650809 695808 748313 800925 846637 
3256.017 880302 899393 904805 899725 888403 875388 863801 855567 851517 
3260.356 851882 855767 862971 872466 882792 892254 898264 898463 890461 
3264.696 872798 845641 810883 772179 734241 702346 680808 671781 674967 
3269.035 687711 705200 722458 735834 743600 746588 747417 749774 756180 
3273.375 767432 782137 797273 809522 816261 816493 810883 801821 791763 
3277.715 783066 777025 774436 774768 777821 782834 788643 793921 796145 
3282.054 792460 780377 758437 727503 690565 653198 621508 601003 594865 
3286.394 602960 622371 647557 672644 692655 704603 708585 707092 704238 
3290.733 704005 709747 722790 742074 764378 785157 799364 803049 794717 
3295.073 775531 749608 723089 703043 694779 701251 721429 750570 782435 
3299.413 809887 827183 831532 823299 805273 782369 760694 745260 741011 
3303.752 750803 775100 811713 855567 899393 934622 954347 954048 933294 
3308.092 896371 849957 801755 758138 722525 695775 676892 665078 660830 
3312.431 665841 681737 708851 744563 783099 817622 841923 852314 849359 
3316.771 837507 822768 810286 803580 802883 805904 810120 813439 815531 
3321.111 817224 819481 822535 825357 826486 824892 821373 818319 819581 
3325.450 828511 846803 872898 903510 933427 958199 975168 984301 987422 
3329.790 986858 985131 983703 983337 984433 988219 995226 1006651 1022460 
3334.129 1041723 1061784 1079788 1092775 1098788 1097459 1089653 1075868 
3337.987 1056902 1032755 1002931 967729 928446 887473 848795 815929 791696 
3342.326 777124 771581 773473 780908 792593 808228 827780 851484 878708 
3346.666 907760 936283 961553 980946 992802 996024 990112 975168 952056 
3351.006 921805 887706 854306 827216 812543 814966 835947 872699 917588 
3355.345 960557 990245 997451 977791 932597 869246 797871 730191 676228 
3359.685 642181 629837 637336 659669 690797 725313 758503 787448 810717 
3364.024 827780 838603 843417 842288 835017 820643 798004 765972 724582 
3368.364 675498 622471 571540 529705 502868 495338 507081 535079 572834 
3372.704 613545 651506 683430 709316 731320 752595 775365 800194 825822 
3377.043 849758 869843 884651 894545 901053 905967 910649 915530 919614 
3381.383 921672 920543 915729 907660 897766 887473 877878 869246 860913 
3385.722 851451 839632 824660 806701 787248 768063 751367 738788 730490 
3390.062 725611 722392 718608 712502 703574 692622 681737 673175 669193 
3394.402 670985 679248 694182 715090 741542 772942 807199 842022 873894 
3398.741 898928 913471 915662 905336 884784 857261 826884 796842 768727 
3403.081 743003 718841 695875 674868 657512 646760 645300 653994 671449 
3407.420 693950 716119 731851 736597 728167 707689 679248 648652 622039 
3411.760 604354 597751 601135 611720 623798 632890 635412 630567 620015 
3416.100 607506 597519 594035 599775 614905 637535 664016 689503 709216 
3420.439 719305 718111 705864 686051 663950 645234 635146 636772 649880 
3424.779 671317 695974 717779 731685 735236 729196 716385 700919 686549 
3429.118 675930 669757 668098 669890 675233 684226 697268 714061 733079 
3433.458 752097 767498 776958 779050 774436 765905 756512 749907 748413 
3437.798 752662 760959 771349 780709 787016 789306 788045 784726 781605 
3442.137 780842 782966 787448 791995 794120 791265 782037 766735 747052 
3446.477 725578 703707 681936 659171 634084 606079 576616 549477 529042 
3450.816 518890 519919 528776 539127 542942 533620 508706 471123 428402 
3455.156 390395 366285 361974 378423 412051 456495 504228 548250 584446 
3459.496 609729 623698 627017 621542 610260 596026 581792 570080 561620 
3463.835 556312 553326 551999 552563 555648 562649 574261 589821 606743 
3468.175 621309 630235 631861 626718 617925 610293 607672 612815 625888 
3472.514 644404 664580 682401 694713 699923 697932 689967 678053 664315 
3476.854 650941 639427 631032 625324 621309 617261 610260 598548 580896 
3481.194 558103 531530 503763 477292 452448 429629 408204 387476 367114 
3485.533 347715 330306 316280 307493 305304 311604 327852 355110 392583 
3489.873 437722 485021 526852 556411 567426 557771 529572 489334 445317 
3494.212 405683 376466 360051 355342 359487 369236 383165 400675 422697 
3498.552 449397 479581 509933 535776 552496 556279 546160 523999 494376 
3502.892 463527 436926 418684 410161 410559 417656 428302 439977 450193 
3507.231 456827 458850 455533 447407 435831 423460 412980 406844 407076 
3511.571 413842 425914 441204 456495 468701 476032 477790 475136 470625 
3515.910 467275 467142 471289 478122 484424 486448 480211 463593 436694 
3520.250 402068 363433 326559 296949 279575 277486 291014 317838 352954 
3524.590 390627 425682 454837 477292 494077 507379 519255 530070 537999 
3528.929 540288 534283 519388 498224 476629 462101 460873 476397 507412 
3533.269 548482 590684 625059 644205 644836 628145 599477 566331 534582 
3537.608 508242 488139 473080 461205 451719 444787 441768 443725 451254 
3541.948 462996 476629 488372 494342 491987 480344 460840 437059 414572 
3546.288 397724 390295 393048 404224 420011 435035 444621 444355 431785 
3550.627 406977 372984 336042 303414 282493 276724 285643 303613 323773 
3554.967 338264 341514 331632 310709 284084 259185 243305 241415 255140 
3559.306 282559 318999 358260 394838 425218 447739 462698 470459 471952 
3563.646 467839 458883 446677 434272 425118 422730 428634 440442 452581 
3567.986 460044 459746 452448 441569 431619 426080 427407 436130 451288 
3572.325 471090 494210 519089 545231 571839 597121 618655 632558 635644 
3576.665 625955 603757 571772 534681 497527 464323 437423 417059 402002 
3581.004 390792 383264 380445 384724 397856 421205 453410 491390 529771 
3585.344 562184 582257 585276 569881 539856 503365 468403 441171 424090 
3589.684 416694 417358 424720 436760 450956 464456 472881 472217 460542 
3594.023 439248 414107 393412 385652 395800 424123 465948 514279 562284 
3598.363 604453 638465 664647 683795 695642 697766 686848 660200 618788 
3602.702 568189 517364 477458 457955 464688 498124 553392 620712 687445 
3607.042 742107 775963 786053 774734 748247 713298 675797 641152 614076 
3611.382 599642 602430 623367 659105 700421 735966 755981 756877 740879 
3615.721 714294 684160 655189 629173 604586 578176 548515 518625 494873 
3620.061 484026 488736 505090 524497 537634 536572 517596 482600 437821 
3624.400 391389 352026 325398 312931 313096 322812 339657 364229 399415 
3628.740 446445 501441 555217 598382 625723 636938 634682 623168 607772 
3633.080 594035 586304 586470 593571 604288 615005 622836 626685 627448 
3637.419 627548 629140 634051 642380 651871 659072 660034 651738 634084 
3641.759 610061 585773 568919 566198 581593 615370 665078 725313 788908 
3646.098 849890 903045 946610 983072 1017212 1051123 1082013 1100714 1098522 
3650.438 1073078 1030729 982640 939238 906731 885547 872898 863137 849957 
3654.778 827515 793157 748811 701848 661063 632458 616697 609995 606876 
3659.117 602197 593338 579702 562947 546060 532558 524530 523004 527681 
3663.457 536937 549345 564009 580465 599112 620679 645367 673208 702545 
3667.796 729992 749940 755682 741476 706428 657280 604752 558568 522672 
3672.136 496167 475236 456362 437191 418187 405650 409066 436064 483993 
3676.476 541316 594865 635810 659237 664116 651472 625291 591679 558601 
3680.815 532790 519388 521013 537601 567127 605515 647855 688640 723321 
3685.155 748944 764710 771150 769722 762685 752097 738954 723587 705997 
3689.494 686250 665642 645599 627481 611654 596888 581128 563345 542776 
3693.834 521013 501176 487277 483893 493812 517165 551236 591613 632857 
3698.174 670587 701948 724981 738124 740082 729428 705930 671881 631894 
3702.513 591314 555084 525492 502403 484557 470990 461570 458618 465882 
3706.853 488239 529639 591945 673142 766901 863602 950794 1015684 1049296 
3711.192 1047934 1014920 958232 889200 817157 750106 694149 652999 628974 
3715.532 622703 632060 652534 677124 698131 708718 706030 691527 671516 
3719.872 654227 647557 656284 681272 717779 757474 792360 815996 826154 
3724.211 824759 816261 806037 799165 798933 805572 817821 832395 845774 
3728.551 855036 857194 850388 832727 803779 765374 723222 686118 664912 
3732.890 668927 702844 764577 843616 923100 982175 1004891 988684 944318 
3737.230 888403 835648 795846 772311 764810 769888 782767 798634 814402 
3741.570 829407 845774 868449 903178 953683 1016282 1077529 1119782 1133801 
3745.909 1120114 1085501 1037040 981179 924727 875488 843682 839267 868084 
3750.249 926753 1000905 1070520 1115231 1124267 1097459 1043018 973209 
3754.106 900289 835283 785987 759001 757939 782336 826486 879837 928911 
3758.446 959892 964475 941131 897102 844711 797572 765706 753591 760827 
3762.785 783896 816958 852281 881132 895973 892553 872167 841392 809821 
3767.125 785224 773008 774801 787946 806203 821971 828710 823996 810319 
3771.465 792726 776394 765009 759333 758570 761059 764876 768395 771647 
3775.804 774403 777655 781805 786983 793356 800759 809323 818452 827880 
3780.144 836279 841923 843383 838868 827415 808228 781340 747716 709150 
3784.483 668529 629041 594135 566331 547653 539027 540719 551932 571009 
3788.823 595263 621774 647756 670985 690432 705366 716584 725014 732415 
3793.163 740514 751799 768328 792327 825224 866623 913737 962582 1008278 
3797.502 1047469 1079123 1102674 1118021 1124034 1118221 1097858 1062349 
3801.360 1015950 966999 924428 892686 871636 859319 853609 853476 858755 
3805.699 868914 881563 892055 894047 883389 860116 828345 794219 764478 
3810.039 744397 737161 743368 761026 785887 813805 841757 868781 895242 
3814.378 922735 951923 982275 1011965 1040328 1068560 1099851 1138153 
3818.236 1184897 1238160 1291030 1330478 1339286 1304356 1228025 1132240 
3822.093 1045144 985894 960523 964774 990311 1027574 1067830 1102940 1125961 
3826.433 1134033 1126891 1107989 1081581 1052385 1023423 997219 975500 
3830.290 959826 950960 948536 950727 954148 954646 949432 937312 919846 
3834.630 901285 888303 888303 907129 946112 999809 1055440 1096064 1107823 
3838.969 1084670 1032224 963612 895375 839997 805306 792991 799796 818950 
3843.309 842188 862075 873031 872466 860215 838968 812543 785390 763648 
3847.649 753093 758669 783332 826818 885215 951159 1016581 1072447 1109949 
3851.988 1122971 1109218 1073377 1027807 985297 951391 924960 902115 880434 
3856.328 859651 841292 827448 821008 824593 839864 867885 908524 959228 
3860.667 1014655 1067298 1107690 1127024 1120147 1087029 1033652 970818 
3864.525 911844 868283 846139 846404 866025 901584 950030 1008577 1072646 
3868.865 1133303 1178485 1196892 1186492 1154963 1115696 1080020 1053215 
3872.722 1036210 1025947 1017046 1004758 987621 967364 948602 935652 930771 
3877.062 933991 943588 955310 963977 965438 956804 939371 918485 901551 
3881.401 894346 899028 914201 936316 960689 982241 995492 995990 982142 
3885.741 956738 926354 898065 876085 862008 855667 856530 864531 880102 
3890.080 903278 931800 961221 984533 995293 990810 972910 946776 920145 
3894.420 900190 891756 896836 915297 943920 978323 1013725 1046008 1072214 
3898.760 1090849 1101412 1104568 1101744 1094802 1086431 1079688 1076831 
3902.617 1078658 1083906 1088291 1086796 1076034 1054975 1026046 993433 
3906.474 961287 932663 909487 892752 883489 882626 891225 909155 934988 
3910.814 964641 992404 1011466 1016780 1006020 980847 946178 909420 878376 
3915.154 860149 859618 878774 915164 962981 1013791 1059260 1091845 1106295 
3919.493 1101146 1078691 1044214 1005488 969988 942625 925258 916858 913504 
3923.833 911313 908125 904074 901750 903742 911246 922868 935951 947008 
3928.172 954181 957767 960457 965538 975500 989979 1005422 1016581 1018839 
3932.512 1010503 994131 974736 957103 944119 935652 928944 920743 908955 
3936.852 893516 877148 863735 857061 859319 870806 889299 911545 934921 
3941.191 955908 972478 983304 987754 986426 980913 973840 967165 962981 
3945.531 962549 965571 971249 978588 986459 994562 1002931 1011533 1019537 
3949.870 1025349 1026744 1022626 1013725 1002466 993400 990411 996422 
3953.728 1010769 1030397 1049562 1062250 1064508 1054843 1034881 1008278 
3957.585 979186 949997 922004 895076 868582 842919 819747 801821 791929 
3961.925 792560 804477 826619 856962 892287 928911 963479 992337 1012097 
3966.264 1020733 1017212 1002632 979817 953583 928479 908490 896604 893217 
3970.604 897567 908158 922469 938109 953118 964874 971980 973342 968925 
3974.944 959660 947539 934224 921241 909254 898795 889930 883688 881397 
3979.283 884917 895475 912276 932896 953085 968194 974471 971117 959361 
3983.623 942459 924528 908490 896039 887440 882593 881431 884817 893815 
3987.962 908258 926321 944451 957335 960125 950993 931567 907362 885647 
3992.302 873794 876517 895010 926653 966202 1007813 1046240 1077927 1101379 
3996.642 1116792 1124699 1126659 1123968 1118221 1110846 1103571 1097293 
4000.499 1092975 
##END=
