##TITLE=api_2 25.08. 11:04:35 2026 (GMT+02:00)
##JCAMP-DX=5.01  $$ Nicolet v. 970
##DATATYPE=INFRARED SPECTRUM
##ORIGIN=Vojna akademija
##OWNER=Nicolet
##LONGDATE=2026/08/25
##TIME=11:05:08
##SPECTROMETER/DATA SYSTEM=Nicolet iS20
##DATA PROCESSING=
Ratio against background
%Transmittance->Absorbance
Truncated
ElementMultiply or ElementDivide
##COMMENTS=
Number of sample scans: 8
Collection length: 11,90 sec
Sample gain: 8,0
Background collected on: Tue Aug 25 10:50:12 2026 (GMT+02:00);
Number of background scans: 8
Background gain: 8,0
Sample spacing:  1,000
Number of scan points: 12415
Resolution points: 8286
Number of FFT points: 65536
Apodization: N-B strong;
Phase correction: Mertz;
Laser frequency: 15798,00 cm-1
Number of rejected sample scans: 0
Number of rejected background scans: 0
Bench serial number: BER2010005;
##RESOLUTION= 4,000
##XUNITS=1/CM
##YUNITS=ABSORBANCE
##FIRSTX=400.156891
##LASTX=4000.123047
##FIRSTY=0.009865
##MAXX=4000.123047
##MINX=400.156891
##MAXY=0.266965
##MINY=-0.007939
##XFACTOR=1.000000
##YFACTOR=1.000000E-009
##NPOINTS=7468
##DELTAX=0.482117
##ZPD=6100
##XYDATA=(X++(Y..Y))
400.157 9864727 9475072 8427102 6955264 5426357 4230716 3639107 3758574 
404.014 4483267 5543800 6561986 7203239 7287805 6846022 6072822 5221680 
407.871 4485945 3921905 3465562 2985976 2377568 1623450 824859 156752 
411.728 -178423 -38367 618290 1717515 3103929 4593926 6045774 7404640 
415.585 8687750 9954524 11261388 12600642 13842705 14712403 14837493 
418.959 13992148 12295469 10168060 8052303 6245227 4871449 3936015 3395929 
422.816 3171979 3161065 3233731 3263075 3153956 2862352 2408519 1858915 
426.673 1306051 839566 535743 440939 562781 871271 1307713 1800353 2273268 
431.012 2664279 2933300 3058813 3032887 2848811 2493089 1949769 1220582 
434.869 355939 -531310 -1251490 -1597729 -1424809 -697573 484922 1925373 
438.726 3371853 4600991 5441489 5815014 5746448 5349466 4790368 4230784 
442.583 3802861 3572988 3548601 3695177 3962229 4296066 4637594 4926740 
446.440 5100267 5109017 4942491 4637192 4271571 3929027 3676397 3536241 
450.297 3486437 3473210 3440914 3357127 3232896 3118379 3080603 3167607 
454.154 3386613 3702897 4054226 4373742 4597944 4683042 4609932 4388167 
458.011 4054427 3668411 3305541 3040361 2951881 3112272 3569513 4330401 
461.868 5329809 6428092 7416571 8090278 8303405 8005354 7251517 6185802 
465.725 5018908 3968516 3239172 2957018 3137302 3680307 4407848 5119511 
469.582 5619115 5768373 5493833 4805242 3794204 2639477 1575229 815996 
473.439 513284 706030 1328518 2244990 3291886 4308080 5137348 5663826 
477.296 5821025 5609079 5093092 4386895 3621298 2905813 2328629 1942513 
481.152 1770210 1808039 2027192 2378034 2787880 3175417 3459750 3576061 
485.009 3500198 3254161 2903912 2530115 2211553 1998631 1905737 1919116 
488.866 2009383 2145085 2301281 2463065 2612708 2720724 2743297 2627476 
492.723 2334626 1865371 1270359 641551 82677 -309527 -479251 -419936 -174018 
497.062 186120 581958 955177 1286842 1591357 1903441 2254949 2659145 3098690 
501.401 3526754 3878609 4096903 4149788 4040280 3803128 3492216 3170344 
505.258 2890203 2692351 2593675 2584609 2631209 2687150 2711788 2681549 
509.115 2599075 2488457 2383331 2307943 2270970 2259479 2247822 2211853 
512.972 2144818 2064344 2012578 2040308 2189407 2477094 2882431 3346142 
516.829 3782773 4113695 4284052 4282614 4139753 3916254 3680574 3487305 
520.686 3370884 3337293 3374124 3458581 3568812 3688661 3807139 3915486 
524.543 4001387 4043758 4017338 3898334 3680741 3383407 3052239 2744598 
528.400 2514385 2398890 2406553 2517950 2691250 2880229 3045032 3167740 
532.257 3254161 3325640 3403610 3498896 3607366 3713423 3802560 3868881 
536.114 3918695 3964302 4011285 4048574 4046701 3968482 3788923 3511154 
539.971 3174716 2846876 2606308 2510052 2576643 2777543 3052340 3326575 
543.828 3542755 3680574 3756368 3812320 3892550 4024829 4205858 4406476 
547.685 4583913 4703005 4746282 4718211 4638532 4534156 4428266 4333480 
551.542 4254272 4189799 4139184 4101152 4073992 4049978 4013258 3942902 
555.398 3818471 3626978 3372187 3075831 2775075 2510985 2322966 2234533 
559.255 2251385 2361943 2544146 2772508 3022476 3276295 3521409 3749684 
563.112 3954739 4129951 4266987 4357810 4396066 4379900 4313835 4208300 
566.969 4076166 3929963 3778461 3623537 3462656 3291185 3107400 2916521 
570.826 2730927 2566643 2439040 2355780 2313073 2294719 2278697 2244091 
574.683 2179949 2091744 2003158 1950867 1970638 2089447 2314305 2631276 
578.540 3006061 3391388 3731102 3964369 4041684 3933306 3641847 3202720 
582.397 2682682 2166796 1736310 1461779 1379504 1484387 1729523 2044137 
586.254 2354547 2601642 2758336 2827332 2831768 2798819 2750233 2693918 
590.111 2627009 2546212 2457400 2381566 2352915 2403888 2550912 2782978 
593.968 3062717 3332118 3528324 3604559 3538713 3344806 3066154 2769373 
597.825 2521683 2375735 2360810 2472862 2677681 2916387 3127490 3257132 
601.682 3276328 3186765 3017004 2812892 2620942 2480493 2409985 2406420 
605.539 2450536 2518084 2587609 2644844 2684249 2702220 2692551 2645644 
609.396 2548645 2394059 2186942 1950201 1722138 1548194 1472551 1521327 
613.253 1699019 1984651 2339623 2710021 3038158 3274893 3383641 3351050 
617.109 3189135 2934967 2638910 2353148 2119646 1955893 1854223 1787045 
620.966 1721340 1630867 1508160 1365909 1230716 1128286 1069258 1044446 
624.823 1026943 985197 897766 764611 608800 465086 361875 310676 298739 
629.162 296418 268302 192253 67698 -81237 -217039 -301779 -309792 -236910 
633.501 -97469 81550 274801 463958 643442 818585 999710 1194765 1406030 
637.840 1628938 1853458 2067041 2256581 2412284 2528315 2605308 2649744 
641.697 2676148 2702020 2744865 2818195 2926528 3065954 3224050 3386278 
645.554 3538345 3670783 3779764 3865939 3932236 3981924 4018408 4044862 
649.411 4064560 4080548 4093926 4103760 4106570 4099580 4082354 4060881 
653.268 4044460 4045798 4073223 4126472 4193747 4254105 4283450 4259927 
657.125 4172703 4024127 3829435 3612077 3400938 3225486 3110170 3073695 
660.982 3125121 3261472 3466764 3713256 3967479 4195988 4378226 4509347 
664.839 4600489 4671420 4742363 4822162 4897251 4918664 4814389 4534759 
668.696 4103158 3608802 3143143 2761704 2482592 2308676 2236931 2260145 
672.553 2362076 2513785 2676781 2806089 2864887 2835503 2723625 2557344 
676.410 2378434 2231535 2145185 2129235 2174688 2264974 2385863 2533814 
680.267 2715123 2937303 3198581 3479423 3741095 3937720 4029043 3994966 
684.124 3844243 3612879 3350983 3103962 2904379 2765472 2685249 2654611 
687.981 2662312 2698819 2751900 2807056 2846543 2853013 2818595 2750133 
691.838 2671014 2611642 2602575 2660845 2785613 2961122 3167573 3391354 
695.694 3631723 3898334 4201843 4541355 4896916 5229393 5492423 5652615 
699.551 5699545 5654125 5558198 5463633 5410857 5421291 5497189 5628211 
703.408 5802388 6012513 6258405 6540425 6852586 7179355 7497605 7787212 
707.265 8041705 8275036 8518462 8810272 9185049 9658218 10226065 10867964 
711.122 11559743 12281085 13024454 13793244 14596703 15442919 16334821 
714.497 17272274 18255468 19289246 20383618 21548022 22785808 24086806 
717.872 25428740 26775786 28086868 29321582 30436660 31387884 32128290 
721.247 32608672 32792374 32665328 32245934 31581864 30745110 29814240 
724.621 28853706 27911542 27010592 26154506 25336774 24550206 23792776 
727.996 23069160 22386902 21753504 21173004 20643832 20161324 19720126 
731.371 19316680 18950334 18622372 18333436 18081234 17859148 17655326 
734.746 17453462 17237522 16993572 16713602 16398679 16058851 15711317 
738.121 15375459 15068606 14800500 14572717 14380329 14214491 14066649 
741.496 13929224 13796288 13660247 13509723 13331301 13111151 12842921 
744.870 12532053 12200518 11880370 11605104 11400114 11271895 11205590 
748.245 11168735 11124609 11042318 10908395 10730767 10532740 10343389 
751.620 10184137 10064043 9976697 9906861 9839578 9769220 9703110 9658218 
755.477 9651612 9691725 9770169 9863032 9935642 9956661 9909911 9800331 
759.334 9653068 9505551 9396140 9348335 9364754 9426817 9504400 9565366 
763.191 9587925 9568617 9520114 9465218 9426004 9416523 9437010 9475953 
767.048 9515305 9539725 9541283 9521808 9491497 9462779 9446254 9444662 
770.905 9453772 9463118 9459495 9430643 9368716 9271693 9143966 8995607 
774.762 8839995 8691841 8562290 8456393 8370857 8294894 8211956 8105470 
778.619 7963842 7783029 7567392 7327499 7077196 6827812 6588259 6364775 
782.475 6162209 5986309 5844969 5745810 5696054 5699377 5753700 5849973 
786.332 5973040 6101148 6207749 6268691 6263413 6182609 6031126 5829588 
790.189 5609582 5405187 5245020 5140701 5085315 5055747 5025847 4975302 
794.046 4900065 4812379 4735529 4691080 4685889 4709000 4734826 4736568 
797.903 4698215 4625002 4544067 4494784 4511055 4608626 4777068 4985424 
801.760 5190829 5355605 5460412 5507020 5513530 5505041 5502826 5517792 
805.617 5549841 5593035 5640127 5687258 5733320 5777976 5818137 5847757 
809.474 5858268 5842182 5797183 5727176 5642746 5556822 5482189 5429175 
813.331 5403107 5404684 5428840 5466352 5501886 5517960 5498766 5433839 
817.188 5324912 5188280 5052998 4951841 4913805 4953819 5066709 5228353 
821.045 5401598 5549203 5640363 5660302 5610992 5507524 5372344 5228956 
824.902 5099730 5001512 4945306 4935453 4967795 5029434 5099965 5156828 
828.759 5178590 5154950 5089639 5002183 4920775 4874532 4884685 4955260 
832.616 5073179 5211384 5340309 5433940 5479069 5475981 5435886 5373652 
836.473 5302338 5231036 5163870 5103217 5053937 5023065 5018975 5046395 
840.329 5102278 5173090 5237005 5271984 5260749 5199245 5098423 4982072 
844.186 4877949 4811776 4800351 4848731 4952613 5101776 5285266 5490477 
848.043 5704245 5911233 6092445 6230303 6312326 6336633 6314108 6268086 
851.900 6227311 6215178 6243278 6305905 6384345 6451834 6485129 6471306 
855.757 6410303 6312393 6192457 6065665 5942068 5828883 5732883 5660537 
859.614 5619719 5615356 5646002 5702298 5768507 5827573 5866396 5881374 
863.471 5877478 5865354 5855044 5850712 5850107 5847353 5837111 5820018 
867.328 5802052 5791878 5793791 5803865 5808768 5791374 5738423 5648183 
871.185 5533397 5419647 5336048 5304820 5336283 5425452 5557157 5709751 
875.042 5864111 6004484 6119832 6202406 6246639 6249429 6214136 6151925 
878.899 6082499 6027295 6005626 6025549 6080987 6153505 6219883 6259850 
882.756 6263111 6231614 6177803 6117950 6065262 6028673 6011270 6013051 
886.613 6032503 6067547 6114018 6162780 6200893 6213262 6187953 6123125 
890.470 6029614 5930177 5851753 5818742 5843827 5924669 6043994 6177702 
894.327 6301602 6397088 6456173 6479176 6472483 6443225 6397626 6339895 
898.183 6271716 6194171 6108742 6017721 5924669 5834962 5754842 5691052 
902.040 5648183 5627271 5623915 5629151 5631534 5621330 5595318 5558836 
905.897 5524806 5508262 5521652 5567427 5636872 5711866 5772570 5803596 
909.754 5801851 5777070 5749570 5743191 5774685 5851148 5966153 6103198 
913.611 6240992 6361581 6455097 6521858 6570228 6612716 6660525 6718299 
917.468 6781668 6838818 6875038 6876990 6839862 6770494 6687846 6617022 
921.325 6582910 6602657 6679232 6800650 6943715 7082551 7193806 7264724 
925.182 7294510 7292724 7273687 7250978 7234941 7229382 7233155 7240837 
929.039 7245722 7240129 7217826 7175144 7113638 7040656 6967688 6909981 
932.896 6879280 6879885 6906413 6944759 6976779 6987385 6971190 6934894 
936.753 6894698 6868676 6870830 6904090 6960179 7023078 7077567 7116130 
940.610 7142773 7171641 7223351 7317659 7466491 7671353 7922639 8202568 
944.467 8486970 8749953 8968275 9121532 9198789 9200311 9141698 9050175 
948.324 8961882 8913008 8927924 9014754 9161258 9339972 9513442 9648562 
952.181 9724694 9738553 9703788 9646022 9595749 9576949 9603439 9674176 
956.037 9775523 9884454 9975816 10031320 10042476 10014095 9962661 9911132 
959.894 9880251 9883132 9922760 9992328 10080999 10179355 10283942 10397582 
963.751 10524762 10665528 10810587 10940470 11030762 11058496 11014620 
967.126 10906560 10759602 10606141 10479072 10399992 10373929 10391745 
970.501 10435728 10488814 10539699 10586040 10631843 10681931 10737016 
973.876 10791666 10835453 10858384 10854986 10828047 10787692 10748903 
977.251 10724891 10721426 10733823 10748326 10744793 10703359 10612490 
980.625 10472521 10298328 10114166 9950084 9831578 9772474 9772270 9816768 
984.482 9883505 9947304 9989106 9999007 9976833 9928726 9863948 9791756 
988.339 9719679 9655914 9610045 9592802 9614719 9680985 9787419 9918827 
992.196 10053090 10165821 10239839 10271559 10272136 10263009 10265724 
995.571 10294664 10349971 10419336 10483315 10525713 10541328 10538036 
998.946 10532366 10542449 10578469 10636530 10699250 10742212 10744114 
1002.321 10693647 10594732 10464715 10330189 10217075 10144657 10121967 
1005.695 10146793 10208764 10292696 10383974 10469500 10539394 10589062 
1009.070 10617039 10626038 10620876 10608008 10592797 10579623 10571170 
1012.445 10568997 10574531 10589843 10616292 10653677 10698095 10740887 
1015.820 10768739 10767142 10723838 10632047 10492786 10314547 10111284 
1019.195 9897742 9688507 9494816 9324433 9181292 9067226 8981332 8919874 
1023.052 8876787 8844424 8814837 8782174 8741975 8691233 8626165 8542487 
1026.909 8437373 8316780 8203380 8143179 8201590 8458792 8980080 9793621 
1030.766 10862868 12083918 13287535 14271430 14863585 14945266 14495321 
1034.142 13589304 12388158 11088136 9871370 8880710 8182614 7776046 7606775 
1037.999 7598042 7669768 7758607 7830325 7875029 7902394 7930704 7980177 
1041.857 8063780 8183626 8330662 8487917 8635459 8757797 8850613 8922986 
1045.714 8995878 9094124 9239572 9440972 9690099 9962560 10224979 10444418 
1049.571 10594868 10666106 10663389 10607023 10524694 10449747 10412447 
1052.947 10435559 10531144 10695549 10910195 11142048 11353583 11509929 
1056.322 11587375 11580773 11502206 11377188 11233198 11093404 10968436 
1059.697 10856176 10746322 10627056 10490545 10334668 10162463 9980291 
1063.072 9794637 9612348 9441040 9290141 9167756 9078865 9019794 8977374 
1066.930 8930461 8858728 8750968 8610246 8454805 8310565 8201826 8139263 
1070.787 8115630 8108980 8094599 8051156 7971200 7859374 7727373 7584588 
1074.645 7433121 7267521 7082517 6879078 6671056 6480421 6331019 6236320 
1078.502 6192087 6176425 6158781 6111969 6022391 5895749 5753028 5621833 
1082.359 5523095 5465680 5444106 5444374 5447394 5435651 5395458 5316392 
1086.217 5191030 5018238 4807018 4580665 4376687 4243197 4221415 4336291 
1090.074 4582473 4925836 5306833 5658657 5927322 6080987 6118555 6062910 
1093.932 5951776 5820924 5696323 5591156 5507188 5439207 5381301 5329541 
1097.789 5282382 5240225 5203705 5172621 5145696 5120416 5091986 5054574 
1101.647 5001814 4928818 4835296 4728361 4622892 4537739 4491670 4496826 
1105.504 4553978 4651995 4772411 4894871 5004060 5094467 5170643 5243779 
1109.361 5324677 5419546 5525679 5633481 5728284 5796914 5831670 5832577 
1113.219 5806720 5766627 5727612 5702970 5703037 5732749 5790265 5867235 
1117.076 5950903 6026254 6078400 6096881 6077896 6025515 5950835 5869015 
1120.934 5796142 5744400 5719756 5720125 5736476 5754640 5759677 5740706 
1124.791 5693100 5619384 5529403 5436657 5354196 5292310 5257060 5250386 
1128.649 5272790 5324577 5406462 5518094 5656106 5812630 5974383 6127057 
1132.506 6258034 6361177 6438046 6497641 6551929 6610664 6677718 6749730 
1136.363 6819464 6879549 6927353 6967284 7009743 7065914 7143480 7243296 
1140.221 7359344 7481289 7598986 7706933 7804956 7897939 7991112 8088219 
1144.078 8188320 8287160 8378457 8457271 8521908 8574219 8618797 8661655 
1147.936 8708507 8763917 8830763 8909964 8999633 9094158 9184304 9259711 
1151.793 9309268 9325754 9307778 9260896 9195337 9124035 9058057 9003692 
1155.651 8962221 8930562 8903504 8875874 8844289 8807702 8767433 8726863 
1159.508 8691097 8665812 8655706 8662162 8681362 8704416 8717567 8707323 
1163.365 8665914 8594733 8505757 8419366 8358628 8340051 8369370 8438859 
1167.223 8530661 8621636 8690218 8722941 8714726 8669159 8594496 8501330 
1171.080 8399502 8296617 8199294 8111208 8033941 7966002 7903170 7840210 
1174.938 7772875 7700188 7624849 7551917 7485469 7426211 7369960 7308494 
1178.795 7233122 7139000 7028264 6909914 6796443 6700296 6628158 6580387 
1182.652 6551592 6534572 6523708 6517317 6517149 6526802 6548027 6579748 
1186.510 6616989 6653358 6683707 6705848 6721496 6734889 6751076 6773388 
1190.367 6802299 6834678 6865646 6889210 6899310 6891196 6862179 6811622 
1194.225 6741350 6656218 6563735 6471306 6388177 6321235 6276086 6256287 
1198.082 6264153 6299820 6361278 6444268 6541198 6640909 6733038 6806876 
1201.940 6855481 6876889 6873826 6852282 6818690 6779615 6738355 6697032 
1205.797 6656689 6619579 6588124 6565249 6552803 6550852 6557714 6570497 
1209.654 6585332 6599865 6612312 6622136 6629672 6636738 6646326 6663822 
1213.512 6695350 6746802 6821450 6917354 7026884 7140011 7245419 7335957 
1217.369 7411550 7478593 7546556 7624208 7714320 7811939 7906476 7985880 
1221.227 8042582 8076607 8095612 8112457 8140410 8188016 8257814 8346942 
1225.084 8449636 8560195 8674871 8790931 8905838 9015599 9114730 9197131 
1228.942 9258797 9299044 9320913 9328361 9324806 9310622 9283168 9238048 
1232.799 9172358 9086917 8986508 8879053 8773113 8674635 8586690 8508460 
1236.656 8436730 8367580 8296448 8219013 8132105 8034583 7929220 7823477 
1240.514 7729903 7661910 7630548 7639181 7681437 7742281 7801987 7844259 
1244.371 7860690 7853740 7833463 7813357 7802797 7802494 7805766 7801583 
1248.229 7780938 7741607 7689666 7636820 7595816 7574743 7574608 7590354 
1252.086 7614295 7638810 7659516 7676580 7691419 7704573 7714320 7716850 
1255.943 7708046 7686192 7652906 7613755 7576091 7547365 7532059 7532228 
1259.801 7547635 7576631 7616756 7666193 7722212 7781410 7840210 7894902 
1263.658 7942279 7980683 8009067 8026786 8033030 8026954 8008999 7981830 
1267.516 7951458 7926250 7915520 7926925 7963674 8023444 8098853 8179980 
1271.373 8255855 8317489 8359743 8381092 8383186 8370383 8348664 8324987 
1275.231 8305769 8296076 8297359 8307323 8319617 8326980 8323062 8306209 
1279.088 8279832 8252478 8233803 8231879 8249641 8285202 8331978 8382510 
1282.945 8431055 8475246 8516029 8555768 8597201 8641679 8688900 8737613 
1286.803 8786366 8834314 8881353 8927518 8973755 9021553 9073688 9134491 
1290.660 9208637 9300026 9408804 9530851 9658624 9782030 9893606 9990429 
1294.518 10076623 10160428 10251882 10358048 10479242 10609603 10739155 
1297.893 10858316 10961810 11050509 11130694 11210282 11294713 11384263 
1301.268 11472980 11551305 11609392 11640260 11642473 11620351 11582373 
1304.643 11537693 11494891 11459441 11432566 11412360 11394570 11374331 
1308.019 11347597 11312840 11270263 11221944 11169483 11112950 11050849 
1311.394 10979956 10897352 10803419 10702442 10603084 10515054 10446046 
1314.769 10398193 10367481 10344847 10319364 10283331 10233901 10174504 
1318.144 10112911 10057803 10014841 9984733 9963407 9944524 9922488 9894522 
1322.002 9860863 9824800 9790740 9762579 9744212 9738113 9746483 9770813 
1325.859 9812091 9870184 9943439 10029828 10126002 10228711 10334973 
1329.234 10442246 10547779 10649331 10744827 10833618 10917229 11000481 
1332.610 11090209 11194506 11320695 11473048 11652547 11857622 12084906 
1335.985 12331840 12596924 12879610 13177508 13484396 13787361 14067230 
1339.360 14304130 14483707 14603009 14671239 14705342 14722891 14736739 
1342.735 14755352 14782743 14821276 14873666 14942865 15031010 15137527 
1346.111 15258485 15387130 15515883 15640518 15761066 15882540 16012093 
1349.486 16154787 16310532 16472219 16627250 16763844 16873958 16957878 
1352.861 17023894 17085822 17159822 17257966 17387828 17551572 17748130 
1356.236 17976584 18237466 18533046 18866268 19239750 19656402 20122036 
1359.612 20649356 21262492 21997984 22896758 23993724 25294312 26758202 
1362.987 28297130 29801004 31172274 32344158 33287592 33993652 34460508 
1366.362 34693224 34706828 34540000 34257708 33955032 33734884 33682460 
1369.737 33859272 34294492 35002268 35999084 37315568 38997720 41087012 
1373.113 43586936 46417728 49395412 52274420 54804780 56814540 58226336 
1376.488 59016864 59179576 58700800 57567016 55798832 53478616 50755284 
1379.863 47801028 44785576 41837620 39033892 36423852 34034900 31881038 
1383.238 29961402 28252822 26710596 25274222 23886202 22505604 21127048 
1386.614 19785072 18541760 17456118 16556473 15830167 15240844 14748942 
1389.989 14323342 13945851 13606397 13296588 13006290 12723384 12436504 
1393.364 12140203 11837635 11539735 11259314 11003166 10768943 10550426 
1396.739 10343286 10150897 9982902 9850356 9757394 9696232 9648800 9597884 
1400.597 9534949 9463727 9394786 9339532 9302395 9277550 9250234 9204305 
1404.454 9130295 9034612 8936785 8860893 8822918 8823797 8852337 8892175 
1408.312 8929682 8958127 8979100 8998651 9023380 9054606 9090199 9125862 
1412.169 9160175 9196589 9241637 9301312 9377281 9465963 9560623 9654864 
1416.026 9746855 9841069 9945981 10069062 10211580 10364427 10512711 
1419.402 10645867 10766565 10886787 11020635 11176385 11356712 11561445 
1422.777 11791330 12051315 12349021 12689233 13069217 13476022 13893334 
1426.152 14307829 14717716 15135571 15587349 16105888 16720248 17444804 
1429.527 18271330 19172390 20114262 21069204 22019944 22958130 23879690 
1432.903 24781774 25666086 26545898 27451002 28432776 29555394 30868892 
1436.278 32358796 33925220 35423652 36746896 37872840 38849928 39754308 
1439.653 40664176 41638716 42710412 43882108 45133620 46431112 47739184 
1443.028 49035336 50310032 51565492 52811380 54061908 55336556 56659996 
1446.404 58059584 59555616 61148816 62815844 64515276 66214516 67912528 
1449.779 69642328 71461464 73425400 75561264 77845376 80203008 82537856 
1453.154 84752600 86793568 88656352 90371768 91984640 93525920 94985632 
1456.529 96293248 97358384 98141320 98675960 99041608 99293832 99454936 
1459.905 99531944 99533776 99474528 99368632 99218536 99005280 98679072 
1463.280 98166568 97382056 96259544 94781736 92970280 90854352 88440616 
1466.655 85701408 82616808 79200592 75521560 71671104 67750264 63827232 
1470.030 59890600 55869328 51657956 47204432 42611972 38183180 34291840 
1473.406 31157322 28757470 26906056 25384968 24048562 22830296 21727520 
1476.781 20759902 19935360 19233586 18614210 18034052 17462532 16886632 
1480.156 16308812 15738700 15185151 14652082 14138526 13645682 13179968 
1483.531 12752524 12375645 12055403 11787007 11554911 11337803 11117505 
1486.907 10884985 10643388 10400976 10160258 9910963 9631895 9307507 8945647 
1490.764 8578511 8245656 7972414 7763700 7606505 7479300 7360187 7234099 
1494.621 7096427 6954220 6822998 6718366 6644207 6590479 6536926 6468515 
1498.479 6383268 6289634 6199582 6120907 6053670 5992121 5929271 5861694 
1502.336 5790870 5722677 5664431 5620760 5592297 5573770 5555278 5525075 
1506.194 5478632 5426290 5389285 5377443 5381838 5387876 5388514 5384689 
1510.051 5382509 5388849 5407804 5437899 5471384 5498497 5510980 5504168 
1513.909 5477324 5430450 5363454 5274970 5165144 5040663 4917826 4815662 
1517.766 4748828 4718647 4713656 4711881 4686626 4611004 4471483 4284019 
1521.623 4097038 3964536 3910170 3922440 3970789 4025097 4060781 4063658 
1525.481 4029377 3962095 3871555 3768400 3660391 3551607 3444587 3342469 
1529.338 3248019 3163735 3089413 3021809 2956818 2890703 2825398 2770073 
1533.196 2738929 2742197 2776242 2825998 2873559 2907081 2922959 2922458 
1537.053 2909983 2890670 2869323 2846976 2819929 2780511 2723991 2655811 
1540.911 2589742 2537514 2502487 2481293 2468463 2459033 2450269 2440373 
1544.768 2426978 2406553 2375602 2332060 2277565 2217214 2160036 2116749 
1548.625 2099169 2113952 2159103 2222177 2286425 2340189 2380166 2410218 
1552.483 2436807 2464398 2491856 2512718 2517950 2502454 2467030 2418448 
1556.340 2363942 2310774 2262576 2220978 2188041 2169992 2172723 2193703 
1560.198 2221910 2246556 2260345 2260345 2246056 2220711 2189940 2162333 
1564.055 2146217 2145951 2159670 2179050 2193636 2194535 2177652 2143520 
1567.912 2096805 2044569 1996967 1963848 1950567 1956525 1976562 2004456 
1571.770 2035514 2066841 2097404 2126938 2156972 2189274 2225474 2264008 
1575.627 2297384 2313439 2302447 2264108 2207923 2147182 2092643 2049663 
1579.485 2019502 1999097 1983785 1969007 1952964 1937421 1927536 1928002 
1583.342 1940682 1962749 1987447 2005888 2011779 2003724 1985982 1966677 
1587.200 1953563 1952132 1963781 1985616 2012279 2038777 2061148 2077328 
1591.057 2086717 2089081 2085285 2077228 2068639 2064944 2070969 2090080 
1594.914 2121976 2162566 2205159 2244691 2279430 2312340 2348884 2394159 
1598.772 2450002 2512818 2574443 2624275 2654511 2661512 2648311 2621875 
1602.629 2591642 2564910 2546379 2536980 2534914 2537847 2542146 2544979 
1606.487 2542846 2532914 2512885 2482959 2445238 2403788 2362309 2322467 
1610.344 2283061 2240728 2192304 2136128 2073433 2007918 1944044 1885737 
1614.202 1834924 1791802 1754973 1722538 1693597 1669981 1654415 1649093 
1618.059 1653450 1665258 1681090 1698288 1713623 1723968 1724500 1709098 
1621.916 1670946 1606090 1518002 1419094 1326391 1253943 1206660 1181043 
1625.774 1167787 1156059 1135462 1100283 1051156 995226 943721 906764 890661 
1630.113 896803 923167 966501 1023688 1091580 1167156 1246633 1323698 
1633.971 1389177 1431793 1441666 1418030 1373621 1329149 1297610 1279863 
1637.828 1267634 1252448 1227061 1189316 1140811 1086796 1033287 986326 
1641.686 949200 923133 907528 901352 904274 916293 937212 964874 992835 
1646.025 1010005 1004492 970154 913073 847002 785589 735933 700255 677987 
1650.365 668231 670023 682202 701749 719704 721330 696671 655786 620347 
1654.704 604022 609762 633421 670321 714526 761059 805140 843782 876019 
1659.044 902647 925325 944783 960025 968061 963977 943289 904738 852911 
1663.384 796477 744032 701118 669226 646959 631363 619816 610260 601467 
1667.723 592409 582787 572071 559994 547288 536008 529207 529937 540553 
1672.063 561587 591845 627913 663518 688607 692523 668264 619086 558170 
1676.402 503000 465517 448700 449231 459547 470692 474274 466048 447075 
1680.742 424455 406977 402964 417258 448800 487907 516270 515241 482998 
1685.082 435566 391091 358625 337800 324801 315583 307791 301093 297181 
1689.421 298474 307161 323608 346521 374277 405352 439413 476397 515772 
1693.761 556113 593670 622438 636241 633023 617991 601268 591082 589390 
1698.100 594400 603558 615569 634084 665343 713099 771614 829971 877181 
1702.440 907295 918651 913305 897600 882858 883887 913504 975965 1064209 
1706.780 1164365 1262052 1346931 1414207 1461281 1487346 1491934 1474779 
1710.637 1436912 1380435 1309341 1227526 1139914 1051488 967198 891457 
1714.495 827814 776626 733809 689470 629870 540951 418485 274204 132854 
1718.834 17925 -58610 -96906 -104823 -91870 -67555 -39096 -13452 4141 10669 
1723.656 4406 -13319 -39361 -67720 -91109 -101345 -91175 -56059 3545 80854 
1728.478 164939 241117 297181 327852 336706 334384 333854 344896 370563 
1732.817 404523 430889 431354 398055 342011 282857 235978 206242 192584 
1737.157 192153 203059 223745 252422 285477 316479 337634 343139 330671 
1741.496 301690 260146 210352 155857 97623 34891 -33894 -108798 -187100 
1745.836 -264362 -334359 -392262 -436785 -470645 -499572 -528993 -561656 
1749.693 -595904 -628098 -656088 -681463 -710078 -747787 -796672 -854910 
1753.551 -917770 -980785 -1041379 -1100576 -1161913 -1230543 -1308279 
1756.926 -1391617 -1471340 -1538567 -1587693 -1619814 -1641799 -1663188 
1760.301 -1693686 -1737349 -1790050 -1839346 -1869501 -1869534 -1838521 
1763.677 -1783978 -1717383 -1649490 -1588354 -1538930 -1502808 -1479661 
1767.052 -1466816 -1460046 -1453177 -1439703 -1414241 -1373253 -1317133 
1770.427 -1250664 -1184779 -1134186 -1114093 -1130320 -1175593 -1232492 
1773.802 -1284428 -1322814 -1346168 -1358026 -1363873 -1368662 -1375631 
1777.178 -1386102 -1400766 -1419954 -1444195 -1473684 -1507200 -1541473 
1780.553 -1572210 -1596145 -1613377 -1628133 -1647212 -1678041 -1725633 
1783.928 -1789951 -1865311 -1941648 -2007319 -2053391 -2076772 -2078849 
1787.303 -2063911 -2036572 -2001283 -1961901 -1921724 -1884710 -1855512 
1790.679 -1839181 -1839808 -1858515 -1891902 -1932940 -1974732 -2012299 
1794.054 -2043630 -2068165 -2085081 -2093787 -2092962 -2082971 -2065494 
1797.429 -2044454 -2024798 -2011441 -2008638 -2019621 -2045773 -2087291 
1800.804 -2142455 -2207535 -2276296 -2340598 -2391941 -2422947 -2430460 
1804.180 -2416357 -2388019 -2355494 -2329887 -2319506 -2326559 -2347288 
1807.555 -2373619 -2395433 -2403836 -2394939 -2369500 -2333249 -2294787 
1810.930 -2263936 -2249960 -2259222 -2294688 -2355230 -2436588 -2530745 
1814.305 -2628208 -2718702 -2792321 -2842260 -2865171 -2861319 -2832549 
1817.681 -2781950 -2712281 -2626594 -2531042 -2435204 -2351572 -2293732 
1821.056 -2271484 -2287865 -2337467 -2408680 -2485679 -2551926 -2595734 
1824.431 -2611082 -2599555 -2568001 -2525672 -2480276 -2437247 -2400805 
1827.806 -2374377 -2361459 -2364655 -2382714 -2410789 -2441168 -2468185 
1831.182 -2491411 -2514571 -2542406 -2577421 -2617208 -2655938 -2685543 
1834.557 -2701217 -2703489 -2699472 -2699274 -2711425 -2737503 -2771152 
1837.932 -2799531 -2810592 -2797983 -2764205 -2717681 -2667892 -2621918 
1841.307 -2580715 -2541319 -2500735 -2460410 -2431448 -2431646 -2476026 
1844.682 -2565827 -2684917 -2807596 -2909046 -2976347 -3009879 -3020474 
1848.058 -3023337 -3033208 -3058049 -3097464 -3145000 -3193023 -3236405 
1851.433 -3273172 -3303393 -3325325 -3333249 -3319012 -3275902 -3203746 
1854.808 -3111083 -3015999 -2941069 -2905787 -2921881 -2987766 -3090686 
1858.183 -3210094 -3326246 -3424418 -3496176 -3538541 -3551292 -3535485 
1861.559 -3493349 -3428889 -3348342 -3259459 -3170295 -3086870 -3011162 
1864.934 -2940871 -2871589 -2801111 -2731873 -2673227 -2640624 -2649714 
1868.309 -2707704 -2806411 -2923264 -3032846 -3116183 -3168025 -3193583 
1871.684 -3204371 -3211870 -3224203 -3244035 -3269686 -3296191 -3317993 
1875.060 -3331704 -3335913 -3331540 -3320656 -3305234 -3286852 -3265543 
1878.435 -3240911 -3212593 -3181150 -3149276 -3120459 -3100589 -3095095 
1881.810 -3107761 -3138124 -3182696 -3232491 -3277414 -3307931 -3319176 
1885.185 -3311778 -3291325 -3263899 -3234497 -3203614 -3167927 -3123025 
1888.561 -3067558 -3007181 -2955154 -2927707 -2938238 -2990497 -3077264 
1891.936 -3181544 -3283564 -3363762 -3407126 -3406600 -3364288 -3291259 
1895.311 -3204009 -3121775 -3060089 -3028700 -3030938 -3064827 -3123617 
1898.686 -3196839 -3272054 -3336702 -3379379 -3393450 -3375795 -3327791 
1902.062 -3254592 -3164637 -3068874 -2978552 -2905491 -2858390 -2842162 
1905.437 -2856053 -2894136 -2945479 -2998296 -3043803 -3079830 -3112268 
1908.812 -3151381 -3208745 -3289516 -3388255 -3488879 -3571372 -3617837 
1912.187 -3619776 -3581066 -3518000 -3454990 -3415641 -3416298 -3459723 
1915.563 -3534498 -3615504 -3672446 -3678721 -3619480 -3501369 -3350512 
1918.938 -3203910 -3090061 -3026232 -3014584 -3048541 -3116577 -3208350 
1922.313 -3316184 -3435365 -3562795 -3692224 -3812484 -3908543 -3964823 
1925.688 -3969945 -3922959 -3835508 -3730037 -3631112 -3559541 -3523850 
1929.064 -3519709 -3532527 -3546921 -3553067 -3551950 -3551917 -3564372 
1932.439 -3593554 -3631736 -3659632 -3653094 -3594868 -3482732 -3333513 
1935.814 -3178156 -3054759 -2993788 -3005601 -3076441 -3171216 -3242522 
1939.189 -3245679 -3153815 -2964270 -2704708 -2427890 -2207271 -2110835 
1942.565 -2178985 -2410591 -2763744 -3171545 -3559147 -3869039 -4066232 
1945.940 -4143857 -4119110 -4026413 -3907197 -3795733 -3718408 -3685489 
1949.315 -3692783 -3722054 -3748203 -3742586 -3679181 -3544489 -3341733 
1952.690 -3094174 -2839825 -2623729 -2484361 -2440905 -2490028 -2606899 
1956.066 -2757093 -2906051 -3033998 -3138486 -3230847 -3324963 -3429514 
1959.441 -3543931 -3660749 -3774810 -3892420 -4029959 -4207554 -4435163 
1962.816 -4699003 -4959342 -5162131 -5255503 -5211995 -5043489 -4798078 
1966.191 -4547610 -4356999 -4267044 -4277379 -4352374 -4436540 -4483634 
1969.567 -4467139 -4384685 -4248866 -4081102 -3901057 -3725076 -3563452 
1972.942 -3422643 -3303294 -3199437 -3095621 -2969305 -2797062 -2566848 
1976.317 -2288558 -1996534 -1741309 -1572573 -1523775 -1598159 -1774640 
1979.692 -2018664 -2304246 -2622017 -2981481 -3396474 -3866510 -4362379 
1983.068 -4823867 -5172936 -5345876 -5310167 -5079383 -4705886 -4270521 
1986.443 -3856034 -3523718 -3302735 -3185721 -3141052 -3132170 -3135262 
1989.818 -3143947 -3169834 -3232064 -3347223 -3519183 -3737494 -3976347 
1993.193 -4203879 -4389375 -4504163 -4529314 -4457956 -4297621 -4071254 
1996.568 -3818035 -3588165 -3430500 -3384409 -3465377 -3660289 -3930741 
1999.944 -4226226 -4499014 -4714244 -4859878 -4945157 -4995571 -5039493 
2003.319 -5099654 -5183249 -5281821 -5372974 -5430995 -5434005 -5370880 
2006.694 -5245551 -5070147 -4862794 -4636754 -4401478 -4162071 -3922138 
2010.069 -3688577 -3471688 -3282380 -3132729 -3027647 -2962723 -2921849 
2013.445 -2881365 -2812172 -2690153 -2504523 -2264760 -2004845 -1775828 
2016.820 -1638630 -1643911 -1811036 -2120660 -2516613 -2928332 -3279848 
2020.195 -3521615 -3636731 -3646424 -3599600 -3555663 -3563879 -3641594 
2023.570 -3772971 -3914388 -4015054 -4030943 -3943579 -3762591 -3518361 
2026.946 -3248573 -2985495 -2753867 -2570208 -2446868 -2396060 -2426605 
2030.321 -2539014 -2718010 -2934092 -3142039 -3297638 -3374348 -3372540 
2033.696 -3321642 -3270476 -3267055 -3336702 -3474975 -3649972 -3817345 
2037.071 -3935732 -3982421 -3956615 -3870812 -3740122 -3569860 -3354917 
2040.447 -3084403 -2752616 -2371345 -1972786 -1606081 -1328760 -1184845 
2043.822 -1198790 -1363278 -1645100 -1992213 -2351836 -2683567 -2961835 
2047.197 -3181544 -3350314 -3483390 -3594014 -3690384 -3771065 -3828282 
2050.572 -3851567 -3831632 -3766598 -3663214 -3535123 -3401176 -3280637 
2053.948 -3186840 -3126249 -3097266 -3094634 -3110985 -3140855 -3182169 
2057.323 -3231011 -3279552 -3313323 -3309805 -3245910 -3104405 -2882484 
2060.698 -2596360 -2281010 -1984693 -1753553 -1627439 -1625789 -1744775 
2064.073 -1959328 -2232555 -2526661 -2811316 -3070486 -3301288 -3507187 
2067.448 -3691961 -3851830 -3974935 -4044993 -4046372 -3974016 -3837774 
2070.824 -3663673 -3484014 -3328252 -3212429 -3133486 -3072427 -3002047 
2074.199 -2903022 -2772074 -2627089 -2499746 -2425715 -2428812 -2510189 
2077.574 -2646585 -2798247 -2921125 -2980395 -2963480 -2879357 -2754624 
2080.949 -2619777 -2502283 -2418664 -2372894 -2360800 -2374542 -2408416 
2084.325 -2459125 -2525079 -2603968 -2690811 -2778691 -2859805 -2929254 
2087.700 -2986746 -3035577 -3082100 -3130624 -3182893 -3235977 -3283498 
2091.075 -3317335 -3330257 -3318190 -3280275 -3220158 -3145592 -3068183 
2094.450 -3001192 -2956964 -2945709 -2971707 -3032747 -3120821 -3225190 
2097.826 -3334269 -3439934 -3538442 -3629075 -3712199 -3786602 -3848743 
2101.201 -3891599 -3907821 -3892158 -3842996 -3763313 -3659205 -3538278 
2104.576 -3408342 -3275540 -3144440 -3018237 -2899402 -2789292 -2688375 
2107.951 -2596294 -2511474 -2432832 -2360174 -2295380 -2242873 -2208754 
2111.327 -2200315 -2223226 -2281010 -2372696 -2493059 -2633181 -2780601 
2114.702 -2922671 -3047093 -3146151 -3217691 -3267055 -3305464 -3345974 
2118.077 -3399729 -3469979 -3548959 -3618494 -3655887 -3638045 -3551588 
2121.452 -3396178 -3186018 -2945479 -2703423 -2488776 -2322736 -2218545 
2124.828 -2181161 -2208622 -2294161 -2427264 -2596096 -2786296 -2984047 
2128.203 -3177893 -3360014 -3527301 -3678918 -3812057 -3918887 -3984063 
2131.578 -3986820 -3908839 -3741699 -3493415 -3191543 -2880970 -2613651 
2134.953 -2435797 -2380835 -2459487 -2661767 -2959333 -3315691 -3690581 
2138.329 -4043254 -4339252 -4550692 -4662061 -4675173 -4611413 -4507606 
2141.704 -4405775 -4344140 -4342730 -4395705 -4471369 -4525444 -4513181 
2145.079 -4408399 -4213363 -3961802 -3707862 -3507647 -3404397 -3412616 
2148.454 -3518328 -3685390 -3876066 -4064952 -4248571 -4446018 -4689465 
2151.830 -5008836 -5412114 -5877326 -6347331 -6745780 -6983180 -6988299 
2155.205 -6722486 -6194094 -5455340 -4594332 -3723434 -2948934 -2360997 
2158.580 -2007978 -1895564 -1987002 -2230709 -2580451 -3004252 -3482897 
2161.955 -4000379 -4526002 -5013291 -5399253 -5618486 -5626205 -5413193 
2165.331 -5018597 -4519476 -4019815 -3612120 -3348111 -3226736 -3197299 
2168.706 -3180689 -3095654 -2894893 -2576334 -2186930 -1798233 -1485803 
2172.081 -1302069 -1259584 -1334541 -1475798 -1626581 -1735996 -1776289 
2175.456 -1743421 -1655101 -1541407 -1442444 -1403012 -1462225 -1650876 
2178.832 -1979745 -2432865 -2963118 -3500481 -3966300 -4288501 -4428898 
2182.207 -4387177 -4202370 -3931266 -3633478 -3353536 -3113419 -2917767 
2185.582 -2762921 -2646420 -2572842 -2550279 -2584041 -2669473 -2788469 
2188.957 -2912172 -3008596 -3055121 -3043803 -2984311 -2897625 -2810889 
2192.333 -2747776 -2721501 -2736680 -2788436 -2866915 -2961341 -3064366 
2195.708 -3170295 -3277743 -3386414 -3496274 -3604628 -3706187 -3789065 
2199.083 -3838299 -3838496 -3778456 -3656347 -3483291 -3283564 -3088022 
2202.458 -2930274 -2838738 -2830081 -2907598 -3060714 -3266102 -3491673 
2205.833 -3701817 -3864014 -3952970 -3957830 -3884408 -3755857 -3604233 
2209.209 -3463010 -3355082 -3285866 -3242456 -3201871 -3143256 -3056536 
2212.584 -2950415 -2847198 -2775399 -2753439 -2782774 -2844992 -2910626 
2215.959 -2950843 -2949724 -2911382 -2857764 -2817802 -2814147 -2856382 
2219.334 -2935836 -3033372 -3125492 -3197036 -3243739 -3271298 -3289417 
2222.710 -3305958 -3324043 -3341305 -3353997 -3362940 -3374743 -3402228 
2226.085 -3458803 -3553330 -3686310 -3847922 -4019847 -4178906 -4303527 
2229.460 -4376714 -4388785 -4337874 -4231049 -4081036 -3904111 -3717783 
2232.835 -3536503 -3369811 -3224730 -3104208 -3011656 -2951369 -2927279 
2236.211 -2940772 -2986581 -3052127 -3115755 -3153749 -3148256 -3093220 
2239.586 -2999316 -2891536 -2804008 -2764600 -2790082 -2877152 -3006325 
2242.961 -3145690 -3263175 -3336176 -3355641 -3326871 -3265576 -3192958 
2246.336 -3129144 -3089403 -3084041 -3116479 -3184176 -3278467 -3386151 
2249.712 -3488846 -3567001 -3604266 -3589380 -3520432 -3403148 -3250481 
2253.087 -3076902 -2897098 -2722620 -2562368 -2424265 -2316144 -2246631 
2256.462 -2224578 -2255794 -2340301 -2470195 -2630382 -2801638 -2964171 
2259.837 -3103385 -3211409 -3286688 -3332822 -3354358 -3353997 -3331145 
2263.213 -3283301 -3208679 -3109866 -2995071 -2877349 -2771745 -2691174 
2266.588 -2641579 -2621655 -2624355 -2641184 -2665916 -2697101 -2737503 
2269.963 -2790840 -2857205 -2930570 -2998856 -3048014 -3067097 -3052752 
2273.338 -3011360 -2956141 -2901311 -2856283 -2821192 -2789127 -2749784 
2276.714 -2695916 -2628571 -2557921 -2499746 -2467460 -2467625 -2494903 
2280.089 -2535818 -2571788 -2587698 -2577092 -2543922 -2499285 -2456258 
2283.464 -2424792 -2408218 -2402847 -2400640 -2393555 -2376189 -2347552 
2286.839 -2310541 -2270100 -2231269 -2197744 -2171303 -2152346 -2140213 
2290.215 -2133487 -2132102 -2135300 -2144103 -2159731 -2183205 -2215051 
2293.590 -2253322 -2293633 -2329327 -2353484 -2360470 -2349167 -2322571 
2296.965 -2288195 -2253817 -2225567 -2205359 -2190689 -2176578 -2158742 
2300.340 -2136916 -2114758 -2098997 -2095699 -2106614 -2127321 -2148324 
2303.716 -2156434 -2140411 -2093886 -2017114 -1916050 -1801335 -1684840 
2307.091 -1577360 -1488313 -1424149 -1388645 -1382039 -1400502 -1436302 
2310.466 -1478274 -1516280 -1542595 -1555769 -1560226 -1564881 -1577921 
2313.841 -1602582 -1635098 -1664574 -1679295 -1669525 -1632919 -1575908 
2317.217 -1511195 -1451955 -1407569 -1379562 -1361429 -1341709 -1309403 
2320.592 -1259122 -1193239 -1121694 -1056782 -1010405 -988686 -991496 
2323.967 -1012191 -1042073 -1071953 -1095651 -1110590 -1118290 -1123545 
2327.342 -1132534 -1150512 -1179063 -1214584 -1246996 -1262326 -1246996 
2330.718 -1192776 -1101435 -986339 -870089 -776299 -725658 -728437 -782748 
2334.575 -875247 -986108 -1094627 -1182466 -1238472 -1257998 -1242008 
2337.950 -1194792 -1124338 -1040519 -954701 -880637 -829943 -810397 -822436 
2341.808 -858713 -904709 -944319 -965875 -965875 -951626 -937971 -941641 
2345.665 -974702 -1037875 -1122686 -1214683 -1299690 -1366912 -1411037 
2349.040 -1432141 -1433627 -1420516 -1397265 -1365921 -1324235 -1265333 
2352.416 -1179724 -1058170 -894790 -690395 -453533 -200149 50101 277055 
2356.273 462963 597088 675465 700853 679945 621940 535743 428634 306001 
2360.613 171403 28827 -115688 -253500 -373789 -465813 -524195 -550603 
2364.470 -555997 -556361 -569598 -607220 -671174 -752881 -836458 -906660 
2368.327 -954139 -981050 -999232 -1027132 -1080481 -1167960 -1287269 
2371.703 -1427121 -1570724 -1702234 -1812158 -1897279 -1960944 -2009594 
2375.078 -2050027 -2087291 -2123595 -2159731 -2195667 -2230610 -2263408 
2378.453 -2292249 -2314562 -2328141 -2331964 -2327514 -2318880 -2311464 
2381.828 -2310937 -2320626 -2340961 -2368972 -2400706 -2432470 -2463045 
2385.204 -2493619 -2527385 -2567177 -2613651 -2664270 -2714356 -2758279 
2388.579 -2792025 -2815530 -2831924 -2846803 -2865204 -2890153 -2920795 
2391.954 -2953212 -2981448 -3000731 -3008332 -3005042 -2994183 -2980395 
2395.329 -2968515 -2961473 -2960189 -2963809 -2969601 -2974603 -2975689 
2398.705 -2970687 -2959367 -2943010 -2924778 -2908947 -2899204 -2897625 
2402.080 -2903384 -2912896 -2920697 -2921881 -2913653 -2897295 -2877810 
2405.455 -2862340 -2858159 -2869581 -2896835 -2935770 -2979737 -3022152 
2408.830 -3058181 -3086739 -3109307 -3129045 -3148190 -3166874 -3183255 
2412.206 -3193319 -3193747 -3183057 -3162762 -3137138 -3111774 -3091805 
2415.581 -3080521 -3077888 -3081277 -3085850 -3086739 -3079468 -3061537 
2418.956 -3032813 -2995367 -2953476 -2913258 -2881727 -2865269 -2868363 
2422.331 -2891799 -2932314 -2982731 -3033471 -3075717 -3104010 -3117992 
2425.707 -3121117 -3120821 -3122926 -3130196 -3140756 -3148815 -3146875 
2429.082 -3129867 -3097365 -3054200 -3008727 -2969470 -2942813 -2930570 
2432.457 -2930932 -2939588 -2953476 -2970852 -2991978 -3017052 -3044066 
2435.832 -3068051 -3081902 -3078514 -3054661 -3013301 -2964829 -2922902 
2439.208 -2902002 -2912271 -2956075 -3027910 -3115459 -3204568 -3281262 
2442.583 -3335716 -3363696 -3365833 -3346698 -3313455 -3274718 -3239003 
2445.958 -3213580 -3203910 -3211673 -3234794 -3267779 -3302998 -3332131 
2449.333 -3348440 -3348670 -3332954 -3304741 -3269982 -3235977 -3209765 
2452.708 -3197497 -3203812 -3229762 -3273337 -3328416 -3386250 -3436253 
2456.084 -3468302 -3476783 -3460381 -3423235 -3373888 -3322925 -3279157 
2459.459 -3248606 -3233017 -3229860 -3234333 -3240648 -3245087 -3246107 
2462.834 -3244923 -3245317 -3251763 -3268667 -3297901 -3338806 -3388058 
2466.209 -3439836 -3487564 -3525559 -3549781 -3558522 -3551785 -3531311 
2469.585 -3499265 -3458836 -3413898 -3369778 -3332460 -3308424 -3301288 
2472.960 -3311219 -3333874 -3361493 -3385034 -3398217 -3400091 -3394929 
2476.335 -3391313 -3396803 -3416167 -3447330 -3483192 -3513398 -3530390 
2479.710 -3531311 -3519742 -3502815 -3488386 -3480924 -3479840 -3479840 
2483.086 -3474876 -3461038 -3439014 -3413274 -3390261 -3375269 -3369154 
2486.461 -3369483 -3370699 -3368529 -3360671 -3348111 -3333611 -3319571 
2489.836 -3306155 -3291325 -3271758 -3245679 -3214402 -3182136 -3154638 
2493.211 -3136841 -3130460 -3133157 -3139769 -3144703 -3144243 -3138388 
2496.587 -3129736 -3122959 -3122137 -3129440 -3144868 -3166874 -3192958 
2499.962 -3221342 -3249856 -3277053 -3300433 -3317664 -3327298 -3328942 
2503.337 -3324668 -3318288 -3314376 -3315987 -3323845 -3334795 -3343475 
2506.712 -3342949 -3327692 -3295271 -3247587 -3190195 -3131743 -3082166 
2510.088 -3049001 -3037025 -3045843 -3070650 -3103023 -3133914 -3157138 
2513.463 -3171380 -3181150 -3194931 -3222263 -3268601 -3332427 -3403674 
2516.838 -3467678 -3508041 -3512807 -3479248 -3414326 -3332723 -3251665 
2520.213 -3187202 -3148716 -3138289 -3151249 -3178946 -3211640 -3240253 
2523.589 -3258637 -3263570 -3255315 -3236602 -3212856 -3190458 -3174571 
2526.964 -3167631 -3168354 -3171380 -3169637 -3158289 -3135986 -3107399 
2530.339 -3080718 -3065024 -3066538 -3085653 -3116939 -3151940 -3182038 
2533.714 -3202068 -3211212 -3211574 -3205357 -3192201 -3169374 -3132697 
2537.090 -3080257 -3015637 -2948276 -2891404 -2858126 -2856481 -2886599 
2540.465 -2940410 -3004713 -3065847 -3112728 -3139374 -3144703 -3130460 
2543.840 -3099536 -3055121 -3001685 -2945248 -2894070 -2857699 -2843050 
2547.215 -2853189 -2884657 -2928201 -2971246 -3002574 -3015736 -3009978 
2550.591 -2990168 -2963842 -2937383 -2913653 -2891700 -2868265 -2839331 
2553.966 -2803251 -2761374 -2717681 -2678232 -2648792 -2633609 -2635157 
2557.341 -2652744 -2682909 -2719690 -2755974 -2783696 -2796667 -2791860 
2560.716 -2770526 -2737701 -2700756 -2666838 -2640361 -2622379 -2610621 
2564.092 -2601893 -2594153 -2587664 -2585293 -2590530 -2604857 -2625639 
2567.467 -2645959 -2657288 -2651295 -2624026 -2577256 -2518128 -2456851 
2570.842 -2402189 -2359251 -2327976 -2303686 -2280087 -2252136 -2219172 
2574.217 -2185183 -2157621 -2144697 -2152511 -2182117 -2228962 -2283746 
2577.593 -2335622 -2374113 -2392698 -2390491 -2371905 -2344586 -2316968 
2580.968 -2295974 -2283844 -2279065 -2276329 -2269539 -2253882 -2227907 
2584.343 -2193722 -2156434 -2121617 -2093160 -2071726 -2054413 -2035748 
2587.718 -2009363 -1970840 -1918557 -1855149 -1785958 -1718373 -1659788 
2591.094 -1615391 -1588189 -1578351 -1583699 -1600436 -1624469 -1651140 
2594.469 -1675830 -1693983 -1701046 -1693059 -1667644 -1625327 -1570031 
2597.844 -1508818 -1451229 -1406579 -1381345 -1377118 -1389669 -1410344 
2601.219 -1428145 -1432966 -1419327 -1386861 -1340223 -1287566 -1237085 
2604.594 -1194957 -1163730 -1142911 -1129692 -1120604 -1113135 -1105203 
2607.970 -1096444 -1086728 -1076812 -1067921 -1062236 -1062368 -1070466 
2611.345 -1087653 -1112242 -1139441 -1162904 -1175428 -1172619 -1153915 
2614.720 -1123644 -1088677 -1057608 -1036487 -1027694 -1028983 -1035495 
2618.095 -1042370 -1046139 -1046965 -1047692 -1052221 -1062963 -1079291 
2621.471 -1096808 -1109334 -1110590 -1097006 -1068912 -1031165 -991067 
2624.846 -955891 -930962 -916745 -910496 -906197 -898261 -882787 -860003 
2628.703 -833349 -808645 -791910 -785824 -789528 -798458 -806131 -805172 
2632.561 -792009 -766111 -731381 -694067 -660587 -635774 -621117 -615128 
2636.418 -614400 -614929 -614135 -610992 -606393 -602455 -601363 -604573 
2640.276 -612812 -625385 -640770 -656816 -670611 -679610 -681363 -675045 
2644.133 -661348 -643053 -624591 -610727 -605632 -610628 -624392 -643053 
2647.990 -660256 -669983 -667601 -650761 -619628 -577142 -527802 -476669 
2651.848 -428807 -388852 -359918 -343894 -340583 -348529 -364321 -384383 
2655.705 -404941 -423346 -437678 -447377 -452242 -452242 -446715 -435229 
2659.563 -417189 -393089 -364122 -332339 -300057 -269494 -242109 -218993 
2663.420 -201242 -189915 -186338 -191472 -205117 -225153 -247805 -267673 
2667.278 -279826 -281183 -271547 -253699 -232240 -212304 -197169 -188061 
2671.135 -183788 -182397 -181801 -181470 -182298 -185809 -193260 -204090 
2674.992 -216212 -226246 -230882 -228034 -217536 -201143 -181801 -161962 
2678.850 -143645 -127282 -112641 -98926 -85841 -72988 -60763 -49400 -38466 
2683.189 -27632 -16500 -5235 5301 12955 15440 10569 -2683 -24319 -52746 
2688.011 -85775 -120193 -153648 -183556 -208628 -228366 -242738 -252672 
2691.869 -259560 -265355 -272342 -282640 -298368 -320519 -349059 -382628 
2695.726 -418314 -452209 -479284 -495435 -497653 -485440 -460782 -428410 
2699.583 -394381 -364321 -342603 -330585 -327439 -329922 -334690 -339325 
2703.441 -342967 -346178 -350350 -356111 -362401 -366241 -363791 -351840 
2707.298 -328532 -294892 -254428 -212006 -172163 -137683 -109229 -85146 
2711.156 -63049 -40686 -16500 9343 36250 63853 92486 123740 160033 202595 
2715.978 251593 304409 356005 400675 432879 449695 451321 441802 427739 
2720.317 416097 412980 421437 441238 469265 500877 531331 557539 578043 
2724.657 593405 604918 614076 621409 626751 628974 627050 619883 607108 
2728.996 588660 564407 534449 499020 458518 414074 367711 321353 277586 
2733.336 237768 202595 171800 144090 118801 94972 72437 51294 31180 11166 
2738.158 -10006 -33696 -61293 -92765 -127149 -162624 -196937 -227836 -253136 
2742.497 -271084 -280157 -279495 -269428 -251679 -230783 -212469 -202997 
2746.355 -207402 -226975 -259097 -296547 -331048 -354786 -363295 -357336 
2750.212 -342073 -325055 -312705 -308500 -311646 -317871 -321215 -316943 
2754.070 -303269 -282011 -256348 -230949 -208528 -190313 -175873 -163816 
2757.927 -153383 -144837 -139140 -137318 -139206 -143380 -147156 -147156 
2761.784 -140498 -125592 -101974 -70503 -32967 8482 51228 92619 129639 
2766.124 160232 182739 197954 208496 218739 233624 257096 290914 333887 
2770.464 382435 431387 476331 514379 545098 570578 594831 621575 654459 
2774.803 695410 744729 801589 863369 927981 992835 1056072 1116958 1175661 
2779.143 1233275 1291229 1350819 1412412 1475011 1536988 1596279 1651554 
2783.000 1702778 1752045 1803381 1861078 1929300 2010115 2103397 2205991 
2786.858 2312740 2418115 2517284 2607475 2688683 2763604 2836604 2912451 
2790.715 2994817 3085174 3182460 3283205 3383073 3478220 3566473 3648162 
2794.573 3726591 3806270 3892350 3988913 4098108 4219642 4351351 4489862 
2798.430 4631733 4774120 4915112 5054038 5191466 5328333 5466049 5606058 
2802.287 5749436 5896623 6047152 6200221 6354554 6509110 6664057 6820575 
2806.145 6980920 7147657 7323455 7509404 7704910 7907691 8114314 8321002 
2810.002 8524510 8723888 8919535 9114020 9310994 9514933 9730014 9959474 
2813.860 10205881 10469805 10750500 11045479 11351475 11664085 11979066 
2817.235 12293526 12605894 12917019 13229427 13547597 13876161 14219044 
2820.610 14579159 14957201 15353146 15765980 16195713 16643740 17113186 
2823.985 17608570 18134918 18696046 19294304 19930018 20602206 21309956 
2827.361 22053930 22837000 23665362 24547364 25492650 26510782 27610428 
2830.736 28798186 30079280 31457912 32937438 34522244 36217756 38031324 
2834.111 39973860 42058048 44300568 46719036 49329704 52146292 55176296 
2837.486 58420172 61870524 65515616 69340592 73330216 77472296 81756248 
2840.862 86172488 90712208 95364576 100117352 104958672 109876328 114860832 
2844.237 119904048 124997144 130129488 135284656 140437520 145555840 
2847.130 150595408 155501536 160212896 164655616 168750880 172419712 
2850.023 175579904 178159392 180097008 181345872 181879344 181691216 
2852.916 180798336 179237488 177067904 174365056 171211472 167698128 
2855.809 163911808 159930368 155826064 151657424 147473632 143318480 
2858.702 139226544 135231088 131364208 127655328 124137056 120840240 
2861.595 117792352 115017424 112530944 110338464 108436032 106811648 
2864.488 105446896 104320264 103411112 102698416 102161112 101777736 
2867.381 101521608 101360024 101255168 101161472 101031000 100817392 
2870.274 100475624 99971096 99279464 98389064 97303080 96038224 94623336 
2873.650 93094464 91494616 89867424 88253408 86692624 85218664 83861160 
2877.025 82645904 81592008 80713736 80020040 79513640 79192840 79053264 
2880.400 79089280 79295520 79668264 80205008 80903944 81762688 82776776 
2883.775 83939064 85239912 86666696 88204656 89839792 91557112 93343488 
2887.151 95188888 97085576 99029456 101019168 103054792 105135920 107259512 
2890.526 109418304 111601632 113794968 115982552 118151072 120290000 
2893.419 122393912 124461736 126496520 128503888 130490184 132462624 
2896.312 134427184 136388976 138351584 140316752 142285856 144260432 
2899.205 146243312 148239200 150254064 152294336 154365136 156468816 
2902.098 158605136 160772144 162968528 165195376 167456688 169758784 
2904.991 172108656 174512416 176973568 179494448 182077632 184727840 
2907.884 187452848 190262480 193166368 196171872 199281840 202495632 
2910.777 205809712 209220272 212723616 216314992 219987344 223726736 
2913.670 227512592 231319408 235116400 238874784 242566256 246162464 
2916.563 249633264 252940512 256035120 258862224 261359008 263463712 
2919.457 265121616 266283216 266908432 266965024 266427360 265280688 
2922.350 263523216 261170000 258251872 254815840 250919872 246624624 
2925.243 241995440 237096704 231988928 226731904 221378112 215971024 
2928.136 210545888 205126304 199729008 194367712 189055136 183806608 
2931.029 178638944 173566016 168599616 163745936 159007152 154384672 
2933.922 149881280 145502528 141257600 137155216 133202832 129404856 
2936.815 125762032 122275304 118948040 115786680 112803488 110012896 
2939.708 107428528 105062392 102920888 101006664 99319192 97856728 96618112 
2943.083 95603144 94811784 94243888 93897792 93769472 93852552 94137816 
2946.458 94614024 95265616 96073976 97016176 98063736 99187272 100353416 
2949.834 101527768 102678312 103770896 104772640 105652992 106382712 
2952.727 106938112 107302688 107467224 107430312 107195216 106768096 
2955.620 106154616 105360736 104392480 103257696 101968024 100537304 
2958.513 98979936 97309496 95536008 93665952 91703560 89651864 87516208 
2961.888 85302816 83019040 80672320 78268800 75814056 73314216 70777472 
2965.263 68214784 65640428 63069588 60517004 57996532 55519400 53096192 
2968.639 50738640 48458380 46268644 44180928 42201892 40332644 38566992 
2972.014 36893900 35299352 33771304 32301612 30887888 29532552 28240196 
2975.389 27015528 25861748 24779460 23768278 22826838 21954346 21149418 
2978.764 20409282 19726990 19091608 18488132 17899164 17310720 16713120 
2982.140 16105028 15492568 14888513 14307624 13762325 13260854 12804050 
2985.515 12386589 11997800 11626340 11262000 10898542 10534980 10174979 
2988.890 9825376 9492953 9182510 8895185 8627855 8374606 8128966 7886569 
2992.748 7646363 7410471 7183027 6966947 6761845 6562659 6360640 6147388 
2996.605 5916574 5668123 5408374 5148915 4902579 4679391 4484372 4316144 
3000.462 4168555 4033892 3906258 3782939 3664435 3552376 3447159 3346008 
3004.320 3243545 3132396 3007429 2867588 2717623 2565877 2423046 2298316 
3008.177 2195701 2113719 2045568 1981622 1911961 1829134 1730056 1616067 
3012.035 1491835 1363948 1239522 1123935 1020733 930571 852214 782203 715887 
3016.374 649515 580034 506517 429961 352888 277984 206971 139980 76115 13055 
3021.196 -50625 -115059 -178588 -237969 -290223 -333432 -367830 -395837 
3025.053 -421326 -448006 -478589 -512976 -549941 -586341 -619562 -648379 
3028.911 -672861 -695158 -717884 -744248 -777059 -818037 -868171 -927028 
3032.768 -993249 -1063756 -1134847 -1202028 -1261467 -1311054 -1351123 
3036.144 -1384912 -1417114 -1453144 -1496568 -1547845 -1604134 -1659986 
3039.519 -1708901 -1745765 -1768073 -1777015 -1776784 -1772528 -1770251 
3042.894 -1774112 -1786849 -1808957 -1839906 -1878013 -1921295 -1967739 
3046.269 -2015003 -2060943 -2104174 -2144433 -2182018 -2218611 -2255465 
3049.645 -2293963 -2333381 -2372136 -2407526 -2436522 -2457312 -2469173 
3053.020 -2473423 -2473028 -2471315 -2472106 -2478596 -2492433 -2514571 
3056.395 -2544581 -2580847 -2620963 -2661866 -2700361 -2732860 -2757390 
3059.770 -2772074 -2776387 -2771152 -2757851 -2739544 -2719525 -2702139 
3063.146 -2691799 -2692623 -2707243 -2736417 -2777736 -2826032 -2875045 
3066.521 -2917636 -2948737 -2966376 -2972234 -2970884 -2968318 -2970292 
3069.896 -2980296 -2999547 -3026002 -3056799 -3088515 -3118584 -3146973 
3073.271 -3174505 -3203450 -3235451 -3271396 -3310232 -3349131 -3384409 
3076.646 -3411992 -3428790 -3433623 -3427311 -3412781 -3394831 -3378261 
3080.022 -3368036 -3367839 -3379116 -3402096 -3434740 -3473825 -3515042 
3083.397 -3554217 -3587442 -3611758 -3626085 -3631375 -3630356 -3627333 
3086.772 -3627136 -3633938 -3650268 -3676093 -3708749 -3743637 -3774744 
3090.147 -3796554 -3804569 -3796259 -3771460 -3732468 -3684109 -3632985 
3093.523 -3587376 -3555138 -3542518 -3552377 -3582972 -3628451 -3679115 
3096.898 -3725372 -3758944 -3775993 -3777569 -3769062 -3757401 -3749057 
3100.273 -3747710 -3753557 -3764069 -3775894 -3786569 -3795996 -3806047 
3103.648 -3819250 -3837051 -3859022 -3881813 -3900695 -3911039 -3910579 
3107.024 -3899645 -3881189 -3859646 -3839252 -3822732 -3811039 -3803485 
3110.399 -3798887 -3796160 -3795175 -3796259 -3799445 -3803551 -3807492 
3113.774 -3809036 -3806736 -3800463 -3791496 -3782463 -3776288 -3775106 
3117.149 -3779836 -3789788 -3802926 -3817444 -3831304 -3843685 -3854392 
3120.525 -3863686 -3871896 -3879810 -3887790 -3897247 -3909299 -3925060 
3123.900 -3945221 -3969025 -3994634 -4019453 -4040332 -4054743 -4061801 
3127.275 -4061505 -4055104 -4043615 -4027759 -4006781 -3979696 -3946305 
3130.650 -3907165 -3865229 -3826016 -3795142 -3778850 -3781182 -3803452 
3134.026 -3843685 -3897642 -3959438 -4022277 -4080905 -4130499 -4168635 
3137.401 -4194330 -4209031 -4215496 -4217662 -4219335 -4223863 -4232460 
3140.776 -4244666 -4257955 -4269045 -4274327 -4271276 -4259235 -4238826 
3144.151 -4211985 -4181204 -4149272 -4118487 -4091408 -4070598 -4058518 
3147.527 -4057468 -4068234 -4089767 -4118093 -4147270 -4169258 -4176741 
3150.902 -4164171 -4130138 -4078180 -4015809 -3954053 -3903979 -3873965 
3154.277 -3868218 -3885032 -3917705 -3956089 -3990301 -4012690 -4020372 
3157.652 -4014890 -4002612 -3990925 -3985507 -3989283 -4000675 -4015087 
3161.028 -4026380 -4030123 -4024640 -4012724 -3999788 -3992861 -3997753 
3164.403 -4016926 -4049294 -4089767 -4131320 -4166075 -4188292 -4194527 
3167.778 -4185043 -4162957 -4133321 -4102043 -4073913 -4052281 -4038330 
3171.153 -4031337 -4029860 -4031666 -4036064 -4042466 -4051296 -4062752 
3174.529 -4076474 -4091507 -4105916 -4117732 -4125970 -4130597 -4132435 
3177.904 -4132961 -4133256 -4133453 -4133453 -4132632 -4131812 -4132370 
3181.279 -4137293 -4149042 -4169324 -4197218 -4229605 -4261662 -4288468 
3184.654 -4306414 -4314090 -4312614 -4304249 -4291880 -4277608 -4262679 
3188.030 -4248177 -4235184 -4225602 -4221304 -4223043 -4230262 -4239974 
3191.405 -4247357 -4247849 -4238334 -4218744 -4192853 -4166272 -4145367 
3194.780 -4135324 -4138638 -4154589 -4180679 -4213101 -4248177 -4282989 
3198.155 -4315567 -4344960 -4370875 -4394262 -4416435 -4439820 -4466155 
3201.531 -4496785 -4530494 -4564070 -4592332 -4609774 -4612167 -4598168 
3204.906 -4569447 -4530658 -4486651 -4442313 -4400265 -4361592 -4327016 
3208.281 -4297523 -4276099 -4266781 -4274196 -4300508 -4345420 -4405054 
3211.656 -4472419 -4539150 -4598233 -4644491 -4675730 -4692578 -4697495 
3215.031 -4693660 -4683892 -4670813 -4656324 -4641737 -4629181 -4620002 
3218.407 -4615904 -4617970 -4625641 -4637639 -4651309 -4663405 -4670715 
3221.782 -4671240 -4664815 -4652883 -4638557 -4625936 -4618625 -4619445 
3225.157 -4628919 -4646589 -4670617 -4698839 -4728731 -4758392 -4785691 
3228.532 -4808433 -4824687 -4833141 -4833861 -4828586 -4820918 -4815479 
3231.908 -4815839 -4823638 -4837302 -4853030 -4865513 -4870887 -4867512 
3235.283 -4857158 -4843790 -4831961 -4825407 -4825374 -4831043 -4840939 
3238.658 -4853063 -4865906 -4879176 -4890905 -4898572 -4898179 -4885368 
3242.033 -4857355 -4815577 -4765569 -4716047 -4677074 -4656161 -4656030 
3245.409 -4673895 -4702740 -4735384 -4765602 -4791098 -4812759 -4832681 
3248.784 -4852800 -4872328 -4888939 -4899391 -4901652 -4896017 -4885565 
3252.159 -4874819 -4867709 -4866136 -4869871 -4876522 -4883632 -4889562 
3255.534 -4894018 -4898113 -4902274 -4906140 -4907188 -4902733 -4890709 
3258.910 -4870920 -4846608 -4822131 -4803190 -4793687 -4795096 -4806467 
3262.285 -4824687 -4846477 -4869609 -4893133 -4917312 -4942078 -4966516 
3265.660 -4988266 -5003825 -5010113 -5005135 -4989478 -4965468 -4937885 
3269.035 -4911644 -4890742 -4878259 -4874917 -4880028 -4892019 -4908859 
3272.411 -4928876 -4950235 -4971659 -4991116 -5007133 -5017680 -5021839 
3275.786 -5019678 -5012668 -5003301 -4994686 -4989675 -4989282 -4992753 
3279.161 -4997863 -5001597 -5001368 -4996586 -4988626 -4980569 -4976343 
3282.536 -4978177 -4986923 -5000647 -5016402 -5030846 -5041720 -5049318 
3285.912 -5055181 -5062058 -5071555 -5084197 -5098377 -5111312 -5120317 
3289.287 -5123853 -5122020 -5116715 -5110297 -5105384 -5103747 -5105352 
3292.662 -5109314 -5113899 -5117304 -5117926 -5114029 -5104991 -5090190 
3296.037 -5070606 -5047812 -5025704 -5007919 -4998748 -5001237 -5016140 
3299.413 -5042244 -5075551 -5111475 -5144679 -5171135 -5188226 -5195298 
3302.788 -5193039 -5184068 -5171200 -5157482 -5145858 -5138130 -5134921 
3306.163 -5135379 -5137573 -5138785 -5136689 -5129486 -5117271 -5101717 
3309.538 -5085834 -5072538 -5064711 -5063368 -5068444 -5077975 -5089895 
3312.914 -5101553 -5111017 -5117500 -5121201 -5122642 -5123035 -5123722 
3316.289 -5124770 -5126538 -5128765 -5131908 -5136132 -5143041 -5154044 
3319.664 -5170578 -5192973 -5220049 -5248824 -5275700 -5296911 -5309873 
3323.039 -5313899 -5310069 -5300446 -5287157 -5271183 -5252524 -5229968 
3326.415 -5202632 -5170971 -5136951 -5103649 -5074896 -5052986 -5038445 
3329.790 -5029700 -5023477 -5015976 -5004840 -4988626 -4967793 -4944044 
3333.165 -4920063 -4898932 -4883828 -4878717 -4886908 -4910858 -4950825 
3336.540 -5004185 -5064875 -5124639 -5175293 -5209801 -5225810 -5224632 
3339.916 -5211864 -5194578 -5180205 -5173885 -5177782 -5191336 -5211700 
3343.291 -5235730 -5259431 -5279628 -5293507 -5298908 -5294980 -5282148 
3346.666 -5262704 -5240280 -5219427 -5203810 -5195494 -5193890 -5196509 
3350.041 -5200078 -5201486 -5199161 -5193792 -5187702 -5183413 -5183119 
3353.417 -5187047 -5194218 -5202763 -5210064 -5214614 -5216218 -5215269 
3356.792 -5213795 -5213959 -5217692 -5226793 -5241786 -5261526 -5283621 
3360.167 -5303556 -5316452 -5318056 -5306174 -5281985 -5250691 -5219852 
3363.542 -5197393 -5189961 -5200209 -5226040 -5261330 -5298253 -5329446 
3366.917 -5349934 -5358804 -5358902 -5355727 -5354975 -5361160 -5376476 
3370.293 -5400268 -5429064 -5458710 -5484427 -5502880 -5511713 -5510535 
3373.668 -5500459 -5483249 -5461066 -5435871 -5409201 -5382171 -5355793 
3377.043 -5331082 -5309153 -5291183 -5277926 -5269742 -5266338 -5267418 
3380.418 -5272918 -5282640 -5297107 -5316615 -5340738 -5367542 -5393984 
3383.794 -5416368 -5431159 -5436328 -5431976 -5420786 -5405929 -5391105 
3387.169 -5379094 -5370651 -5366069 -5365283 -5369243 -5380109 -5400464 
3390.544 -5432173 -5475070 -5526501 -5580281 -5629116 -5666433 -5687625 
3393.919 -5691582 -5679777 -5655640 -5622542 -5583683 -5541484 -5498365 
3397.295 -5457794 -5424352 -5403344 -5398926 -5413750 -5446472 -5492509 
3400.670 -5543512 -5591108 -5626303 -5643899 -5642166 -5623555 -5593300 
3404.045 -5558200 -5525486 -5500132 -5485703 -5482726 -5490185 -5505693 
3407.420 -5525879 -5547896 -5569224 -5587314 -5601117 -5609589 -5611911 
3410.796 -5608117 -5598730 -5584206 -5566313 -5546587 -5526501 -5507362 
3414.171 -5489596 -5473237 -5457794 -5442808 -5428344 -5414993 -5404096 
3417.546 -5396733 -5394639 -5399646 -5412441 -5434234 -5464697 -5502226 
3420.921 -5543774 -5585024 -5620219 -5644063 -5652370 -5643638 -5619107 
3424.297 -5582767 -5540666 -5498725 -5462702 -5436165 -5420426 -5414241 
3427.672 -5415190 -5419837 -5424418 -5425890 -5422192 -5412735 -5398566 
3431.047 -5382989 -5370651 -5366527 -5375331 -5399449 -5438914 -5491265 
3434.422 -5551429 -5614168 -5673791 -5726279 -5768067 -5797330 -5812663 
3437.798 -5813742 -5801417 -5778007 -5747893 -5716338 -5688966 -5670456 
3441.173 -5663065 -5665648 -5674707 -5686219 -5695604 -5700608 -5701327 
3444.548 -5699202 -5696488 -5695049 -5695408 -5697142 -5698940 -5699693 
3447.923 -5698875 -5696259 -5691942 -5686153 -5678893 -5670227 -5660874 
3451.299 -5652730 -5647890 -5648740 -5657341 -5674413 -5699235 -5730104 
3454.674 -5764176 -5798605 -5830285 -5856634 -5875038 -5883930 -5882851 
3458.049 -5873077 -5857713 -5840746 -5826721 -5818744 -5817665 -5822013 
3461.424 -5827996 -5832377 -5832475 -5828127 -5820967 -5813840 -5808315 
3464.800 -5804751 -5801351 -5795956 -5786442 -5772808 -5757375 -5743805 
3468.175 -5735957 -5735761 -5743119 -5755642 -5769833 -5782454 -5791771 
3471.550 -5797395 -5800763 -5802986 -5805667 -5809230 -5813579 -5818025 
3474.925 -5821850 -5824858 -5826296 -5826035 -5824367 -5821817 -5820215 
3478.301 -5821556 -5828552 -5841988 -5861505 -5883962 -5904849 -5918839 
3481.676 -5923088 -5917368 -5905274 -5891153 -5880039 -5874417 -5874058 
3485.051 -5876411 -5878045 -5877130 -5873763 -5870331 -5870886 -5879026 
3488.426 -5896677 -5923447 -5956883 -5994009 -6031851 -6067859 -6100401 
3491.802 -6127976 -6148851 -6161330 -6164172 -6157639 -6143134 -6124153 
3495.177 -6104649 -6088640 -6079426 -6078838 -6087660 -6105662 -6132288 
3498.552 -6165871 -6203796 -6242109 -6275520 -6298642 -6307231 -6299915 
3501.927 -6278851 -6249817 -6219964 -6195662 -6179885 -6172633 -6171359 
3505.302 -6172535 -6174430 -6177239 -6182204 -6190730 -6203796 -6219181 
3508.678 -6233879 -6243285 -6243644 -6233650 -6213791 -6187104 -6156790 
3512.053 -6125754 -6096677 -6072172 -6054626 -6046555 -6050182 -6066977 
3515.428 -6096808 -6137581 -6185830 -6237504 -6288453 -6335085 -6374661 
3518.803 -6405091 -6424157 -6429773 -6420729 -6396765 -6360131 -6315950 
3522.179 -6271405 -6235054 -6214052 -6211537 -6225484 -6250830 -6280419 
3525.554 -6307525 -6328588 -6343412 -6354384 -6365453 -6380375 -6400487 
3528.929 -6424973 -6450568 -6473485 -6490884 -6501754 -6507498 -6510926 
3532.304 -6515267 -6523427 -6535504 -6549571 -6561875 -6567064 -6561092 
3535.680 -6542488 -6513178 -6478642 -6445214 -6418640 -6401826 -6393859 
3539.055 -6390790 -6388146 -6381354 -6368294 -6349715 -6329012 -6311084 
3542.430 -6301418 -6304096 -6321926 -6355037 -6401369 -6456510 -6514483 
3545.805 -6568207 -6610730 -6637587 -6646985 -6640752 -6623718 -6602670 
3549.181 -6583350 -6570296 -6564943 -6565857 -6567881 -6565270 -6552574 
3552.556 -6527964 -6493919 -6456249 -6422459 -6398789 -6388864 -6392847 
3555.931 -6408094 -6429870 -6452919 -6472571 -6484388 -6486705 -6478447 
3559.306 -6459546 -6431503 -6396471 -6357780 -6319411 -6285383 -6259713 
3562.682 -6244820 -6241848 -6250438 -6269217 -6296356 -6330743 -6371494 
3566.057 -6417889 -6468033 -6517845 -6561549 -6592912 -6608512 -6608022 
3569.432 -6594315 -6572058 -6546666 -6522448 -6502668 -6488240 -6477565 
3572.807 -6467707 -6455791 -6440285 -6422264 -6405221 -6394349 -6394022 
3576.183 -6406723 -6431601 -6465618 -6503255 -6538964 -6567717 -6586842 
3579.558 -6595327 -6593989 -6585472 -6573396 -6561158 -6552574 -6549734 
3582.933 -6553651 -6563181 -6575778 -6587560 -6594544 -6593728 -6584166 
3586.308 -6567489 -6547286 -6527637 -6510861 -6495682 -6479295 -6459154 
3589.684 -6435029 -6409041 -6384684 -6366106 -6356409 -6356800 -6366922 
3593.059 -6383999 -6404829 -6425985 -6445280 -6461406 -6473550 -6480764 
3596.434 -6481940 -6476684 -6465585 -6452005 -6441297 -6439730 -6452462 
3599.809 -6481385 -6523623 -6571209 -6613113 -6639512 -6643102 -6621271 
3603.185 -6576040 -6513308 -6440285 -6366204 -6300700 -6253279 -6231853 
3606.560 -6241031 -6279211 -6336653 -6397320 -6444202 -6464867 -6456804 
3609.935 -6427063 -6387950 -6352065 -6329469 -6324407 -6335282 -6355135 
3613.310 -6375281 -6389451 -6396569 -6400128 -6405940 -6418444 -6438946 
3616.686 -6464540 -6488729 -6503973 -6503777 -6486542 -6456608 -6422819 
3620.061 -6394480 -6377012 -6371657 -6376261 -6387525 -6401760 -6415702 
3623.436 -6425855 -6428303 -6419522 -6396145 -6356800 -6302169 -6236459 
3626.811 -6167701 -6107100 -6069330 -6066422 -6099618 -6154568 -6210459 
3630.187 -6252528 -6277055 -6288192 -6292568 -6295931 -6301516 -6310954 
3633.562 -6323657 -6338286 -6353600 -6369208 -6385338 -6402511 -6420076 
3636.937 -6436400 -6448381 -6453017 -6447434 -6429805 -6399018 -6355135 
3640.312 -6298152 -6229110 -6150093 -6065343 -5980447 -5902398 -5836562 
3643.688 -5786769 -5754007 -5737298 -5733669 -5739456 -5749920 -5760154 
3647.063 -5764732 -5759075 -5740993 -5712152 -5679221 -5652828 -5643343 
3650.438 -5655444 -5687952 -5733374 -5782911 -5830219 -5872521 -5909654 
3653.813 -5943320 -5976296 -6010545 -6045281 -6077041 -6099846 -6109452 
3657.188 -6105792 -6093639 -6079850 -6071421 -6072891 -6084752 -6104094 
3660.564 -6125330 -6142285 -6149929 -6146369 -6132386 -6110171 -6081647 
3663.939 -6047437 -6006362 -5957243 -5899848 -5836725 -5773168 -5717580 
3667.314 -5678861 -5666237 -5685794 -5738279 -5815508 -5900829 -5975218 
3670.689 -6025381 -6047928 -6047895 -6032047 -6006493 -5974923 -5941130 
3674.065 -5910308 -5888832 -5883145 -5893311 -5911027 -5924886 -5927795 
3677.440 -5919362 -5903542 -5885890 -5873142 -5869808 -5878176 -5897919 
3680.815 -5926062 -5959694 -5996003 -6033190 -6069624 -6103440 -6132223 
3684.190 -6153523 -6165545 -6168158 -6162735 -6152477 -6141403 -6133595 
3687.566 -6132158 -6137875 -6148917 -6162245 -6174234 -6182499 -6186124 
3690.941 -6184197 -6175442 -6158913 -6134249 -6102885 -6067141 -6030740 
3694.316 -5997441 -5970773 -5953158 -5945150 -5945869 -5953158 -5964759 
3697.691 -5978225 -5991918 -6004140 -6013061 -6016688 -6013780 -6003911 
3701.067 -5989107 -5973322 -5960838 -5954203 -5952405 -5951948 -5948712 
3704.442 -5939267 -5922794 -5900665 -5877228 -5857255 -5844473 -5840256 
3707.817 -5842380 -5845454 -5842708 -5828192 -5800076 -5762901 -5727652 
3711.192 -5708653 -5717940 -5759108 -5826754 -5909720 -5996166 -6076224 
3714.568 -6144507 -6198831 -6238778 -6265984 -6282542 -6290804 -6293090 
3717.943 -6290804 -6284110 -6271863 -6252430 -6224766 -6190109 -6153360 
3721.318 -6121964 -6105303 -6111053 -6141925 -6194356 -6260073 -6328588 
3724.693 -6390170 -6438424 -6471591 -6492451 -6505768 -6515985 -6524896 
3728.069 -6531620 -6533317 -6526919 -6511317 -6487195 -6458240 -6429870 
3731.444 -6409041 -6400781 -6406919 -6424973 -6450895 -6480177 -6510861 
3734.819 -6542390 -6574375 -6604334 -6629266 -6645581 -6651977 -6649661 
3738.194 -6641144 -6629135 -6615397 -6600059 -6582012 -6558448 -6526626 
3741.570 -6484649 -6432972 -6375999 -6323461 -6291294 -6295736 -6341355 
3744.945 -6413612 -6488272 -6546503 -6579956 -6589061 -6577280 -6551040 
3748.320 -6517617 -6488696 -6478642 -6499991 -6560276 -6654424 -6766821 
3751.695 -6875177 -6960943 -7014056 -7034954 -7030782 -7011057 -6983897 
3755.071 -6954160 -6923834 -6892853 -6860142 -6825993 -6793472 -6768354 
3758.446 -6758828 -6771062 -6806879 -6861316 -6923638 -6981354 -7024554 
3761.821 -7048745 -7054222 -7044995 -7026608 -7005514 -6987125 -6975289 
3765.196 -6970203 -6969224 -6967203 -6958823 -6940595 -6911605 -6873938 
3768.572 -6832712 -6795984 -6772530 -6768256 -6783588 -6813305 -6849085 
3771.947 -6882548 -6908246 -6923312 -6928106 -6924258 -6915681 -6906420 
3775.322 -6899636 -6898267 -6903354 -6915225 -6932899 -6954454 -6977116 
3778.697 -6998211 -7015686 -7029999 -7044376 -7063382 -7091352 -7130662 
3782.073 -7179844 -7233518 -7283503 -7319571 -7332277 -7317714 -7279333 
3785.448 -7227652 -7175119 -7132748 -7105857 -7093796 -7091352 -7091026 
3788.823 -7087016 -7075607 -7057677 -7037041 -7018849 -7007503 -7005058 
3792.198 -7010405 -7020903 -7032868 -7043040 -7050179 -7054059 -7056308 
3795.573 -7058688 -7063284 -7070815 -7081246 -7094090 -7108563 -7124991 
3798.949 -7143635 -7164820 -7187438 -7208426 -7221754 -7221363 -7204385 
3802.324 -7173978 -7137377 -7101718 -7073194 -7056895 -7056993 -7077367 
3805.699 -7120004 -7182452 -7254764 -7322112 -7369709 -7389385 -7380557 
3809.074 -7347752 -7297318 -7236158 -7171045 -7108693 -7054776 -7013208 
3812.450 -6985593 -6970920 -6966844 -6969909 -6976756 -6984060 -6989473 
3815.825 -6991690 -6991299 -6989571 -6988527 -6990125 -6996026 -7008057 
3819.200 -7027815 -7056243 -7091710 -7128706 -7159899 -7178932 -7185613 
3822.575 -7184277 -7180822 -7179714 -7183625 -7193044 -7206731 -7221233 
3825.951 -7232182 -7235799 -7229282 -7212891 -7188514 -7159899 -7130760 
3829.326 -7104391 -7083593 -7070261 -7064849 -7065860 -7070196 -7073716 
3832.701 -7073977 -7070522 -7066284 -7065827 -7074238 -7094611 -7126523 
3836.076 -7164266 -7197867 -7216573 -7212499 -7185254 -7142331 -7096241 
3839.452 -7058329 -7033944 -7022305 -7018849 -7018849 -7020218 -7024913 
3842.827 -7037563 -7062926 -7103054 -7154782 -7211066 -7263302 -7303867 
3846.202 -7328172 -7336122 -7329899 -7314098 -7293050 -7270731 -7249355 
3849.577 -7229380 -7210186 -7189882 -7165635 -7135291 -7097382 -7054613 
3852.953 -7015588 -6993385 -6997918 -7029542 -7080855 -7141744 -7204026 
3856.328 -7260467 -7305268 -7335340 -7349251 -7347980 -7333874 -7309927 
3859.703 -7278485 -7241013 -7199105 -7155303 -7114006 -7081507 -7064556 
3863.078 -7068174 -7092655 -7132488 -7176292 -7211359 -7229184 -7228109 
3866.454 -7212532 -7190697 -7171338 -7162180 -7168698 -7192229 -7228011 
3869.829 -7265028 -7290183 -7295950 -7281744 -7252255 -7213509 -7173066 
3873.204 -7138713 -7117657 -7115636 -7132553 -7162995 -7198323 -7230553 
3876.579 -7254080 -7265941 -7266397 -7257436 -7242740 -7225632 -7209273 
3879.955 -7194380 -7179584 -7162734 -7142689 -7120460 -7099599 -7083789 
3883.330 -7078052 -7086332 -7111757 -7153869 -7207611 -7263302 -7310286 
3886.705 -7342018 -7357395 -7359219 -7352248 -7341921 -7333320 -7331528 
3890.080 -7340161 -7359839 -7386812 -7413783 -7432675 -7438571 -7430819 
3893.456 -7412806 -7389515 -7365768 -7345048 -7329182 -7318789 -7314424 
3896.831 -7316802 -7327912 -7349153 -7381371 -7422122 -7465376 -7502634 
3900.206 -7525625 -7529924 -7516637 -7491691 -7464204 -7443196 -7433946 
3903.581 -7437561 -7450133 -7465734 -7478859 -7487262 -7491333 -7493515 
3906.957 -7495567 -7498400 -7501299 -7503155 -7502569 -7499377 -7493939 
3910.332 -7487979 -7483354 -7481563 -7482898 -7487262 -7493417 -7500126 
3913.707 -7506868 -7512762 -7517354 -7519829 -7518819 -7513120 -7501885 
3917.082 -7485471 -7465800 -7445541 -7427268 -7413164 -7404174 -7399679 
3920.458 -7398604 -7399972 -7403099 -7409060 -7419939 -7439059 -7469317 
3923.833 -7511589 -7563953 -7620606 -7672923 -7712832 -7734706 -7736334 
3927.208 -7719408 -7688614 -7650689 -7612337 -7579875 -7557114 -7544675 
3930.583 -7540703 -7542103 -7546141 -7552002 -7560598 -7574079 -7593420 
3933.958 -7617871 -7644340 -7668496 -7686335 -7694897 -7693660 -7684057 
3937.334 -7669701 -7654335 -7641117 -7631806 -7626467 -7624351 -7624904 
3940.709 -7627639 -7632718 -7639945 -7647889 -7653651 -7653781 -7645350 
3944.084 -7627378 -7601853 -7573102 -7547476 -7531389 -7530673 -7548225 
3947.459 -7583652 -7632587 -7687410 -7740044 -7783625 -7814054 -7830195 
3950.835 -7833579 -7826388 -7811613 -7791273 -7767254 -7740695 -7713256 
3954.210 -7686140 -7661432 -7640661 -7625197 -7615788 -7612825 -7615983 
3957.585 -7624676 -7638382 -7656777 -7679532 -7706127 -7735618 -7766180 
3960.960 -7795113 -7819391 -7835564 -7842106 -7838297 -7826257 -7809400 
3964.336 -7792672 -7780826 -7777930 -7786163 -7805495 -7833156 -7864721 
3967.711 -7895143 -7919644 -7934740 -7939327 -7934219 -7921465 -7904287 
3971.086 -7885935 -7868690 -7854406 -7843829 -7836768 -7832083 -7827982 
3974.461 -7821962 -7812296 -7797652 -7778548 -7758109 -7740402 -7730540 
3977.837 -7732232 -7746749 -7772136 -7803152 -7832765 -7853820 -7861011 
3981.212 -7852681 -7830520 -7799409 -7765074 -7733274 -7707494 -7689200 
3984.587 -7677839 -7672142 -7670319 -7671036 -7673575 -7677904 -7683406 
3987.962 -7690111 -7696915 -7702774 -7706192 -7705867 -7701049 -7691869 
3991.338 -7679923 -7667813 -7659121 -7657688 -7666608 -7686791 -7716967 
3994.713 -7753161 -7789320 -7819229 -7837484 -7841096 -7829739 -7806048 
3998.088 -7774577 -7740760 -7710196 -7687866 -7676993 -7679109 
##END=
