##TITLE=api_1 24.08. 09:58:14
##JCAMP-DX=5.01  $$ Nicolet v. 970
##DATATYPE=INFRARED SPECTRUM
##ORIGIN=Vojna akademija
##OWNER=Nicolet
##LONGDATE=2026/08/24
##TIME=09:58:52
##SPECTROMETER/DATA SYSTEM=Nicolet iS20
##DATA PROCESSING=
Ratio against background
%Transmittance->Absorbance
Truncated
ElementMultiply or ElementDivide
##COMMENTS=
Number of sample scans: 8
Collection length: 11,90 sec
Sample gain: 8,0
Background collected on: Mon Aug 24 09:56:35 2026 (GMT+02:00);
Number of background scans: 8
Background gain: 8,0
Sample spacing:  1,000
Number of scan points: 12415
Resolution points: 8286
Number of FFT points: 65536
Apodization: N-B strong;
Phase correction: Mertz;
Laser frequency: 15798,00 cm-1
Number of rejected sample scans: 0
Number of rejected background scans: 0
Bench serial number: BER2010005;
##RESOLUTION= 4,000
##XUNITS=1/CM
##YUNITS=ABSORBANCE
##FIRSTX=400.156891
##LASTX=4000.123047
##FIRSTY=0.014426
##MAXX=4000.123047
##MINX=400.156891
##MAXY=0.219852
##MINY=-0.000677
##XFACTOR=1.000000
##YFACTOR=1.000000E-009
##NPOINTS=7468
##DELTAX=0.482117
##ZPD=6100
##XYDATA=(X++(Y..Y))
400.157 14425815 11472913 8620622 6207380 4466060 3450733 3052173 3063618 
404.014 3262941 3485368 3648429 3759276 3878810 4077605 4389707 4819347 
407.871 5357248 6006164 6788062 7729025 8826232 10018266 11183558 12167599 
411.728 12810499 13015133 12772826 12190873 11450834 10755254 10250965 
415.103 9981953 9892928 9850457 9685491 9214018 8319549 7057023 5755076 
418.959 4907337 4887097 5702130 7070865 8642592 10136652 11386610 12284936 
422.816 12776682 12851384 12536418 11895081 11010643 9968730 8840468 7691689 
426.673 6602254 5667250 5003222 4715833 4857477 5408542 6261531 7251180 
430.530 8171877 8841651 9135303 9002711 8469536 7609203 6513449 5263936 
434.387 3944909 2654711 1504502 630534 152807 140312 600173 1483922 2709555 
438.726 4173774 5764310 7337709 8713205 9703314 10121457 9859710 8945918 
442.583 7584925 6121277 4930795 4319792 4401857 5091584 6135189 7220488 
446.440 8044270 8415177 8320394 7918287 7468783 7211189 7304147 7764746 
450.297 8488220 9272878 9895504 10167110 9996396 9422991 8595815 7706259 
454.154 6901632 6262841 5789023 5425854 5098557 4754757 4395530 4086802 
458.011 3924513 3982994 4266251 4706119 5191935 5612167 5887420 5977440 
461.868 5895615 5698471 5470243 5287077 5190493 5180568 5225972 5281510 
465.725 5307370 5283690 5208031 5092020 4949864 4789798 4615324 4432518 
469.582 4258555 4129617 4097639 4220278 4534123 5032115 5640799 6240757 
473.439 6692086 6889446 6797520 6447429 5923628 5340107 4831442 4513566 
477.296 4462746 4685655 5112202 5606259 6002871 6164696 6002770 5510275 
481.152 4762931 3913981 3145913 2622576 2461299 2696018 3284441 4116672 
485.009 5056619 5959099 6707127 7231302 7502358 7527103 7334272 6970819 
488.866 6492932 5960779 5432531 4949026 4527895 4162433 3830939 3504975 
492.723 3168208 2825198 2502820 2242160 2085751 2067840 2203094 2484458 
496.580 2881730 3355357 3868212 4398643 4944435 5512490 6098527 6669306 
500.437 7145602 7415931 7374072 6965129 6233765 5328099 4468236 3857247 
504.294 3641579 3865538 4469475 5308040 6193196 6955903 7475019 7717591 
508.151 7727811 7596626 7410032 7223890 7056686 6899613 6738423 6571136 
512.008 6409664 6273195 6171586 6094831 6012244 5885942 5685143 5402503 
515.865 5059401 4700660 4378561 4129316 3964837 3871956 3826827 3807473 
519.722 3806270 3833011 3907294 4050413 4279803 4604373 5021690 5516148 
523.579 6052662 6579748 7025738 7313043 7382767 7215367 6848041 6366187 
527.436 5879964 5478632 5208199 5063726 5000540 4954959 4871282 4726083 
531.293 4538107 4361726 4263005 4302223 4508242 4871549 5345340 5861123 
535.150 6343963 6728899 6980247 7090870 7083460 6995736 6873759 6753802 
539.007 6650633 6552399 6425638 6228488 5928767 5524806 5053267 4586458 
542.863 4205423 3979650 3940228 4070815 4311292 4582038 4814992 4973325 
546.720 5066005 5137650 5247771 5439342 5724624 6076418 6441578 6752860 
550.577 6952873 7010821 6925670 6721664 6439728 6132031 5849032 5635831 
554.434 5524873 5525980 5624989 5785262 5960779 6108037 6202473 6248354 
558.291 6277599 6335860 6462260 6673849 6952772 7249967 7494369 7621679 
562.148 7586409 7378756 7023078 6572213 6092479 5645196 5282751 5036338 
566.005 4911090 4886427 4920406 4955997 4931533 4802897 4553978 4210910 
569.862 3835418 3515697 3338262 3359965 3593133 3997608 4491972 4969068 
573.719 5335747 5531316 5546485 5423338 5244350 5102848 5065838 5157431 
577.576 5350439 5584980 5788520 5906900 5918589 5841510 5723852 5627372 
581.433 5602198 5663860 5789963 5926382 6010497 5987754 5835767 5572931 
585.290 5258972 4974263 4798508 4791306 4971246 5314614 5759710 6227917 
589.147 6635762 6919441 7049210 7032036 6907288 6731658 6563601 6438920 
593.004 6361749 6305838 6231748 6099300 5887286 5600654 5270744 4944770 
596.861 4668037 4473927 4373139 4355635 4395162 4462110 4528498 4572930 
600.717 4584081 4558699 4500776 4418760 4326218 4239382 4173473 4140288 
604.574 4142562 4174477 4222218 4271973 4314471 4349778 4386159 4435262 
608.431 4504124 4589505 4675138 4734725 4741693 4675372 4529704 4315509 
612.288 4059042 3792599 3549202 3356092 3228323 3169309 3170210 3213502 
616.145 3274759 3331584 3368748 3383173 3385143 3393792 3430761 3508983 
620.002 3627413 3769136 3907729 4012823 4062554 4050848 3988345 3898936 
623.859 3809947 3743735 3707675 3692270 3672955 3620530 3508916 3325039 
627.716 3074496 2783112 2491590 2244990 2086517 2040774 2107759 2260178 
631.573 2453401 2637276 2772841 2845375 2868155 2875827 2907281 2992382 
635.430 3136568 3321033 3508683 3663098 3762719 3808978 3825223 3848522 
639.287 3916221 4050881 4256815 4518119 4806482 5085885 5322899 5491954 
643.144 5576422 5572831 5491954 5359160 5209540 5081258 5006640 4999937 
647.001 5054742 5144824 5235731 5293584 5298548 5248877 5156258 5037378 
650.858 4904623 4762562 4611506 4455582 4309384 4198765 4156044 4206694 
654.715 4358112 4593892 4876207 5159511 5400021 5571622 5668056 5700015 
658.571 5684908 5641638 5585517 5528598 5483531 5464036 5481988 5544438 
662.428 5647680 5778211 5916473 6047858 6168225 6287919 6425940 6603835 
666.285 6831312 7092520 7325679 7431301 7325443 7009979 6575577 6122386 
670.142 5704346 5326824 4974699 4636254 4315609 4039042 3847419 3776990 
673.999 3844945 4037270 4313936 4617233 4895776 5115723 5266082 5354129 
677.856 5393244 5389453 5338832 5231338 5064765 4852819 4629657 4438577 
681.713 4316579 4282982 4333312 4444234 4584550 4729198 4863072 4979022 
685.570 5069626 5117902 5097350 4981938 4762361 4460972 4134200 3864067 
689.427 3725387 3763855 3980185 4331204 4744238 5144187 5480914 5736274 
693.284 5924299 6073864 6211581 6347661 6475006 6577864 6646696 6685659 
697.141 6715708 6763191 6850768 6985298 7156415 7340338 7512236 7656278 
700.998 7769772 7861398 7945754 8036169 8140073 8260447 8397846 8553368 
704.855 8730819 8934383 9166808 9428003 9716088 10030370 10374676 10756579 
708.712 11185667 11667557 12199836 12771051 13364103 13965423 14570353 
712.086 15187278 15832640 16525840 17278240 18091150 18957498 19869004 
715.461 20824936 21835622 22918344 24088592 25347734 26675748 28027202 
718.836 29339626 30546702 31584856 32405916 32978438 33285696 33326336 
722.211 33112836 32673362 32046914 31284500 30442346 29572666 28722494 
725.586 27924368 27193278 26527302 25911828 25325956 24749748 24171360 
728.961 23589264 23012734 22457240 21940266 21474734 21065518 20709056 
732.335 20394800 20108882 19837336 19569668 19300574 19030192 18762880 
735.710 18506076 18267114 18050770 17856834 17677620 17498408 17297688 
739.085 17053290 16748760 16380100 15960013 15519489 15103631 14756895 
742.460 14515294 14394337 14385501 14456370 14560006 14648277 14678917 
745.835 14628230 14492511 14285605 14031604 13758905 13495025 13261025 
749.209 13071710 12933644 12845617 12797839 12774566 12756891 12724852 
752.584 12663851 12569058 12445028 12303717 12160068 12024812 11899236 
755.959 11775057 11636687 11469477 11265842 11030558 10780117 10540752 
759.334 10338095 10191837 10111284 10093343 10127698 10200555 10301144 
762.709 10423171 10564007 10722309 10896299 11081541 11272473 11461958 
766.083 11643018 11806617 11941056 12032647 12067565 12036803 11940681 
769.458 11791160 11611367 11426715 11260912 11125901 11019377 10927524 
772.833 10832803 10722684 10595649 10461388 10335754 10231459 10150286 
776.208 10080286 10000871 9892013 9741873 9553612 9342917 9132123 8939322 
780.065 8773011 8630153 8502715 8383355 8271795 8175321 8103376 8058953 
783.922 8033638 8004578 7942954 7823106 7631459 7372926 7069989 6757133 
787.779 6468313 6233698 6073393 5996757 6004887 6090093 6236555 6418878 
791.636 6606459 6768744 6883858 6945736 6966341 6971795 6988900 7035807 
795.493 7110775 7194278 7255122 7266341 7217220 7118993 7000349 6896044 
799.350 6834442 6825826 6862549 6924424 6990685 7043889 7075984 7085144 
803.206 7070696 7030891 6963917 6872076 6766186 6667321 6601715 6590513 
807.063 6643164 6751412 6895068 7048436 7191684 7317457 7428806 7532363 
810.920 7630110 7711689 7757865 7747476 7669903 7534588 7373128 7231538 
814.777 7151059 7158874 7253909 7410370 7584554 7732399 7822465 7843381 
818.634 7804923 7729768 7644138 7566651 7505089 7456682 7412594 7364568 
822.491 7310549 7257143 7218264 7209775 7243532 7320625 7428975 7543117 
826.348 7630649 7663495 7624950 7517698 7362613 7195120 7051702 6959001 
830.205 6926612 6946779 7000147 7065544 7130176 7192257 7258896 7339125 
834.062 7436087 7541971 7640799 7713241 7745958 7737593 7698940 7646870 
837.919 7597131 7556738 7521810 7480784 7421357 7338990 7239624 7138731 
841.776 7054901 7004423 6995163 7025974 7089994 7178748 7286558 7411347 
845.633 7552996 7709362 7872735 8029419 8160837 8248155 8278548 8247243 
849.490 8159925 8029587 7875637 7718064 7575754 7464468 7394091 7368275 
853.347 7383980 7432008 7497268 7561256 7606371 7615374 7578148 7492447 
857.204 7364703 7208663 7043519 6890388 6766557 6685626 6653560 6670451 
861.060 6732533 6834880 6973142 7140651 7328240 7520125 7692532 7818889 
864.917 7873005 7837579 7711554 7513045 7276921 7045842 6864468 6765682 
868.774 6766119 6866420 7053756 7306034 7595648 7894667 8173126 8403184 
872.631 8561647 8632046 8610111 8504676 8338126 8139364 7936913 7752434 
876.488 7595243 7464165 7352133 7253033 7165442 7094541 7047661 7030520 
880.345 7042643 7075950 7116703 7150992 7169720 7171775 7163691 7158537 
884.202 7169350 7205833 7271497 7362714 7470266 7581486 7682887 7763700 
888.059 7816730 7839772 7835656 7811805 7777733 7745418 7725687 7727440 
891.916 7757190 7817573 7906037 8015344 8132105 8240219 8322049 8364810 
895.773 8364742 8328905 8274090 8222458 8193756 8197267 8228839 8272537 
899.630 8306985 8312287 8280000 8215164 8135245 8061619 8013926 8003059 
903.487 8029385 8083392 8151551 8220364 8278380 8318266 8337045 8334647 
907.344 8315125 8285337 8255044 8232689 8222863 8222998 8223268 8209322 
911.201 8168568 8096928 8002046 7901449 7816291 7763869 7749128 7765117 
915.058 7795004 7822566 7838085 7843483 7849353 7870272 7915924 7986082 
918.914 8070565 8153780 8221106 8263014 8278210 8271659 8251566 8225598 
922.771 8202096 8190414 8201049 8246331 8336505 8474165 8651650 8851424 
926.628 9050681 9226372 9364145 9459731 9517676 9546058 9551579 9536744 
930.485 9501318 9447608 9383918 9325584 9290548 9291225 9327616 9385543 
934.342 9441717 9473006 9466166 9425598 9371221 9330560 9325990 9368411 
938.199 9452315 9562316 9679088 9789146 9887844 9976697 10058176 10130140 
942.056 10184036 10209850 10201607 10164329 10114674 10077947 10078014 
945.431 10128580 10230034 10370196 10530432 10693952 10851793 11003778 
948.806 11154933 11309201 11464680 11612762 11740775 11836035 11891266 
952.181 11905399 11883775 11834230 11765285 11684779 11600034 11518436 
955.555 11446921 11390522 11351475 11328075 11316717 11314131 11321138 
958.930 11343448 11390012 11468524 11579684 11713883 11853605 11975456 
962.305 12058912 12093729 12081839 12035951 11973855 11913061 11864774 
965.680 11833414 11817989 11816015 11825446 11845501 11875364 11912039 
969.055 11948344 11975115 11981825 11961116 11910031 11830893 11730188 
972.429 11616199 11499382 11388821 11293625 11221434 11176079 11156667 
975.804 11156565 11164757 11168123 11156394 11126139 11081541 11032088 
979.179 10988418 10956645 10934898 10912846 10876220 10813372 10719491 
982.554 10600911 10471638 10350073 10251882 10184273 10144690 10121796 
985.929 10098158 10054921 9978427 9861303 9705075 9519945 9324433 9141495 
989.786 8993983 8901340 8873744 8909694 8996047 9112091 9233547 9338991 
993.643 9415948 9461933 9483640 9491937 9498812 9510835 9528277 9544535 
997.500 9548768 9528717 9474022 9379550 9247323 9087290 8916830 8758507 
1001.356 8634885 8561174 8541372 8564250 8605515 8631065 8609773 8522043 
1005.213 8368154 8169344 7964113 7797298 7703628 7701166 7782051 7918219 
1009.070 8066379 8185315 8246264 8238869 8171640 8065806 7946970 7835386 
1012.927 7742416 7670779 7618105 7581587 7560413 7555693 7566920 7589882 
1016.784 7615306 7632167 7632875 7618813 7602021 7600133 7630885 7702043 
1020.641 7805294 7917443 8007616 8049974 8031782 7960130 7858665 7759619 
1024.498 7688148 7656076 7658302 7678232 7695972 7697962 7682279 7655941 
1028.356 7629536 7609304 7593793 7574675 7541870 7489717 7421526 7348662 
1032.213 7286255 7245284 7229146 7232279 7244273 7254313 7256368 7249664 
1036.070 7235513 7213481 7178277 7120004 7029948 6905033 6753162 6591993 
1039.928 6445647 6335188 6272120 6255547 6274237 6312393 6355798 6398265 
1043.785 6439963 6485365 6535884 6586880 6626812 6641280 6619411 6559867 
1047.643 6472786 6378595 6300795 6257766 6258875 6300492 6368373 6442721 
1051.500 6506957 6550482 6572953 6581800 6589436 6607367 6640539 6685827 
1055.358 6732567 6765648 6770494 6739230 6674017 6587822 6500264 6432430 
1059.215 6400148 6407849 6446857 6499995 6545975 6566696 6554687 6514626 
1063.072 6461991 6416760 6398299 6418710 6480757 6578100 6698412 6829629 
1066.930 6961661 7088411 7207686 7318164 7418054 7504853 7575687 7630278 
1070.787 7671825 7707001 7744069 7790181 7848139 7915182 7984193 8046801 
1074.645 8097739 8136393 8166644 8192271 8213307 8221376 8200171 8130046 
1078.502 7997592 7803235 7566685 7323792 7121890 7001056 6982907 7062176 
1082.359 7209067 7375824 7512101 7581587 7567089 7474547 7325309 7148432 
1086.217 6970112 6807145 6668465 6555864 6468986 6406436 6367532 6350385 
1090.074 6351124 6363935 6382562 6401493 6417230 6427353 6429976 6423351 
1093.932 6405966 6379233 6349376 6328699 6332061 6372475 6453247 6565115 
1097.789 6685222 6784293 6837708 6832995 6776855 6692086 6610798 6559901 
1101.647 6552131 6581833 6629168 6668062 6678761 6655814 6611135 6568378 
1105.504 6552265 6581329 6658674 6771605 6894327 6998463 7059280 7062950 
1109.361 7010417 6915065 6799438 6687678 6602489 6558219 6559834 6603397 
1113.219 6678357 6771874 6870224 6963108 7042408 7102287 7139539 7152171 
1117.076 7141695 7113436 7078678 7052511 7050355 7084201 7157291 7261692 
1120.934 7380172 7491031 7573900 7615340 7612878 7574372 7514158 7447277 
1124.791 7387485 7343034 7316884 7308561 7314727 7330363 7349234 7363793 
1128.649 7368241 7359344 7339495 7316985 7304349 7312672 7348291 7408347 
1132.506 7480817 7547332 7591197 7602088 7581587 7541971 7502999 7484997 
1136.363 7501280 7556738 7645891 7758539 7881406 8004679 8122619 8232588 
1140.221 8334580 8428656 8514339 8591759 8662264 8728757 8795395 8866237 
1144.078 8943279 9026188 9112903 9200718 9289430 9381615 9482082 9596562 
1147.936 9729404 9880285 10044171 10211817 10372469 10515190 10632285 
1151.311 10719083 10774818 10800872 10799920 10776076 10732940 10675275 
1154.686 10609094 10540310 10476391 10424359 10389267 10373250 10373759 
1158.061 10383702 10392152 10387605 10360627 10306810 10228100 10132718 
1161.437 10032880 9940489 9864862 9810328 9776201 9757597 9748617 9744111 
1165.294 9740450 9736893 9734114 9733606 9736181 9741534 9746889 9747533 
1169.151 9736893 9707346 9652764 9569057 9455668 9317020 9161022 8997163 
1173.009 8835226 8683525 8547792 8433454 8345186 8287667 8264567 8276117 
1176.866 8316746 8374201 8432102 8472881 8482747 8455920 8395853 8313402 
1180.724 8220971 8128864 8041232 7956452 7870103 7779588 7686967 7600133 
1184.581 7529699 7485267 7471615 7486616 7521810 7565403 7606741 7637899 
1188.439 7656278 7663327 7663529 7662955 7667643 7683696 7716512 7768524 
1192.296 7838187 7918894 7998199 8060168 8090649 8079712 8026482 7938971 
1196.153 7832654 7724573 7628727 7553535 7500740 7467098 7447918 7439963 
1200.011 7442929 7458064 7486076 7525519 7570663 7613350 7644037 7656278 
1203.868 7648084 7623264 7590624 7561526 7547534 7555963 7589781 7646701 
1207.726 7719784 7800469 7880090 7953584 8017741 8073535 8123024 8168669 
1211.583 8210774 8248155 8278684 8300737 8315192 8326203 8340794 8366600 
1215.441 8409299 8470482 8546847 8631201 8714964 8790052 8851154 8896470 
1219.298 8926367 8943110 8948826 8946256 8938205 8929953 8927754 8939254 
1223.155 8971049 9026391 9104545 9199093 9301109 9400610 9489296 9563841 
1227.013 9625051 9677597 9727235 9778777 9834527 9892691 9948219 9994395 
1230.870 10024063 10031591 10014027 9972392 9910318 9833477 9748651 9661843 
1234.728 9576949 9496340 9420790 9350095 9282288 9214932 9143627 9062286 
1238.585 8965367 8848448 8711820 8561209 8408521 8268923 8156988 8082446 
1242.443 8047881 8047409 8069484 8101520 8132376 8155772 8171336 8182276 
1246.300 8193148 8207836 8228164 8253760 8282534 8311274 8335593 8350285 
1250.157 8349475 8327317 8281082 8211855 8125826 8034616 7951086 7886366 
1254.015 7847396 7834205 7842302 7864671 7895240 7931987 7975992 8030229 
1257.872 8096928 8174577 8257949 8338734 8408927 8464671 8506905 8540832 
1261.730 8573510 8610279 8652934 8698399 8740656 8773214 8790120 8788598 
1265.587 8768751 8734030 8690320 8645127 8607238 8584797 8583209 8604332 
1269.444 8644957 8697655 8752591 8801514 8839690 8867419 8889807 8913786 
1273.302 8944497 8981738 9019490 9047670 9055012 9032785 8978660 8897316 
1277.159 8799689 8699109 8609368 8541473 8501770 8492849 8513562 8560701 
1281.017 8629815 8715876 8812943 8913989 9012014 9100045 9172595 9227015 
1284.874 9263671 9287095 9303648 9321657 9349215 9391502 9451536 9527735 
1288.732 9615668 9708227 9798840 9881641 9953779 10015824 10071062 10125087 
1292.589 10183120 10249405 10325269 10409358 10497334 10584377 10665528 
1295.964 10738000 10801211 10857093 10909278 10961470 11016455 11076103 
1299.339 11140043 11207222 11275772 11343516 11408584 11467946 11518742 
1302.715 11557838 11582917 11593058 11590131 11578153 11563418 11551441 
1306.090 11545996 11547051 11551168 11551985 11542832 11519082 11479241 
1309.465 11425456 11361373 11291653 11219734 11148541 11080284 11017304 
1312.840 10962659 10918486 10884917 10859505 10835929 10807428 10767618 
1316.216 10714261 10649739 10580677 10514951 10458265 10410852 10367244 
1319.591 10318550 10255851 10175996 10082389 9984190 9893573 9822292 9778167 
1323.448 9763663 9776168 9810023 9858862 9916658 9979274 10044409 10110130 
1327.306 10175149 10239193 10302841 10368499 10440310 10523506 10622710 
1330.681 10741125 10879312 11035793 11207494 11391304 11584142 11783125 
1334.056 11985061 12185114 12376941 12554391 12712706 12851794 12976452 
1337.432 13097184 13225568 13370287 13532385 13703230 13866856 14006861 
1340.807 14114428 14190217 14243729 14288344 14337108 14399407 14479562 
1344.182 14577103 14688342 14808796 14934292 15062327 15191602 15320125 
1347.557 15445906 15565678 15677171 15780685 15879516 15978988 16085772 
1350.932 16204037 16334545 16474111 16616715 16756508 16889768 17017830 
1354.308 17145620 17282342 17437940 17620888 17837570 18091218 18382862 
1357.683 18712338 19079768 19487184 19941362 20456306 21056440 21777542 
1361.058 22659420 23736010 25013082 26450842 27960622 29430530 30760828 
1364.433 31883068 32768040 33408274 33805936 33970112 33920316 33697536 
1367.809 33364724 33010934 32729666 32597244 32667864 32969716 33519142 
1371.184 34337384 35460788 36939244 38816960 41100380 43712016 46471636 
1374.559 49138732 51472036 53310608 54588272 55291284 55419484 54962688 
1377.934 53908340 52273824 50134724 47629024 44917032 42156688 39466500 
1381.310 36916336 34549940 32390922 30451728 28732158 27212502 25854188 
1384.685 24603466 23407110 22224710 21044476 19889920 18810836 17858318 
1388.060 17060216 16410930 15883571 15446077 15071967 14743698 14449313 
1391.435 14177174 13913964 13643733 13351186 13027766 12676371 12314080 
1394.811 11966567 11658401 11402257 11198178 11038138 10912948 10814426 
1398.186 10733721 10661522 10587670 10505039 10414924 10326558 10253103 
1401.561 10205440 10189056 10199402 10223351 10240178 10230475 10183019 
1404.936 10101549 10001617 9903606 9822834 9765696 9732081 9720018 9729099 
1408.794 9760105 9812328 9879844 9949439 10005143 10034203 10034846 10018231 
1412.651 10005042 10015485 10059973 10135125 10225014 10308982 10369958 
1416.026 10403691 10420592 10444893 10504598 10621997 10799547 11016353 
1419.402 11238367 11440968 11618615 11780231 11938297 12102009 12277609 
1422.777 12470500 12688039 12938286 13225226 13544383 13881840 14220996 
1426.152 14550035 14869894 15196612 15561214 16001642 16551655 17227696 
1429.527 18020134 18897692 19822180 20763412 21704912 22641302 23572194 
1432.903 24496074 25412192 26326202 27252686 28219794 29263346 30409010 
1436.278 31640876 32893296 34081092 35148436 36096688 36967924 37814420 
1439.653 38684440 39608912 40600068 41650856 42744520 43861872 44988872 
1443.028 46121160 47259400 48404592 49556976 50715664 51885700 53082600 
1446.404 54332072 55661596 57084456 58590780 60147780 61721312 63300444 
1449.779 64904736 66577464 68363872 70287768 72331576 74436968 76530328 
1453.154 78540600 80438384 82238968 83988224 85739232 87514064 89255240 
1456.529 90797920 91934600 92568736 92784848 92767704 92656984 92512976 
1459.905 92350472 92170096 91974560 91769248 91552168 91303832 90978048 
1463.280 90504872 89799328 88790520 87453600 85804944 83874824 81676744 
1466.655 79192560 76406144 73329192 70021232 66561164 63037948 59512828 
1470.030 55975008 52359604 48566048 44538912 40365368 36325060 32773652 
1473.406 29923522 27756740 26097746 24740066 23542704 22437734 21416598 
1476.781 20495798 19686320 18977644 18342976 17752548 17186570 16640574 
1480.156 16123665 15649656 15228594 14859711 14532081 14231609 13947802 
1483.531 13676216 13416385 13166750 12920911 12668558 12398862 12107766 
1486.907 11802055 11498361 11216844 10970815 10757462 10556503 10340843 
1490.282 10097208 9831307 9564722 9318611 9106643 8932117 8793332 8687750 
1494.139 8614370 8574016 8564959 8579086 8595645 8585406 8524544 8404637 
1497.997 8238395 8050413 7865514 7698906 7554210 7426649 7309639 7200409 
1501.854 7102355 7022371 6969203 6947452 6955634 6983547 7012606 7018700 
1505.712 6978159 6885642 6772648 6694340 6677348 6702584 6735999 6759119 
1509.569 6769316 6775038 6787254 6815190 6861977 6924492 6995534 7069046 
1513.426 7141561 7212571 7280763 7340945 7381520 7386676 7345157 7262400 
1517.284 7161771 7075310 7025772 7019139 7044597 7078173 7085010 7027187 
1521.141 6884565 6672167 6435356 6216018 6031160 5874657 5733488 5597701 
1524.999 5465882 5343596 5238414 5152603 5080051 5009087 4931432 4846955 
1528.856 4763768 4694430 4650521 4637628 4654573 4693057 4741894 4787889 
1532.714 4818577 4826350 4810268 4774622 4725011 4665224 4597576 4525183 
1536.571 4454645 4396334 4364404 4376821 4447113 4573934 4727590 4855466 
1540.428 4913470 4897150 4832850 4749330 4659832 4564325 4459499 4346264 
1544.286 4233728 4136508 4066701 4028474 4017137 4024027 4041149 4064761 
1548.143 4095031 4134601 4184981 4242795 4299212 4343921 4370194 4377657 
1552.001 4370930 4358045 4348138 4349611 4368420 4407312 4466495 4545407 
1555.858 4645230 4767085 4908946 5055814 5165110 5156258 4962465 4634346 
1559.715 4318889 4105199 3990719 3936750 3909167 3883892 3847252 3793736 
1563.573 3724585 3647059 3573088 3514962 3479222 3466931 3473945 3495455 
1567.430 3526954 3564937 3606230 3645255 3675595 3692571 3696414 3691668 
1571.288 3684183 3678670 3676999 3679906 3687692 3700691 3719840 3744805 
1575.145 3772144 3791596 3788789 3752324 3683013 3592632 3497192 3410423 
1579.003 3341233 3294223 3270018 3265345 3272890 3283606 3289549 3285776 
1582.860 3271888 3251357 3230126 3214003 3207861 3213369 3228790 3248786 
1586.717 3265311 3269918 3255430 3218476 3162066 3096087 3033754 2988578 
1590.575 2970029 2979804 3012100 3055343 3097288 3128191 3144711 3150151 
1594.432 3152821 3161532 3182894 3218843 3267114 3322468 3379099 3432431 
1598.290 3478454 3514127 3536909 3544960 3538479 3520140 3494854 3468935 
1602.147 3447760 3435403 3433667 3442149 3459884 3485101 3515463 3546897 
1606.005 3573322 3585750 3575126 3535172 3465595 3374391 3274258 3179990 
1609.862 3100959 3040861 2996686 2962890 2934701 2910750 2894005 2890203 
1613.719 2904913 2941039 2996319 3060915 3117778 3145445 3129860 3072494 
1617.577 2989246 2898275 2811491 2733494 2664346 2604009 2554611 2520483 
1621.434 2507953 2522716 2564977 2625976 2690184 2740496 2766872 2767739 
1625.292 2747365 2712155 2667613 2619809 2574376 2536347 2509186 2493356 
1629.149 2485158 2478460 2467630 2448803 2421547 2388495 2355180 2328096 
1633.006 2313273 2315638 2337257 2376635 2426012 2472495 2502021 2507353 
1636.864 2490957 2459233 2419081 2375502 2333326 2296917 2270470 2256215 
1640.721 2253051 2256215 2258779 2254716 2241060 2219979 2197166 2181081 
1644.579 2179416 2195401 2223609 2247655 2246023 2204626 2129268 2040907 
1648.436 1959953 1896153 1850563 1819817 1800353 1790771 1793433 1815825 
1652.294 1867035 1946274 2029988 2085119 2103131 2098836 2088715 2081956 
1656.151 2080990 2083787 2086484 2084287 2074632 2058252 2039143 2023297 
1660.008 2017172 2024396 2044669 2072601 2097138 2106394 2090879 2047998 
1663.866 1981988 1900446 1810834 1718546 1629936 1551818 1493464 1466401 
1667.723 1481162 1541410 1637885 1747854 1841346 1897850 1916221 1911195 
1671.581 1902409 1904240 1924075 1962283 2012878 2066142 2110523 2136128 
1675.438 2140390 2129002 2112154 2097871 2088781 2083288 2077328 2066175 
1679.296 2046200 2016839 1980523 1942613 1908799 1883440 1868832 1864539 
1683.153 1866169 1864938 1853125 1831430 1810701 1802948 1815958 1852327 
1687.010 1911961 1991341 2083587 2177152 2258280 2315904 2344453 2346485 
1690.868 2330961 2309742 2292587 2285925 2291721 2309109 2334426 2362176 
1694.725 2386563 2403621 2415383 2429710 2457600 2505586 2575343 2664879 
1698.583 2769440 2880096 2982340 3060214 3108067 3137569 3165271 3201753 
1702.440 3247785 3298196 3344305 3376862 3389084 3379834 3357695 3338562 
1706.297 3340065 3371586 3432331 3512557 3597810 3670951 3715562 3719973 
1710.155 3678569 3594871 3479490 3348345 3217107 3098923 3002858 2931031 
1714.012 2880830 2843941 2810657 2770474 2715489 2642010 2551412 2451469 
1717.870 2355047 2275033 2217747 2183113 2165797 2159170 2157139 2154475 
1721.727 2148348 2138791 2129169 2125772 2134862 2159969 2198931 2244990 
1725.585 2289756 2326297 2352448 2370738 2388229 2412551 2447570 2490390 
1729.442 2530515 2553478 2546612 2505520 2435541 2351782 2274933 2231269 
1733.299 2245890 2327630 2455934 2590109 2698885 2772908 2817594 2840239 
1737.157 2844141 2827966 2787781 2721291 2631776 2529948 2429444 2338856 
1741.014 2258746 2181414 2097238 1998798 1885004 1762392 1642774 1538152 
1744.872 1455696 1396323 1353844 1317849 1276142 1217591 1134731 1025581 
1748.729 894612 752960 615967 500181 420110 382236 382701 409099 446445 
1753.069 481571 507346 522174 529274 534615 543804 561388 585873 610990 
1757.408 628012 631861 624362 613711 612317 634449 691029 784361 903112 
1761.748 1022725 1115497 1161076 1156392 1112341 1047303 978721 919913 
1765.605 878476 855966 848662 850322 855933 864963 883389 922336 994263 
1769.945 1108122 1264577 1450044 1635457 1778095 1842178 1820483 1737075 
1773.802 1629437 1527112 1446387 1389276 1349357 1317583 1287274 1256602 
1777.660 1229387 1212142 1211843 1231746 1269130 1314924 1357168 1386318 
1781.517 1398684 1396855 1386185 1371726 1355373 1335763 1309740 1274746 
1785.375 1231115 1182140 1132472 1086464 1046539 1012297 982275 954480 
1789.232 927616 901651 878177 859120 846404 840728 841558 848031 860149 
1793.572 878210 903012 933194 965704 995990 1019437 1033088 1037505 1037140 
1797.911 1038634 1047668 1066966 1093905 1121576 1141076 1145628 1134731 
1801.769 1113537 1089952 1070520 1058197 1051654 1046805 1039830 1028936 
1805.626 1014688 999012 983304 965936 942193 905436 850322 776593 691494 
1809.966 609829 549544 526255 546624 605051 685620 768627 837740 881962 
1814.305 898496 890627 866025 833789 802485 778253 763482 756810 753890 
1818.645 749575 738854 718907 689967 656052 622504 595860 580996 579768 
1822.984 589357 603491 613479 610758 590850 554719 508474 460542 417623 
1827.324 385818 369800 375173 408005 472085 565070 674967 784394 875355 
1831.664 936548 963678 958132 925425 873728 814037 757209 713862 692722 
1836.003 698629 733112 793489 872732 960889 1046174 1118952 1173668 1210182 
1840.343 1232411 1246367 1256103 1260955 1252548 1216728 1136525 1002201 
1844.200 821407 620712 435632 295324 216518 200242 237967 316313 420343 
1848.540 535378 648419 750039 834320 898862 943156 967696 973142 960125 
1852.880 930106 885282 829241 767266 705399 650510 609298 586205 580929 
1857.219 587797 596557 595097 574460 533255 478719 425284 389764 385486 
1861.559 416164 476098 551634 628012 691892 736132 759034 762619 750471 
1865.898 724383 685056 632857 570578 504725 444156 396364 361709 334948 
1870.238 307924 277486 247780 231469 243968 299137 402533 547819 716086 
1874.578 879837 1012928 1095034 1119051 1091613 1030098 956074 887573 837972 
1878.917 812444 810153 825390 850720 877579 898065 906432 899260 877911 
1883.257 847234 816029 794850 791696 811215 853277 915065 992304 1082146 
1887.596 1182605 1291927 1406030 1516339 1609549 1671577 1690604 1661898 
1891.454 1588730 1481062 1352016 1216894 1092011 991573 928280 907926 928579 
1895.793 979020 1042221 1100449 1137954 1145727 1122539 1075038 1015153 
1899.651 957900 917754 903709 920377 966003 1034316 1114766 1194533 1261453 
1903.990 1303459 1312930 1286610 1227327 1142804 1044314 944883 854737 
1907.848 780676 724881 686184 662423 650576 647490 648917 648884 640422 
1912.187 617859 580299 532890 488935 465517 480311 545397 663253 825291 
1916.527 1011799 1197124 1351384 1452703 1493298 1480730 1432325 1367338 
1920.384 1302528 1248793 1215133 1207225 1228291 1277371 1348526 1434020 
1924.242 1523987 1611378 1690670 1757668 1809170 1842078 1855022 1848533 
1928.099 1825906 1795229 1763456 1737740 1719677 1705073 1684450 1647829 
1931.957 1588730 1507062 1408124 1300501 1189881 1076399 955343 824527 
1935.814 690731 576284 516004 547122 694282 955542 1297244 1660269 1981622 
1940.154 2201362 2283694 2224675 2055455 1831330 1609648 1434419 1320907 
1944.011 1261321 1236764 1228922 1225500 1219353 1206361 1182904 1146325 
1947.869 1097459 1046240 1009108 1004559 1047635 1140445 1271223 1417166 
1951.726 1553281 1660768 1732983 1773104 1790738 1789673 1765719 1705406 
1955.583 1595016 1429300 1219452 991540 778187 609630 500711 449430 439214 
1959.923 448866 458751 460110 454737 451487 461470 492617 547122 623765 
1964.263 717314 818054 913106 985795 1018408 998780 926288 814369 685952 
1968.602 564772 459679 364030 254278 106472 -90844 -321645 -540742 -677162 
1972.942 -657841 -432184 19516 670885 1457059 2275933 3017205 3580004 
1976.799 3890210 3920367 3686322 3251056 2709688 2182247 1781256 1577191 
1980.657 1593053 1791436 2093209 2394559 2605175 2669147 2585242 2399357 
1984.514 2184811 2011680 1920847 1916620 1973067 2049496 2107859 2129402 
1988.371 2115950 2078993 2025894 1950235 1829467 1636155 1352182 984467 
1992.229 569317 167657 -154774 -345914 -376305 -247771 12856 357729 732515 
1996.568 1080950 1351717 1512017 1548959 1476242 1331077 1165561 1031327 
2000.426 962848 969622 1031427 1105498 1139017 1090018 942791 715323 455832 
2004.766 235448 129672 193479 451918 886975 1444858 2046866 2616909 3089713 
2009.105 3428456 3628415 3715094 3734544 3733609 3752191 3808142 3898234 
2012.963 4001754 4094295 4155107 4171867 4140255 4056099 3908899 3684384 
2016.820 3370350 2972498 2523316 2084087 1726895 1514311 1480830 1617929 
2020.677 1874156 2167328 2416549 2567943 2616009 2600675 2594042 2666746 
2024.535 2858249 3163902 3529059 3879646 4137177 4253134 4215226 4045497 
2028.392 3784611 3476216 3154023 2830767 2506653 2179483 1852693 1547263 
2032.250 1295549 1132273 1082578 1150013 1313296 1530105 1751579 1926704 
2036.107 2017405 2010581 1914723 1767216 1614770 1512748 1504702 1613473 
2039.964 1834258 2135195 2464564 2762371 2983307 3099524 3104029 3008663 
2043.822 2834736 2607842 2350949 2087483 1838850 1626543 1470623 1383526 
2047.679 1365809 1401642 1465636 1530304 1578421 1609549 1639248 1688042 
2051.537 1769578 1880811 1997366 2080191 2087782 1993838 1799521 1537952 
2055.394 1261553 1029999 888336 852314 909022 1023788 1154431 1261586 
2059.251 1321837 1327554 1287640 1217425 1136857 1064143 1013658 995691 
2063.109 1013891 1063977 1131642 1197257 1241848 1251950 1228158 1183004 
2066.966 1137588 1108388 1101611 1106660 1102807 1065804 982275 857659 
2070.824 717945 600505 540586 559032 653430 801589 968294 1121078 1237827 
2075.163 1312166 1350886 1367571 1374352 1379637 1390107 1413277 1460915 
2079.021 1547595 1684217 1870629 2090346 2312007 2493689 2596342 2597675 
2082.878 2498021 2319602 2097404 1869763 1664160 1492599 1353811 1239256 
2086.736 1140113 1054876 988584 950262 946610 976231 1027707 1083475 1125562 
2091.075 1142538 1132804 1104833 1072214 1046705 1033519 1029334 1025050 
2094.933 1009972 978721 934390 887838 851318 832992 831698 835449 827183 
2099.272 790634 720865 627581 534781 470095 458319 507910 608601 732548 
2103.612 846139 921506 945248 923034 876948 836478 825291 856464 929044 
2107.951 1032390 1151940 1276175 1397919 1511751 1612043 1686911 1720442 
2111.809 1698753 1616533 1484188 1327255 1182206 1084637 1055009 1093639 
2115.666 1179681 1279531 1356204 1386318 1365012 1306084 1234970 1178751 
2119.524 1156890 1174830 1224935 1291295 1357367 1410085 1443794 1459818 
2123.381 1463841 1462943 1463774 1470756 1485351 1505300 1523820 1531003 
2127.239 1515142 1466002 1380268 1264909 1136924 1018972 936216 904141 
2131.096 926155 990544 1075104 1153667 1206328 1226696 1223539 1218190 
2134.953 1233574 1290664 1397686 1551153 1737175 1938919 2139957 2327730 
2138.811 2494956 2635810 2746132 2821629 2858016 2852379 2804188 2715923 
2142.668 2592642 2439506 2261710 2063645 1847635 1617032 1379570 1150843 
2146.526 954978 820311 774801 835748 1002201 1249358 1533796 1798823 1985083 
2150.865 2051860 1986149 1811765 1580051 1363051 1228390 1218522 1343108 
2154.723 1571537 1845671 2097071 2271203 2345086 2333160 2277698 2233933 
2158.580 2242992 2315471 2429377 2545446 2630442 2670747 2680082 2687150 
2162.438 2727493 2819195 2957052 3108601 3230059 3273858 3211599 3043430 
2166.295 2798352 2525116 2271769 2073932 1942513 1863241 1806775 1743096 
2170.152 1654614 1546697 1444392 1389675 1422618 1565884 1815791 2134896 
2174.010 2464398 2731527 2875993 2866154 2704253 2424279 2083121 1744427 
2177.867 1457923 1258596 1155727 1143269 1203537 1315124 1456926 1604194 
2181.725 1731719 1812098 1820782 1745358 1589994 1381565 1159249 971615 
2185.582 856862 832162 890262 1006319 1149448 1297443 1445855 1606423 
2189.439 1798623 2033750 2301847 2569476 2787347 2901143 2871257 2687483 
2193.297 2373170 1978793 1568678 1211245 960557 856231 917721 1145295 
2197.154 1517636 1992972 2516184 3018072 3431496 3705436 3811485 3753260 
2201.012 3564369 3297228 3003325 2722891 2478193 2273568 2106061 1973999 
2204.869 1882176 1840081 1854656 1921612 2020634 2117681 2177219 2171424 
2208.727 2094907 1965479 1821182 1702146 1641976 1653883 1727893 1834125 
2212.584 1934658 1993871 1986914 1906003 1758300 1563789 1348360 1140744 
2216.441 966534 844014 783730 786385 846936 954214 1098256 1270525 1466201 
2220.781 1681689 1911794 2142954 2355879 2520717 2606275 2588909 2458633 
2224.638 2227039 1923609 1595481 1293755 1062549 932099 909487 978622 
2228.496 1104335 1245370 1361023 1423183 1423349 1371593 1292591 1215133 
2232.353 1165063 1154398 1181508 1231281 1284848 1325161 1345368 1348991 
2236.211 1349490 1362685 1400113 1464672 1550222 1644337 1732650 1804745 
2240.068 1855887 1886702 1899814 1895853 1873224 1826838 1752012 1647463 
2243.926 1519232 1379570 1246035 1135163 1058828 1019902 1011168 1017943 
2247.783 1025449 1023522 1012662 1004592 1019670 1078492 1193702 1363184 
2251.640 1568478 1778694 1955826 2069571 2102632 2055655 1943944 1792667 
2255.498 1626676 1463076 1312299 1178817 1066667 984035 941363 948602 
2259.355 1008743 1112142 1236266 1348194 1417166 1420490 1352614 1226098 
2263.213 1067797 909487 777523 690631 654061 662921 705466 767797 834287 
2267.552 889200 918717 909553 854339 754089 620513 475136 343404 250598 
2271.892 211778 228386 288395 370563 450624 509701 539492 542710 530899 
2276.231 518459 518691 538430 577877 631131 689370 743833 787946 818120 
2280.571 833955 836578 827482 807962 778684 740182 693352 639991 582821 
2284.911 525260 470360 419845 374509 333423 295755 262368 235646 220231 
2289.250 221391 242907 286505 349671 426710 509635 591281 665244 729262 
2293.590 783099 828909 868914 904905 937677 967032 992869 1015485 1034582 
2297.929 1050159 1061220 1066933 1065671 1057267 1042985 1025615 1009275 
2301.787 997717 994031 999544 1014422 1037206 1066568 1100582 1136957 
2305.644 1173169 1205663 1230185 1243908 1244872 1234039 1214169 1190446 
2309.502 1167388 1148618 1136060 1129549 1127722 1128818 1130678 1131210 
2313.359 1127987 1119018 1102707 1080252 1055241 1034615 1027076 1040926 
2317.217 1081116 1147422 1232909 1325061 1409454 1472052 1503837 1502507 
2321.074 1472518 1424479 1371693 1328318 1305120 1308344 1337890 1388512 
2324.931 1451174 1514577 1570839 1613606 1641976 1658306 1666588 1669914 
2328.789 1668351 1658506 1636887 1601833 1557305 1512416 1479200 1467564 
2332.646 1479899 1509091 1540679 1557970 1547961 1506796 1441234 1367139 
2336.504 1302296 1261321 1251351 1270492 1311236 1363882 1422418 1483290 
2340.361 1545999 1609482 1669282 1717348 1744494 1742997 1711494 1655047 
2344.219 1586136 1519199 1467764 1439040 1433422 1444425 1463442 1482426 
2348.076 1495558 1500812 1499116 1494295 1492599 1500579 1524652 1567148 
2351.933 1625013 1688608 1744028 1776598 1775300 1736277 1663761 1566616 
2355.791 1456826 1345568 1241549 1152870 1088490 1058629 1074805 1145827 
2359.648 1273450 1450409 1660368 1884239 2102632 2302147 2475428 2618142 
2363.506 2727026 2796351 2818161 2785946 2698385 2562844 2394426 2214217 
2367.363 2041207 1888432 1760329 1654182 1563291 1482558 1411149 1352016 
2371.220 1310172 1288404 1285048 1293987 1306051 1311900 1304921 1282655 
2375.078 1246832 1201776 1153900 1109584 1074406 1052119 1044413 1050292 
2378.935 1066003 1085468 1102442 1111278 1109318 1097293 1079322 1059858 
2382.793 1043350 1030796 1020434 1007846 988252 959062 920643 876749 833358 
2387.132 796842 771515 759068 758304 766071 778352 791232 801655 806667 
2391.472 804410 793290 773241 746322 716816 691096 676062 677224 697136 
2395.812 734407 783199 835084 881132 913438 926952 920510 896537 859950 
2400.151 817323 775830 741775 719903 713033 721562 743434 774535 810120 
2404.491 844977 874624 897268 912541 922270 929675 937810 948469 961055 
2408.830 972412 977891 972013 950661 913172 862971 807066 754222 713132 
2413.170 689038 682600 689270 700952 708386 703873 684425 651871 613180 
2417.510 577578 555383 554553 578906 628045 696771 776892 857858 929476 
2421.849 982540 1010736 1010736 983337 933062 866922 795215 728200 676029 
2426.189 646229 642712 664746 706594 760063 814402 859917 889997 901285 
2430.528 894910 874392 844745 810717 776261 744696 719239 702910 698629 
2434.868 708054 730258 760594 792261 816726 827282 821174 801057 773705 
2439.208 747882 732183 730623 743335 765972 792493 816493 833490 841192 
2443.547 838968 827415 807763 782203 754056 727138 706594 696140 697468 
2447.887 709017 726939 745227 758769 765208 764080 757474 747716 736099 
2452.226 722259 704537 681837 655255 627813 605018 592144 592940 608037 
2456.566 635113 669292 705134 738091 764179 780842 786153 778220 756279 
2460.906 720799 674635 621873 568687 520648 481970 455566 442863 444753 
2465.245 461868 495006 543605 604885 673009 738854 792626 826187 835482 
2469.585 821938 791630 753491 715754 683529 658109 637668 618688 599344 
2473.924 580399 565668 561089 572303 602994 652833 717281 787348 852745 
2478.264 903178 931069 933892 914600 881397 844944 815697 800991 802717 
2482.604 817357 837839 856696 867851 869412 863004 852413 841026 831100 
2486.943 822668 814933 807962 803215 804012 814502 837408 873661 920942 
2491.283 975035 1031792 1086763 1136857 1178751 1209152 1223240 1216329 
2495.140 1185362 1131044 1058795 978124 900455 836677 793223 771847 769722 
2499.480 781904 802817 828511 856597 885182 911811 932929 943621 939736 
2503.819 918551 880534 828976 769756 710013 656616 616067 592741 589191 
2508.159 604420 633719 668861 699094 714526 708884 681837 640721 597851 
2512.499 568090 561985 584944 633786 700421 773407 843649 906033 960191 
2516.838 1008278 1052949 1095466 1134332 1166358 1188917 1200380 1201277 
2520.696 1193204 1177887 1156093 1127622 1092842 1053647 1014289 981079 
2524.553 961154 959560 978456 1016050 1067099 1124566 1180910 1230019 
2528.410 1266172 1285314 1283984 1259559 1212275 1144465 1062715 976231 
2532.268 896073 833192 795182 785655 803414 843184 896903 956306 1014190 
2536.607 1065206 1107425 1141342 1169382 1194499 1218954 1243177 1265109 
2540.465 1280229 1283685 1271057 1240685 1193802 1135562 1073576 1015419 
2544.322 968194 936814 923366 928313 950030 986094 1032589 1085235 1138286 
2548.662 1185296 1220316 1239024 1239489 1223705 1196260 1164465 1135694 
2552.519 1117058 1112740 1123469 1146491 1176325 1205696 1227526 1237595 
2556.377 1234803 1223140 1208953 1200380 1203537 1220183 1246500 1273716 
2560.234 1291827 1292060 1271223 1233109 1188120 1149050 1128087 1132472 
2564.092 1161541 1208288 1261586 1310837 1348459 1373056 1388512 1401775 
2567.949 1419692 1445988 1480098 1517436 1551585 1576792 1590326 1593818 
2571.806 1591757 1589927 1592721 1601467 1613140 1622053 1622552 1610912 
2575.664 1587699 1557937 1529972 1512948 1513147 1532466 1568013 1612708 
2579.521 1657674 1695227 1720276 1731320 1729823 1719444 1704708 1689972 
2583.379 1679328 1676234 1683386 1702313 1732451 1771408 1814494 1856686 
2587.236 1893291 1922144 1944077 1963015 1983885 2011081 2046334 2087949 
2591.094 2130933 2168394 2193403 2201462 2190739 2162800 2122409 2076762 
2594.951 2033284 2000062 1983552 1987680 2012911 2055389 2107792 2160069 
2598.808 2202494 2227972 2234000 2223342 2203127 2182447 2168760 2166230 
2602.666 2174155 2188041 2200563 2205858 2200030 2182314 2155074 2122343 
2606.523 2088815 2058718 2035048 2021300 2019735 2032585 2059783 2099768 
2610.381 2146983 2193969 2232901 2257180 2264508 2256881 2240827 2224108 
2614.238 2213951 2214050 2224008 2240461 2258613 2274967 2288523 2300948 
2618.095 2314738 2331794 2351715 2371637 2387296 2395059 2393226 2382998 
2621.953 2367640 2351415 2337524 2327263 2320601 2316371 2314672 2315838 
2625.810 2321167 2331228 2345019 2359744 2371004 2375969 2373603 2366973 
2629.668 2361776 2364175 2378700 2404788 2437641 2468763 2489757 2495322 
2633.525 2485491 2465431 2444438 2432143 2434508 2453335 2484792 2522250 
2637.383 2557311 2583776 2598242 2601175 2596042 2587176 2578843 2574009 
2641.240 2573476 2576443 2580909 2585042 2587376 2588175 2588909 2592542 
2645.097 2602008 2619609 2646377 2681149 2721224 2762937 2802254 2836237 
2648.955 2863152 2882798 2896473 2905580 2912218 2917955 2924260 2931598 
2652.812 2939738 2947978 2955050 2960054 2962489 2963690 2965825 2972097 
2656.670 2985642 3008496 3040327 3078801 3119814 3158762 3191839 3216840 
2660.527 3233597 3243212 3247518 3247952 3245381 3240040 3231928 3221413 
2664.385 3209062 3196078 3183862 3173581 3166238 3163034 3164636 3171278 
2668.242 3182493 3196946 3212200 3225686 3235266 3240507 3243312 3246750 
2672.099 3254862 3270319 3293421 3321400 3349748 3373623 3389484 3396864 
2675.957 3397265 3394059 3390186 3387147 3384709 3381503 3376294 3368981 
2679.814 3360767 3353521 3348479 3345440 3342202 3336125 3324872 3308379 
2683.672 3288480 3269050 3253694 3244780 3242243 3243913 3247017 3249454 
2687.529 3250623 3251924 3255864 3264176 3277296 3293822 3310783 3325106 
2691.386 3334021 3335924 3330348 3317594 3298029 3272656 3242811 3210832 
2695.244 3180290 3154891 3138036 3131728 3135433 3146246 3159730 3171278 
2699.101 3177253 3176018 3168074 3155925 3142942 3132296 3126389 3125988 
2702.959 3130327 3137669 3145445 3151853 3155992 3158962 3163135 3171779 
2706.816 3187400 3210531 3239539 3270619 3299832 3324405 3344539 3363438 
2710.674 3386312 3417803 3459683 3509952 3562097 3607700 3639942 3655246 
2714.531 3655112 3645890 3636701 3635766 3648596 3676230 3715495 3760412 
2718.388 3803730 3839530 3863599 3874431 3872926 3862329 3847419 3833947 
2722.246 3827763 3833279 3853035 3886065 3928759 3975069 4017973 4051785 
2726.103 4072454 4078742 4072086 4055865 4033992 4010516 3988746 3970221 
2729.961 3955308 3942367 3928859 3911306 3886633 3853369 3811986 3764924 
2733.818 3716364 3670850 3631656 3600517 3576896 3559391 3545594 3533735 
2737.676 3522512 3510921 3497426 3480224 3456711 3424917 3384743 3338696 
2741.533 3291819 3250923 3222782 3211599 3218376 3239706 3270152 3302903 
2745.390 3331851 3353454 3366477 3371419 3370250 3364340 3354189 3339230 
2749.248 3318328 3290684 3256298 3217241 3177353 3142008 3116977 3106732 
2753.105 3113740 3136768 3171746 3211633 3249721 3279900 3299464 3308512 
2756.963 3310282 3308713 3306977 3306743 3307878 3309013 3309480 3309714 
2760.820 3312218 3320365 3336659 3361936 3394493 3430494 3465061 3494219 
2764.677 3516065 3531731 3544158 3556986 3573823 3596407 3624806 3657919 
2768.535 3693707 3730601 3767398 3803228 3837591 3870018 3900073 3927355 
2772.392 3952231 3975504 3998343 4021685 4046333 4072487 4099780 4128011 
2776.250 4157784 4190970 4230315 4278899 4338566 4409321 4488121 4569381 
2780.107 4645531 4709837 4757571 4787487 4802495 4809330 4816299 4831509 
2783.965 4861396 4909783 4977380 5062787 5163131 5274634 5392841 5513262 
2787.822 5630628 5739934 5837681 5922485 5995816 6062406 6128535 6200657 
2791.679 6282910 6375871 6475982 6577023 6671796 6754879 6823974 6880727 
2795.537 6929844 6977890 7030621 7092116 7163826 7244408 7330970 7419976 
2799.394 7508629 7595648 7682043 7770649 7865548 7971335 8091088 8225733 
2803.252 8373187 8528633 8685384 8837019 8979032 9109925 9231686 9349282 
2807.109 9468807 9595682 9733640 9883743 10045426 10216261 10394154 10577247 
2810.967 10764866 10956679 11152825 11353175 11556953 11763141 11970244 
2814.342 12176970 12382703 12587476 12792208 12998609 13208898 13424963 
2817.717 13648486 13880573 14122096 14373994 14637894 14916185 15212019 
2821.092 15528006 15866043 16225945 16605562 17001842 17412278 17836500 
2824.468 18276964 18738630 19228148 19751992 20314450 20917830 21562960 
2827.843 22250864 22984120 23767578 24607990 25512854 26487786 27535898 
2831.218 28658036 29853634 31123576 32472360 33908924 35447308 37105512 
2834.593 38901640 40853500 42975504 45277312 47763412 50432784 53280040 
2837.969 56294600 59464456 62776440 66217756 69778728 73451216 77228680 
2841.344 81106144 85078064 89138832 93283600 97507792 101807272 106177800 
2844.719 110610920 115093472 119603664 124108880 128570256 132938456 
2847.612 137158176 141171648 144914928 148321424 151324768 153855808 
2850.505 155852160 157260400 158041184 158176080 157669504 156551008 
2853.398 154868256 152688256 150086176 147135744 143910512 140474928 
2856.291 136884304 133191528 129443112 125683920 121958840 118306936 
2859.184 114764712 111363928 108128944 105081640 102240352 99620616 97236672 
2862.560 95099248 93214192 91581536 90194000 89037504 88092464 87337184 
2865.935 86748456 86303384 85981288 85760224 85616456 85524056 85450672 
2869.310 85361368 85219864 84989000 84639128 84147376 83500992 82698568 
2872.685 81749448 80672112 79491480 78239448 76951016 75662096 74410856 
2876.061 73231560 72154392 71204400 70397440 69742616 69241952 68893312 
2879.436 68691912 68632920 68713184 68930592 69284000 69772424 70393456 
2882.811 71143664 72018032 73010024 74113616 75321752 76627760 78025016 
2886.186 79505760 81061336 82682936 84360912 86086392 87851528 89648928 
2889.562 91472848 93317408 95176136 97042776 98910688 100773304 102625176 
2892.937 104462016 106279360 108073688 109840824 111577048 113280192 
2895.830 114950288 116590456 118207136 119809168 121405200 123003384 
2898.723 124610440 126229968 127865256 129518912 131193864 132892744 
2901.616 134617776 136370000 138149376 139955408 141788224 143650208 
2904.509 145545552 147480608 149462432 151496816 153588672 155740672 
2907.402 157954272 160230240 162568912 164970768 167435728 169963968 
2910.295 172555856 175212496 177936368 180729360 183591392 186517776 
2913.188 189496096 192505408 195518880 198503248 201425728 204254768 
2916.081 206959792 209512208 211879968 214025264 215906672 217476240 
2918.974 218685376 219490272 219851520 219739872 219136688 218034768 
2921.867 216438960 214366384 211845792 208911872 205606480 201973200 
2924.760 198054736 193896400 189543984 185043568 180443504 175787168 
2927.654 171111552 166446720 161813472 157227792 152703408 148253744 
2930.547 143893216 139634752 135486864 131452184 127526912 123704240 
2933.440 119977288 116343584 112806024 109373888 106058288 102870840 
2936.333 99820504 96912456 94149624 91533264 89064224 86744648 84576400 
2939.708 82562144 80705392 79009896 77481328 76127744 74957840 73979624 
2943.083 73198936 72616096 72226464 72020576 71987336 72115200 72395424 
2946.458 72821440 73387296 74085320 74903544 75822576 76818480 77861984 
2949.834 78921592 79968096 80972448 81907984 82750600 83475848 84061648 
2953.209 84489736 84745912 84823040 84720984 84445136 84005144 83413216 
2956.584 82682248 81824848 80853376 79779208 78611312 77356272 76018072 
2959.959 74597616 73094280 71506936 69836200 68085272 66260368 64371764 
2963.335 62432456 60456680 58459864 56456184 54456788 52470408 50501632 
2966.710 48553708 46628648 44730260 42864568 41040288 39267444 37557008 
2970.085 35918280 34357248 32877638 31479642 30161920 28921132 27752712 
2973.460 26651226 25610234 24623524 23685480 22792614 21944032 21140860 
2976.836 20385840 19679732 19021156 18404676 17821758 17262138 16717872 
2980.211 16184364 15662674 15158148 14677854 14228562 13813014 13429610 
2983.586 13073144 12736589 12413966 12101872 11800217 11511290 11237517 
2986.961 10980840 10740480 10514103 10297650 10087985 9882116 9678952 
2990.337 9477917 9278395 9079812 8881082 8681430 8480989 8280575 8082211 
2994.194 7887817 7698873 7516214 7339462 7167868 7000719 6837439 6677786 
2998.052 6521353 6367532 6215178 6063515 5912073 5761255 5612234 5466150 
3001.909 5323973 5185161 5048674 4912766 4776599 4641077 4508309 4381607 
3005.766 4263975 4156445 4058340 3966977 3879345 3793535 3709781 3630286 
3009.624 3558255 3496491 3445422 3403042 3364607 3325373 3281236 3231261 
3013.481 3176719 3121449 3070225 3026414 2991848 2965859 2945943 2928363 
3017.339 2909549 2886667 2858283 2824097 2785446 2743964 2702119 2662079 
3021.196 2625376 2592975 2564510 2538880 2514385 2489257 2462065 2432043 
3025.053 2399457 2365641 2332860 2303813 2280862 2265441 2257247 2253583 
3028.911 2249853 2240261 2219746 2185311 2137426 2079692 2019436 1963149 
3032.768 1916753 1883307 1862509 1851861 1848134 1848367 1850397 1852759 
3036.626 1853791 1851095 1841712 1822379 1791569 1750315 1702146 1653284 
3040.483 1609682 1576559 1555642 1545500 1542541 1541909 1539847 1534494 
3044.341 1525283 1513613 1501078 1488776 1477438 1467365 1458688 1451640 
3048.198 1446886 1444658 1444359 1444725 1443860 1439140 1428535 1410517 
3052.055 1384756 1351750 1313196 1271456 1229121 1189416 1155129 1128220 
3055.913 1109717 1099851 1097227 1100183 1106860 1115297 1124001 1131110 
3059.770 1135229 1134631 1128785 1117756 1103106 1087693 1074672 1066966 
3063.628 1065671 1069956 1077429 1084338 1087095 1083309 1071915 1052883 
3067.485 1026744 994330 956671 914932 871869 831432 798203 776892 770519 
3071.825 780311 804311 839034 879770 921739 961320 995691 1022493 1040361 
3076.164 1047901 1044812 1031527 1009906 982142 950661 917323 882427 846471 
3080.504 809954 775266 746720 729860 729959 749475 786883 835881 886676 
3084.844 929011 954181 957435 939238 904738 861411 817987 781904 758072 
3089.183 748579 752396 766005 784361 802020 814402 819083 816029 808095 
3093.523 799431 793921 793356 796941 801190 801821 794850 779348 756910 
3097.862 731552 707424 687677 673076 662390 652999 643143 632558 622504 
3102.202 615370 612848 615370 621409 628510 633487 634118 630069 622039 
3106.542 611488 600074 588760 577977 567161 556013 543439 529141 513118 
3110.881 496532 481505 471023 469597 480775 506417 545629 593371 642148 
3115.221 682401 706262 708984 690764 656550 614275 572469 538596 516800 
3119.560 508242 511559 523369 540122 558501 575090 587267 592741 590120 
3123.900 578906 559563 534051 504427 473843 445317 422067 406612 401173 
3128.240 406479 421901 444521 470061 493082 508673 513947 508607 495570 
3132.579 479979 467839 463859 470791 488836 515739 547620 581029 611853 
3136.919 636706 653132 659237 654459 639792 617958 592708 568753 549809 
3141.258 537766 532259 530899 530169 526885 519421 507844 494508 482533 
3145.598 475103 474373 480775 493447 510564 529605 549113 568454 587764 
3149.938 608203 630667 655289 680443 703209 719870 726972 722989 709515 
3154.277 690498 671184 657180 651506 654359 662855 673242 682567 690631 
3158.617 699625 712867 732946 758603 784626 802219 802883 780942 736863 
3162.956 676792 611952 554023 511061 486050 475833 473179 470095 461338 
3167.296 445185 424322 403727 388935 383563 389002 404390 427506 455865 
3171.635 486680 517563 545596 567393 580332 582422 573763 556776 536041 
3175.975 517099 504725 502370 510630 527748 549378 571241 588229 596524 
3180.315 593770 579038 553359 519156 480543 442631 410758 389864 383662 
3184.654 393313 417125 451221 489300 523468 547387 555051 543970 515208 
3188.994 473710 427108 384193 353418 340320 346554 369568 403892 441901 
3193.333 476629 502669 517829 522340 518691 510663 502105 496399 495437 
3197.673 499517 507047 515009 519753 517596 506085 484922 455931 422896 
3202.013 390030 360648 336639 316843 298640 278945 255770 228950 200838 
3206.352 174982 155227 143825 141372 146676 157547 171900 188109 205678 
3210.692 224110 242874 260445 274502 282791 284051 278315 266943 252654 
3215.031 237271 221822 205811 188175 168187 146344 125795 109886 102760 
3219.371 106605 121022 142433 165966 185988 198882 203026 199214 188905 
3223.711 173458 153537 128777 98651 63787 26673 -8217 -35683 -51189 -52182 
3228.532 -39228 -15307 14612 45627 73895 97093 113896 124005 127419 123972 
3233.354 114294 100043 83439 68128 57690 54111 57723 66770 77938 87051 91128 
3238.658 88278 78733 63688 45561 26971 10470 -1126 -5964 -2418 9907 29158 
3243.962 52255 74094 90465 97955 96099 87714 76811 68460 65510 69123 76877 
3249.266 85825 91890 92321 85858 73199 55668 34858 12060 -11762 -35717 
3254.088 -57914 -75804 -86305 -86968 -76367 -55131 -25313 9410 44666 76778 
3258.910 102263 118569 123872 117244 99181 70978 36515 397 -31575 -53938 
3263.731 -63215 -58080 -40752 -15208 12557 36813 53183 59943 57855 49074 
3268.553 37310 25580 15473 7455 364 -7090 -15738 -25015 -32967 -36744 -33696 
3273.857 -22795 -4804 18356 43440 68029 90631 111212 130435 148631 165005 
3278.679 178297 186916 190396 190264 189733 192518 201236 214993 230342 
3283.019 241050 240818 226397 198982 163978 128811 100838 83406 75817 72967 
3287.840 69156 59976 44799 27170 12789 7322 13187 28529 48113 64748 72006 
3293.144 66770 49173 23260 -5732 -32735 -52944 -64209 -65335 -57053 -40786 
3297.966 -19581 3711 25381 42778 53813 58054 55801 48842 38271 25282 10603 
3303.270 -5268 -21702 -37340 -50824 -60465 -65335 -64672 -58345 -45921 
3307.610 -26506 762 36250 78269 123541 166464 200672 221192 225834 216584 
3312.431 197623 175148 154001 136301 121486 106969 90200 70647 50234 33002 
3317.253 23360 23824 33731 49869 67101 80788 87648 87615 82312 74425 66637 
3322.557 60241 55204 50764 45164 37343 25845 9178 -13054 -40686 -71497 
3327.379 -101212 -123506 -131687 -120558 -87266 -34060 33267 105544 174088 
3331.719 230508 269960 290948 294694 283587 261174 231005 196363 161227 
3336.058 129341 103953 87648 80589 80920 84400 86422 82776 71840 54774 36117 
3341.362 21835 17693 27601 51427 85394 122314 154100 173955 178794 169679 
3346.184 152211 134644 124933 128678 146941 176540 210717 241813 264026 
3350.523 274337 273508 265153 254212 245029 240122 239691 242277 245294 
3354.863 245658 241481 231071 213899 190827 163248 133815 105776 82942 68095 
3359.685 63655 69653 84500 105113 127419 147670 162784 171270 173193 169745 
3364.507 163514 157481 154100 154929 159735 166199 170541 169082 158409 
3368.846 138323 111178 82113 57027 40823 35885 40591 50234 59115 61434 54807 
3374.150 39828 20775 2915 -8482 -10470 -3479 8979 20841 26309 20411 1656 
3379.454 -28063 -63712 -97635 -122512 -132416 -126056 -105651 -77758 -50890 
3383.794 -31940 -25214 -29455 -39493 -47147 -45093 -29190 695 39928 82080 
3388.615 120525 150520 170872 182308 187380 188772 188341 186849 185192 
3392.955 183435 181877 179855 176640 170110 157713 138787 113797 85891 60308 
3397.777 41916 33798 35753 44103 54144 61070 63058 61699 61269 66438 80523 
3403.081 102628 128148 150123 161127 156155 134346 98850 55701 12889 -22066 
3407.903 -43602 -48141 -34424 -3942 39696 91426 145283 195004 236077 266081 
3412.724 285245 295755 301093 303282 303414 299800 289522 270391 241846 
3417.064 205380 166099 130070 103025 88742 88211 98850 115620 133086 147206 
3421.886 155691 159006 159437 159934 162022 166563 172397 176640 176905 
3426.225 171403 159801 144057 127452 113432 105147 103688 108361 116514 
3430.565 125529 133119 138621 142334 145880 150686 157116 164177 169944 
3434.905 172861 171966 167889 162354 157713 154995 154034 153073 149062 
3439.244 139350 122911 100805 76612 54442 38105 29788 28463 30550 31246 
3444.066 26408 13618 -6162 -29355 -49698 -60266 -56224 -35882 -1921 39298 
3448.888 79197 110052 126060 124867 108063 80390 49505 23095 7587 6527 18986 
3454.192 40657 64483 83340 91260 85693 67996 42678 15970 -6527 -21238 -27533 
3459.496 -28096 -27632 -30184 -38831 -53839 -73054 -92831 -109692 -121849 
3463.835 -129402 -133807 -137385 -141459 -145599 -148249 -146891 -139869 
3467.693 -126652 -109162 -91009 -76201 -67919 -68383 -77460 -93427 -113104 
3472.032 -132814 -148911 -158616 -160041 -152853 -138146 -118173 -96144 
3475.890 -75903 -59902 -49963 -46849 -50228 -59339 -74015 -93527 -117146 
3480.229 -142386 -165903 -181635 -184053 -168752 -135099 -86139 -28626 28628 
3484.569 78567 115388 136997 143991 139052 125529 106638 84897 62097 40259 
3489.391 22001 9476 4174 5268 10470 15374 15573 8051 -7156 -26804 -45855 
3494.695 -58742 -61923 -55032 -41117 -25015 -11663 -3942 -2385 -5334 -10304 
3499.516 -15108 -18422 -20178 -21172 -21735 -22199 -22928 -24452 -27765 
3503.856 -34159 -45258 -60299 -77493 -92931 -102604 -102405 -90181 -66196 
3508.196 -33430 4208 42015 76016 104219 125728 139583 145416 141637 127518 
3513.017 104053 75021 45561 22531 10536 11265 21471 34029 40756 34460 12524 
3518.321 -22663 -63248 -100053 -125228 -134437 -128276 -111183 -90479 -72226 
3522.661 -59637 -53309 -50824 -49333 -47644 -47047 -50990 -63016 -84748 
3527.000 -114032 -145367 -170507 -182000 -175773 -152853 -119166 -83092 
3530.858 -54137 -38997 -40686 -58378 -87597 -122214 -155337 -181437 -196076 
3535.198 -197400 -185345 -162624 -133277 -101610 -72424 -48439 -31211 -21238 
3539.537 -17858 -20642 -28991 -43072 -62883 -88160 -117411 -146957 -171501 
3543.877 -184683 -180609 -155635 -110918 -52182 12060 72105 120293 152509 
3548.216 168154 168883 157746 137561 111410 82445 54508 31942 18224 14744 
3553.038 19814 28231 33731 30583 15805 -10304 -44066 -79448 -110819 -133874 
3557.860 -147123 -152224 -151859 -149640 -146427 -141923 -133642 -118703 
3561.717 -95548 -64407 -26705 14844 57789 101070 144057 186518 226662 259782 
3566.539 278813 275928 247316 195601 128579 55933 -14148 -75108 -123506 
3570.879 -157656 -177694 -185510 -184153 -177529 -168851 -160372 -152456 
3574.736 -144009 -132714 -117510 -98661 -79150 -63513 -57053 -63413 -83721 
3579.076 -114496 -149276 -180079 -199884 -204488 -193592 -170805 -141260 
3582.933 -110322 -81833 -57450 -36445 -16964 2750 23625 44335 61434 70084 
3587.755 67002 51393 25083 -8449 -45821 -84119 -120558 -152025 -174680 
3592.094 -184418 -177131 -150270 -103796 -41945 27667 95668 152973 193114 
3596.434 214065 217214 206938 189236 171204 157912 153404 157779 168353 
3600.774 179126 183170 174916 151349 113034 64085 11265 -37373 -73915 -90214 
3605.595 -81800 -47478 7852 73232 133053 172165 182441 166232 134876 103987 
3610.417 86952 90829 115520 152973 191026 215822 218673 199247 165867 129838 
3615.239 100341 81583 72006 66306 56696 37177 5699 -33894 -73186 -102537 
3620.061 -116318 -114396 -100980 -82297 -63678 -49499 -41978 -42078 -48704 
3624.400 -58875 -68283 -71298 -62883 -39593 -1358 45926 88708 108461 91691 
3629.222 41585 -22663 -79514 -116516 -132416 -131588 -120458 -104757 -88690 
3633.562 -73418 -57980 -41249 -22795 -4605 9774 16633 13916 2683 -13087 
3638.384 -27897 -37075 -38864 -35551 -31940 -33497 -43436 -61293 -82429 
3642.723 -99191 -104657 -93527 -63778 -16003 46655 119862 198717 277752 
3647.063 352357 420110 480974 535278 580963 610426 612483 578375 507711 
3651.402 409597 297579 185291 83240 198 -57583 -86670 -86703 -62950 -27997 
3656.224 430 7786 -12226 -56622 -116682 -181370 -240618 -286415 -312242 
3660.564 -314295 -291680 -246977 -184881 -113535 -42045 19648 62826 80655 
3664.903 70316 32936 -26870 -101577 -180476 -252209 -304792 -327174 -312904 
3669.243 -264428 -195281 -124433 -67521 -27400 2982 35090 79363 142632 
3673.583 226298 323243 413776 467972 463593 404290 317042 227922 151515 
3677.922 89272 36382 -14081 -67190 -125791 -189352 -255255 -319990 -379682 
3682.262 -430330 -467766 -487360 -486334 -463794 -421525 -363858 -296282 
3686.119 -224954 -154443 -89750 -34789 6229 29059 30650 9973 -30647 -85775 
3690.941 -148050 -209621 -265819 -313765 -353859 -387760 -416096 -437976 
3694.798 -449826 -447344 -427483 -391070 -343795 -294594 -252739 -224491 
3698.656 -209952 -203925 -197997 -183954 -157159 -121021 -85841 -64705 
3702.513 -66064 -89850 -128276 -170308 -204819 -224590 -226080 -209422 
3706.371 -176502 -130495 -75174 -14247 46787 99844 135572 143494 118370 
3710.710 61600 -14810 -94057 -161796 -211708 -245751 -270124 -290024 -307143 
3715.050 -320254 -326148 -322671 -310255 -292607 -275488 -265157 -264262 
3718.907 -270720 -277342 -275289 -257176 -220451 -168752 -110454 -55794 
3722.765 -11497 21206 45462 65676 83837 97093 98021 77938 32174 -36545 
3727.586 -119067 -203726 -279627 -338829 -377563 -394314 -389448 -364884 
3731.444 -323930 -270786 -210283 -147023 -84549 -25876 25745 65974 91194 
3735.783 100672 96695 84831 69620 53083 35057 14049 -11033 -39361 -67919 
3740.605 -91506 -103365 -96972 -66826 -10039 71045 163779 244896 290052 
3744.945 289721 254212 204021 154299 111609 77341 50963 32870 26011 35653 
3749.767 65378 112206 163116 198385 200706 164906 99811 23194 -47312 -98761 
3754.588 -125493 -128905 -115655 -95912 -79779 -75936 -87531 -112243 -142850 
3758.928 -171633 -192797 -204653 -208495 -207137 -202799 -195711 -185444 
3762.785 -171865 -155801 -140068 -128541 -124897 -131025 -145102 -163253 
3766.643 -181370 -197831 -213860 -233002 -258997 -293667 -334260 -373988 
3770.500 -403683 -416560 -410369 -387230 -351972 -310421 -268832 -232075 
3774.358 -204123 -187829 -183225 -189220 -203196 -222040 -242572 -262408 
3778.215 -279991 -295455 -309030 -321016 -330816 -337074 -337471 -331147 
3782.073 -318334 -300752 -282375 -267309 -259626 -260653 -269064 -280786 
3785.930 -291746 -299858 -304991 -309692 -316778 -327969 -342868 -359289 
3789.787 -374154 -385442 -393288 -400008 -408648 -421624 -438142 -454228 
3793.645 -462801 -456380 -428807 -378557 -310984 -238764 -176502 -134635 
3797.502 -115291 -112442 -115589 -114463 -102703 -80243 -55495 -44099 -62420 
3801.842 -115953 -193062 -273269 -338762 -377663 -384582 -359190 -305090 
3805.699 -232869 -158716 -103365 -81435 -93494 -127017 -164744 -192433 
3809.557 -203064 -196440 -177959 -155900 -137881 -128209 -126354 -127017 
3813.414 -122876 -106645 -75572 -34259 5367 28827 27999 7388 -19416 -36512 
3818.236 -33397 -5699 43474 102793 150951 163050 124933 43308 -58510 -156066 
3823.058 -234724 -290455 -324592 -341312 -345185 -341245 -335054 -331379 
3826.915 -332770 -339391 -347106 -349787 -340947 -315487 -271448 -211608 
3830.772 -144572 -82992 -39096 -20873 -28063 -53773 -86703 -116019 -134006 
3835.112 -136921 -126255 -107307 -89154 -81005 -92102 -127613 -187067 
3838.969 -262607 -341047 -407258 -446913 -450687 -415732 -346278 -253699 
3842.827 -156066 -74015 -23458 -12623 -38632 -90943 -155039 -218695 -273898 
3847.167 -317076 -348496 -369651 -382794 -387429 -381867 -362103 -323930 
3851.024 -263998 -183126 -88558 397 56563 60275 16401 -51752 -119531 -173256 
3855.846 -209588 -229823 -236910 -233465 -222007 -204123 -181470 -155536 
3859.703 -128938 -103895 -83025 -68449 -60995 -60167 -64772 -74081 -88723 
3864.043 -110620 -142088 -182960 -230617 -279428 -323665 -358263 -379285 
3867.900 -383721 -369949 -339127 -296183 -250553 -212171 -186040 -172925 
3871.758 -170441 -177297 -193492 -219159 -253235 -291084 -325618 -349622 
3875.615 -358527 -351476 -330585 -299560 -261845 -221179 -180940 -143844 
3879.472 -112806 -89817 -76400 -71795 -74147 -79580 -84086 -84582 -78951 
3883.812 -67157 -52017 -39593 -37837 -52348 -83390 -125957 -172428 -215947 
3888.152 -252308 -278170 -291183 -288832 -270786 -239062 -200116 -164611 
3892.009 -143446 -143645 -166466 -207402 -258070 -308600 -350317 -375974 
3895.866 -380808 -363560 -325717 -271713 -208131 -144009 -88458 -49863 
3899.724 -33397 -39593 -64308 -99655 -137120 -169215 -191008 -202169 -206674 
3904.063 -210151 -217238 -229193 -243533 -255222 -260024 -256547 -245785 
3907.921 -232041 -219656 -212900 -213297 -219722 -228498 -235353 -237572 
3911.778 -234360 -227803 -221047 -217172 -217238 -220484 -224226 -226014 
3915.636 -224358 -219623 -213595 -209687 -209787 -214026 -221676 -231048 
3919.493 -241281 -252143 -263898 -276316 -288700 -298302 -302441 -297938 
3923.351 -283038 -258368 -227173 -194519 -165638 -144506 -132681 -129766 
3927.208 -134702 -145400 -160405 -177297 -193426 -205746 -211807 -209787 
3931.065 -200348 -186040 -170904 -159080 -152588 -152025 -156000 -162591 
3934.923 -170408 -179350 -190379 -205018 -224259 -247904 -274163 -299594 
3938.780 -320751 -334723 -340484 -338862 -333068 -327969 -328631 -339226 
3942.638 -361540 -392990 -428708 -461510 -485208 -495899 -491761 -474187 
3946.495 -446417 -413580 -380510 -351443 -327605 -307308 -287640 -265256 
3950.353 -238201 -207700 -177131 -151859 -137782 -139041 -157523 -191936 
3954.210 -238102 -288733 -335783 -372200 -392295 -393950 -378557 -350151 
3958.067 -313997 -275322 -238334 -205581 -178721 -158914 -147951 -147785 
3961.925 -159742 -184418 -218629 -258203 -296746 -328631 -350416 -361176 
3965.782 -364156 -363394 -363924 -369088 -379053 -392063 -404245 -412124 
3969.640 -413249 -407357 -395506 -379781 -361673 -342735 -324194 -307275 
3973.497 -294494 -288700 -292607 -307209 -330949 -359719 -387396 -407423 
3977.354 -414905 -407721 -386369 -353760 -315122 -275289 -239029 -210615 
3981.212 -192399 -186637 -193227 -210979 -236479 -265819 -293799 -316513 
3985.069 -331147 -337570 -337272 -333266 -328565 -325122 -322870 -320652 
3988.927 -316149 -307308 -292773 -272905 -249692 -225782 -204554 -188657 
3992.784 -180741 -181635 -191571 -209224 -232041 -256613 -279130 -296150 
3996.642 -305554 -306911 -301315 -291216 -279627 -269792 -263865 -262673 
4000.499 -266017 
##END=
