##TITLE=eg_1 25.08. 11:14:10 2026 (GMT+02:00)
##JCAMP-DX=5.01  $$ Nicolet v. 970
##DATATYPE=INFRARED SPECTRUM
##ORIGIN=Vojna akademija
##OWNER=Nicolet
##LONGDATE=2026/08/25
##TIME=11:14:40
##SPECTROMETER/DATA SYSTEM=Nicolet iS20
##DATA PROCESSING=
Ratio against background
%Transmittance->Absorbance
Truncated
ElementMultiply or ElementDivide
##COMMENTS=
Number of sample scans: 8
Collection length: 11,90 sec
Sample gain: 8,0
Background collected on: Tue Aug 25 11:13:46 2026 (GMT+02:00);
Number of background scans: 8
Background gain: 8,0
Sample spacing:  1,000
Number of scan points: 12415
Resolution points: 8286
Number of FFT points: 65536
Apodization: N-B strong;
Phase correction: Mertz;
Laser frequency: 15798,00 cm-1
Number of rejected sample scans: 0
Number of rejected background scans: 0
Bench serial number: BER2010005;
##RESOLUTION= 4,000
##XUNITS=1/CM
##YUNITS=ABSORBANCE
##FIRSTX=400.156891
##LASTX=4000.123047
##FIRSTY=0.145461
##MAXX=4000.123047
##MINX=400.156891
##MAXY=0.483708
##MINY=-0.071305
##XFACTOR=1.000000
##YFACTOR=1.000000E-009
##NPOINTS=7468
##DELTAX=0.482117
##ZPD=6100
##XYDATA=(X++(Y..Y))
400.157 145460960 145872272 146972912 148181392 149278720 150400864 
403.050 151800784 153618672 155710912 157687696 159057808 159540080 
405.942 159241600 158657376 158391280 158888480 160227408 162127776 
408.835 164096704 165702848 166809840 167599760 168427456 169565648 
411.728 171046960 172634096 173954720 174693104 174775840 174377104 
414.620 173787392 173210000 172688592 172107616 171318320 170316752 
417.513 169405280 169179920 170251920 172644560 175564656 177860960 
420.406 178844624 178477264 177210688 175614096 174180560 173165120 
423.298 172574304 172259968 172086640 172081168 172465056 173499408 
426.191 175307904 177729376 180355520 182635264 184113568 184633760 
429.084 184363280 183695120 183018896 182576336 182365824 182237040 
431.977 182055312 181849824 181828176 182256608 183264592 184716560 
434.869 186191328 187171984 187264176 186483008 185262192 184265824 
437.762 184005536 184638128 185926656 187406272 188583248 189158784 
440.655 189143024 188814160 188550320 188612928 189050528 189707744 
443.547 190380688 190966240 191521392 192183040 193033760 194002816 
446.440 194866512 195368064 195397088 195084912 194772064 194813504 
449.333 195430336 196585280 198027232 199397360 200434960 201098416 
452.225 201593920 202215808 203162064 204374608 205590448 206478464 
455.118 206856016 206793744 206618224 206745920 207446096 208626016 
458.011 209824208 210451008 210170000 209095456 207680464 206458304 
460.904 205782016 205752960 206201504 206838688 207423328 207936464 
463.796 208586096 209687504 211454800 213890288 216749952 219662992 
466.689 222254016 224311424 225831712 226936624 227725856 228176336 
469.582 228159888 227562720 226426448 225048784 223898464 223468096 
472.474 224010000 225382256 227096736 228593008 229535200 229891920 
475.367 229882928 229791216 229817472 229987312 230193136 230309040 
478.260 230322240 230378416 230713248 231498176 232735632 234212240 
481.152 235598816 236575008 237019712 237053312 236969520 237040848 
484.045 237378256 237874064 238306960 238498144 238467888 238431792 
486.938 238691808 239433888 240608000 241915760 242957584 243435856 
489.831 243320848 242893552 242633536 243000256 244187936 246055536 
492.723 248177712 250086896 251457664 252250784 252646448 252909120 
495.616 253221984 253632240 254088576 254541248 255025984 255686368 
498.509 256687248 258123488 259935376 261929632 263842368 265496736 
501.401 266905904 268283568 269897600 271894752 274181440 276471808 
504.294 278427168 279849984 280794624 281553600 282523200 283996800 
507.187 286045696 288474144 290948704 293165760 295021920 296614976 
510.079 298146560 299758944 301440928 303012064 304246592 304990912 
512.972 305275680 305285120 305262560 305355744 305542624 305628736 
515.865 305362912 304565120 303232800 301527584 299681120 297851680 
518.758 296050368 294177472 292130496 289907328 287637920 285514752 
521.650 283683104 282153760 280780544 279310272 277489088 275187648 
524.543 272446304 269462240 266477968 263686896 261144016 258787664 
527.436 256514736 254279696 252127232 250170112 248507712 247172928 
530.328 246094800 245132592 244128048 242984560 241697840 240334224 
533.221 238970976 237644048 236331104 234980400 233559712 232103152 
536.114 230705984 229490640 228541616 227862192 227373904 226960672 
539.007 226539632 226094976 225681120 225370944 225194624 225098016 
541.899 224954000 224618848 224019504 223201008 222326560 221601120 
544.792 221210512 221237008 221642992 222303968 223080880 223877696 
547.685 224652592 225395216 226073664 226606224 226888784 226843104 
550.577 226491776 225971328 225511040 225334160 225568032 226203984 
553.470 227103728 228065296 228898656 229505904 229881216 230072736 
556.363 230119872 230019776 229734912 229241472 228581744 227880048 
559.255 227301616 226996464 227019904 227313680 227731984 228129776 
562.148 228427088 228655504 228924848 229360096 230012016 230823792 
565.041 231641936 232294608 232676880 232793072 232749696 232695152 
567.934 232744992 232924752 233179376 233419680 233589920 233696336 
570.826 233797968 233953536 234177568 234418400 234585184 234596688 
573.719 234435184 234159968 233883264 233704912 233667312 233731328 
576.612 233814176 233841344 233806720 233776816 233856432 234120624 
579.504 234567312 235103120 235588080 235896736 235983696 235897632 
582.397 235747888 235633952 235590352 235574432 235498592 235288592 
585.290 234927440 234469600 234007792 233623968 233344720 233140224 
588.182 232953152 232747280 232532560 232363584 232298832 232360048 
591.075 232500640 232626656 232637360 232494720 232246800 232010496 
593.968 231898640 231970160 232192688 232466832 232673456 232743408 
596.861 232691664 232606832 232594080 232711248 232937424 233182656 
599.753 233334960 233326256 233172480 232961792 232801072 232749424 
602.646 232789344 232834336 232783760 232569264 232197168 231736320 
605.539 231279488 230886816 230564608 230274256 229973136 229652544 
608.431 229354784 229147408 229082960 229154448 229290032 229374992 
611.324 229315424 229082736 228730656 228360192 228069248 227897248 
614.217 227809536 227718032 227534672 227224784 226822176 226406928 
617.109 226051360 225775920 225532512 225235968 224811952 224249424 
620.002 223609440 223000400 222517936 222213328 222070944 222031280 
622.895 222026608 222021904 222022720 222057040 222139008 222243760 
625.788 222308368 222268896 222094512 221815728 221506000 221247584 
628.680 221077552 220963600 220812368 220519088 220022992 219342496 
631.573 218568112 217823376 217209504 216759536 216440640 216182720 
634.466 215930000 215669952 215437584 215281328 215222448 215228128 
637.358 215219456 215103136 214825168 214390752 213863248 213320288 
640.251 212818560 212361776 211911600 211415856 210853680 210253184 
643.144 209683680 209213664 208873760 208634704 208422464 208153616 
646.036 207780272 207312416 206810752 206351488 205984112 205717008 
648.929 205521776 205363200 205224800 205118800 205064336 205054176 
651.822 205033616 204901632 204551744 203930192 203071360 202101024 
654.715 201183872 200472656 200037072 199847024 199789936 199734832 
657.607 199582256 199297888 198907888 198464304 198005152 197531712 
660.500 197017504 196435536 195786832 195110896 194468368 193910736 
663.393 193456640 193084720 192751840 192420560 192080768 191754320 
666.285 191481424 191291200 191158480 190977232 190614320 190011712 
669.178 189256112 188496096 187840112 187314464 186889152 186504800 
672.071 186108048 185676352 185233168 184831552 184526480 184330240 
674.963 184197408 184032512 183738160 183259552 182616288 181892640 
677.856 181201312 180631312 180208080 179894656 179617232 179309536 
680.749 178937056 178507200 178047184 177576944 177090528 176564032 
683.642 175978512 175346896 174723632 174187232 173799312 173576384 
686.534 173473568 173405008 173272800 173017792 172639424 172188736 
689.427 171730944 171307952 170914464 170506448 170025328 169435088 
692.320 168740672 167984336 167219280 166483184 165786128 165116864 
695.212 164463136 163832656 163256272 162776176 162418912 162173600 
698.105 161988960 161790736 161516976 161139664 160676864 160172304 
700.998 159669840 159183408 158691792 158152432 157534336 156840544 
703.890 156118400 155436256 154858800 154413552 154082800 153812640 
706.783 153543280 153236720 152885744 152506832 152117808 151717968 
709.676 151282944 150775744 150172032 149479632 148745472 148039024 
712.569 147422640 146933696 146570048 146299136 146075232 145860784 
715.461 145633248 145379776 145086800 144728080 144266944 143672816 
718.354 142936944 142085616 141174624 140273776 139436288 138684064 
721.247 138006080 137375920 136772736 136196368 135665680 135207072 
724.139 134833728 134535248 134280864 134035336 133779344 133519664 
727.032 133285952 133110536 133007408 132955968 132902104 132773336 
729.925 132510144 132078648 131481960 130748720 129921136 129041584 
732.817 128148096 127284408 126498568 125842336 125359880 125066784 
735.710 124939352 124912536 124902640 124825744 124630168 124310616 
738.603 123901336 123454448 123011960 122590896 122179456 121749768 
741.496 121278184 120761120 120217008 119678512 119175768 118728312 
744.388 118339872 118005088 117716608 117470192 117263408 117087000 
747.281 116920248 116729720 116476192 116131624 115687152 115159512 
750.174 114578968 113980976 113389408 112811480 112242952 111678888 
753.066 111122536 110588992 110098752 109666984 109295168 108968008 
755.959 108659344 108342480 108001664 107633912 107246192 106846568 
758.852 106438384 106018272 105582552 105134096 104686696 104263016 
761.744 103885568 103565440 103296480 103055336 102812432 102539240 
764.637 102220600 101854896 101449784 101013480 100550752 100063000 99553112 
768.012 99031664 98517456 98031264 97588512 97190128 96822920 96463680 
771.387 96092664 95703288 95305320 94918792 94563024 94243888 93950400 
774.762 93658144 93341064 92985840 92597520 92197712 91811000 91456408 
778.136 91135328 90833120 90525968 90194776 89832136 89447032 89057960 
781.511 88686832 88349480 88050616 87784936 87538464 87294560 87034440 
784.886 86742432 86407960 86030648 85622752 85210640 84830376 84514048 
788.261 84279832 84121000 84007000 83890096 83725048 83486736 83179560 
791.636 82835640 82501160 82218824 82008384 81862576 81749448 81630440 
795.010 81469160 81245264 80956800 80615144 80236648 79839056 79439800 
798.385 79054688 78698880 78383256 78109296 77866384 77631736 77380032 
801.760 77089688 76754024 76382640 75998296 75625192 75278600 74962336 
805.135 74669664 74391512 74123712 73870336 73639448 73435512 73252312 
808.510 73069968 72862040 72606344 72294168 71934896 71551696 71172200 
811.885 70814832 70484992 70175192 69873520 69570848 69267760 68973040 
815.259 68699056 68454792 68241576 68055240 67890600 67747168 67631384 
818.634 67554192 67524616 67544864 67607416 67696400 67793488 67884520 
822.009 67961272 68021096 68063536 68087016 68088800 68067480 68028112 
825.384 67982736 67950456 67950192 67993584 68082056 68206952 68356504 
828.759 68521632 68701848 68903600 69136104 69403144 69699120 70010368 
832.133 70323680 70633856 70951752 71301616 71717344 72229328 72855648 
835.508 73601016 74459512 75422328 76484968 77649168 78920880 80302584 
838.883 81789448 83368768 85028200 86765008 88595280 90554992 92689144 
842.258 95044432 97652312 100526824 103667568 107071176 110741136 114692824 
845.633 118947256 123520488 128410040 133594576 139037328 144706288 
848.525 150589232 156697744 163055344 169676160 176539664 183588720 
851.418 190735776 197891200 204995552 212023232 218969296 225817840 
854.311 232507632 238928704 244946912 250437296 255330592 259618096 
857.204 263329600 266487744 269079040 271050400 272344992 272941472 
860.096 272885472 272273600 271222656 269812928 268064832 265951904 
862.989 263442272 260542336 257320848 253885504 250350112 246790240 
865.882 243224080 239635344 236013744 232393888 228875184 225597872 
868.774 222702688 220299408 218435552 217108816 216291760 215963792 
871.667 216125712 216796816 217994304 219710528 221902720 224505616 
874.560 227447728 230679760 234179456 237931216 241898512 245991056 
877.452 250055792 253916560 257403072 260403760 262879632 264837152 
880.345 266277200 267155104 267367424 266795312 265360272 263075920 
883.238 260051584 256458432 252463632 248166160 243590736 238705536 
886.131 233474288 227894608 222015888 215920032 209694528 203399664 
889.023 197066192 190709856 184349392 178020368 171769808 165636032 
891.916 159635152 153755008 147968400 142253472 136615232 131089032 
894.809 125732960 120601088 115727720 111118680 106756952 102616992 98678368 
898.183 94934136 91385368 88033736 84872272 81885136 79053296 76365616 
901.558 73824344 71444232 69245728 67241792 65427968 63780180 62260564 
904.933 60831232 59461984 58140756 56871836 55670636 54552804 53528276 
908.308 52597516 51753132 50980212 50262224 49583272 48928072 48284972 
911.683 47647288 47015420 46398004 45808704 45263152 44771804 44335572 
915.058 43945384 43586312 43244016 42911380 42592088 42298012 42042752 
918.432 41833280 41664608 41520176 41376808 41211992 41013048 40780012 
921.807 40524696 40263856 40014040 39786152 39583140 39402280 39237452 
925.182 39082728 38933676 38789420 38651084 38524120 38415148 38332408 
928.557 38281888 38263540 38268424 38278412 38270780 38223196 38123272 
931.932 37974116 37795512 37617204 37470132 37377568 37347996 37373884 
935.306 37438240 37521608 37608276 37690552 37766016 37834372 37892328 
938.681 37932928 37946780 37927976 37877900 37808056 37735948 37681920 
942.056 37662224 37683220 37740896 37822480 37911232 37990096 38047568 
945.431 38079144 38087640 38082288 38075596 38081640 38111008 38169396 
948.806 38255436 38362232 38478936 38595060 38704036 38804856 38900948 
952.181 38998008 39100564 39208984 39319896 39427748 39527540 39617112 
955.555 39697924 39772756 39844444 39914212 39982216 40050192 40123268 
958.930 40210748 40324864 40475264 40666396 40893728 41146712 41410412 
962.305 41672852 41928880 42179876 42433280 42696228 42972980 43262720 
965.680 43561076 43863340 44166624 44472028 44780840 45092852 45403320 
969.055 45704112 45987132 46249184 46494944 46737080 46993784 47281160 
972.429 47609280 47980056 48388852 48827992 49290732 49774220 50277256 
975.804 50798008 51332060 51872036 52410140 52943004 53473892 54012304 
979.179 54570200 55156508 55772196 56410040 57057700 57704816 58349068 
982.554 58998684 59670064 60383792 61157016 61998156 62907016 63876444 
985.929 64895892 65954492 67044132 68158344 69293056 70446456 71620080 
989.304 72819680 74053248 75330112 76655544 78029296 79447040 80904624 
992.678 82404736 83962376 85601440 87350752 89233016 91255016 93404624 
996.053 95656208 97982016 100361768 102792280 105285616 107862448 110540904 
999.428 113332320 116242160 119276928 122452680 125795808 129334328 
1002.321 133086176 137045584 141181872 145444944 149791680 154204624 
1005.213 158704352 163340784 168175808 173256112 178595104 184174864 
1008.106 189962592 195935152 202092944 208458128 215054832 221885216 
1010.999 228917904 236092192 243344816 250644080 258002704 265469696 
1013.891 273094528 280895040 288837312 296852992 304870656 312860640 
1016.784 320846720 328886272 337017408 345218432 353391232 361407104 
1019.677 369162176 376642080 383926048 391148896 398406848 405688128 
1022.570 412853920 419701952 426064256 431897984 437308608 442497408 
1025.463 447648288 452818080 457905824 462696000 466979936 470638624 
1028.356 473698112 476280544 478518720 480459776 482047136 483160480 
1031.249 483708416 483689536 483199712 482358720 481235776 479787648 
1034.142 477889792 475410240 472316032 468711168 464810144 460822624 
1037.035 456862688 452896384 448777824 444330272 439455872 434190592 
1039.928 428682400 423107136 417572608 412082944 406554880 400889184 
1042.821 395041728 389059552 383054336 377139296 371357184 365664480 
1045.714 359957056 354141920 348188288 342153696 336145536 330268384 
1048.607 324562048 318989440 313464096 307913824 302322432 296746656 
1051.500 291280224 286007360 280954048 276080480 271305696 266559744 
1054.393 261826928 257154848 252627792 248323936 244279616 240475024 
1057.286 236855072 233365424 229987120 226746304 223699024 220896784 
1060.179 218369056 216110576 214098704 212316384 210770576 209490064 
1063.072 208507872 207832464 207432528 207240416 207185424 207220688 
1065.965 207354896 207648048 208191840 209064448 210301456 211888016 
1068.859 213776816 215918560 218291600 220911424 223817648 227043360 
1071.752 230591152 234425232 238489440 242737184 247149424 251737120 
1074.645 256513744 261458816 266500000 271516064 276374848 280994528 
1077.538 285367264 289558048 293649696 297687072 301626144 305341600 
1080.431 308659104 311433984 313593568 315137888 316098848 316487456 
1083.324 316257472 315325600 313615232 311116672 307904736 304118784 
1086.217 299893056 295299456 290332128 284934560 279057056 272710816 
1089.110 265980336 258998208 251891024 244725840 237506544 230194544 
1092.003 222757776 215203264 207588000 199992464 192488784 185106240 
1094.896 177831920 170629856 163474672 156371760 149363472 142506800 
1097.789 135856192 129442616 123271144 117335896 111633816 106175136 
1100.682 100982712 96079560 91478824 87176768 83154320 79386528 75850424 
1104.057 72532136 69423392 66517560 63805820 61274212 58908548 56700880 
1107.433 54651924 52769212 51061856 49530568 48160752 46920912 45768312 
1110.808 44661548 43568292 42476796 41395908 40351804 39376488 38498560 
1114.183 37735152 37088156 36543204 36074724 35654544 35255436 34859316 
1117.558 34460076 34062672 33680132 33327836 33017908 32754072 32530532 
1120.934 32332628 32143842 31949326 31740710 31518262 31288878 31062640 
1124.309 30848152 30650552 30470564 30305894 30152294 30005886 29862118 
1127.684 29715452 29560004 29388940 29197568 28985912 28760232 28532830 
1131.059 28318562 28132398 27983698 27875326 27803506 27760236 27736288 
1134.435 27723856 27718134 27717922 27724034 27737596 27759988 27790930 
1137.810 27828020 27867166 27902604 27927866 27937230 27928290 27902604 
1141.185 27866884 27830000 27801352 27785772 27782736 27784924 27782418 
1144.560 27767194 27736042 27692282 27644998 27605026 27580240 27574486 
1147.936 27587866 27619292 27670282 27746108 27854588 28001828 28188186 
1151.311 28405114 28635242 28858024 29054490 29212630 29330516 29415142 
1154.686 29478258 29531240 29583306 29640062 29705376 29783614 29879650 
1158.061 29998820 30143664 30312076 30497044 30687854 30874228 31049792 
1161.437 31213998 31371750 31531588 31702750 31892698 32108058 32354332 
1164.812 32637178 32962102 33332062 33744624 34189768 34651700 35109956 
1168.187 35545500 35947436 36314396 36655352 36985028 37321204 37677652 
1171.562 38063732 38484404 38941468 39435768 39966632 40531316 41123944 
1174.938 41734308 42350572 42961128 43558952 44143552 44720640 45299928 
1178.313 45891376 46502648 47136656 47792336 48464528 49146040 49827324 
1181.688 50497352 51146200 51765748 52353584 52914744 53461604 54009564 
1185.063 54572304 55156544 55759500 56370612 56976996 57570612 58151700 
1188.439 58729208 59315460 59921944 60553496 61208172 61880496 62566868 
1191.814 63268208 63989692 64736100 65505980 66287576 67061184 67802440 
1195.189 68491992 69121192 69692280 70214416 70696512 71141872 71547288 
1198.564 71906472 72216176 72480496 72711272 72923408 73127376 73326528 
1201.940 73515488 73685264 73827024 73937072 74014392 74056984 74057104 
1205.315 73999656 73865152 73640000 73322288 72927016 72482096 72021944 
1208.690 71575648 71159472 70776808 70419760 70075896 69732536 69379736 
1212.065 69008344 68608472 68169776 67683432 67146680 66566536 65960160 
1215.441 65349700 64755788 64192036 63660620 63153692 62657236 62157936 
1218.816 61645272 61114032 60563816 59996648 59417648 58834180 58257860 
1222.191 57702812 57182000 56704284 56271104 55875096 55503812 55146576 
1225.566 54798576 54464452 54155288 53884372 53659700 53480300 53336044 
1228.942 53212808 53098252 52987024 52882932 52795928 52739056 52721852 
1232.317 52749872 52823432 52940308 53096944 53288616 53508896 53747740 
1235.692 53992564 54230736 54453560 54659664 54856168 55055880 55269988 
1239.067 55504904 55758560 56023104 56290528 56559248 56835504 57133280 
1242.443 57465760 57838800 58245616 58669128 59086372 59478440 59837928 
1245.818 60169284 60485736 60800744 61122804 61451060 61779256 62098300 
1249.193 62403344 62693180 62968420 63227660 63463704 63664532 63818412 
1252.568 63919508 63971832 63989192 63990144 63990376 63996756 64005620 
1255.943 64006544 63986348 63934788 63847348 63724124 63566336 63374780 
1259.319 63150556 62897332 62623700 62343480 62070696 61814212 61572572 
1262.694 61334388 61081460 60797388 60474732 60117872 59740964 59360588 
1266.069 58990976 58638560 58302460 57978200 57661340 57350604 57047084 
1269.444 56752572 56466524 56185756 55905960 55623972 55340664 55060920 
1272.820 54791660 54538684 54303984 54085212 53878972 53682456 53497504 
1276.195 53328964 53183556 53065904 52975380 52906812 52851608 52802960 
1279.570 52758516 52721812 52700300 52702656 52734196 52796416 52886524 
1282.945 52999712 53131280 53277492 53435520 53601180 53769152 53933252 
1286.321 54088216 54231976 54367632 54502428 54644560 54800192 54971376 
1289.696 55155528 55347176 55541088 55733280 55922052 56106084 56284040 
1293.071 56453736 56614468 56768468 56922940 57087668 57273024 57484744 
1296.446 57720788 57972028 58225464 58471576 58707892 58941148 59183756 
1299.822 59449108 59744616 60070196 60419244 60784620 61163084 61557644 
1303.197 61975836 62423812 62901660 63400312 63904152 64397892 64873308 
1306.572 65333448 65790988 66262372 66760504 67288408 67839312 68401112 
1309.947 68963792 69522664 70080848 70645120 71221272 71809624 72404424 
1313.323 72996624 73579000 74149296 74710040 75265472 75818192 76367232 
1316.698 76910080 77445600 77976920 78510472 79053104 79604576 80154400 
1320.073 80682208 81166808 81592328 81956520 82270552 82553968 82826296 
1323.448 83098104 83369576 83631568 83873544 84088584 84277136 84445584 
1326.824 84600512 84744224 84872672 84978920 85057504 85108928 85139928 
1330.199 85159360 85173864 85182456 85177984 85149280 85088656 84994192 
1333.574 84870536 84724448 84560856 84379576 84176576 83948424 83697248 
1336.949 83432368 83169928 82925344 82706864 82511056 82324896 82133744 
1340.325 81928632 81711616 81492384 81280304 81077744 80879400 80674472 
1343.700 80453216 80212896 79960568 79710696 79480264 79280528 79113688 
1347.075 78974248 78854520 78748928 78658928 78591504 78555056 78554664 
1350.450 78588840 78650872 78733912 78834416 78955248 79102632 79283512 
1353.826 79500192 79748912 80021040 80309520 80612032 80933728 81282496 
1357.201 81664024 82075272 82503800 82931120 83338024 83713800 84058464 
1360.576 84381352 84694040 85002616 85300760 85571904 85797648 85969616 
1363.951 86093176 86182912 86251896 86305248 86337384 86336128 86287984 
1367.327 86183680 86022208 85809032 85551000 85251160 84905552 84505952 
1370.702 84043224 83508864 82895664 82195480 81401024 80509720 79535600 
1374.077 78519120 77523432 76622192 75876120 75320800 74971504 74830872 
1377.452 74897952 75170680 75642336 76295024 77096968 78008960 78985616 
1380.828 79984104 80969896 81913272 82794776 83606376 84351096 85042064 
1384.203 85697528 86336976 86976952 87629672 88302256 88994344 89698704 
1387.578 90399344 91074808 91703024 92266544 92757032 93176616 93539360 
1390.953 93866816 94184160 94511080 94857824 95220240 95582744 95922416 
1394.328 96219800 96468400 96677056 96861768 97035072 97201896 97360328 
1397.704 97507792 97645880 97780904 97920280 98065816 98210896 98343848 
1401.079 98454936 98542944 98615248 98685520 98767960 98869584 98984848 
1404.454 99096304 99182568 99231944 99248520 99250016 99255728 99277664 
1407.829 99314072 99352680 99375872 99371256 99336896 99281752 99219792 
1411.205 99162080 99110920 99060344 99001488 98930456 98850528 98771280 
1414.580 98701488 98641776 98581520 98501496 98380048 98202216 97967736 
1417.955 97695832 97420040 97170312 96956696 96766768 96580616 96384328 
1421.330 96175840 95958656 95734768 95498968 95237608 94934960 94584200 
1424.706 94193624 93785064 93379592 92987968 92604656 92210416 91781200 
1428.081 91298392 90759848 90183152 89596424 89025256 88477864 87945480 
1431.456 87410232 86860144 86296232 85730752 85176488 84634288 84086576 
1434.831 83495408 82812976 82006384 81094720 80157744 79296240 78571016 
1438.207 77977352 77465840 76979064 76468216 75906184 75287032 74621816 
1441.582 73929416 73229640 72539024 71869088 71231960 70643056 70117480 
1444.957 69668704 69300720 69006552 68767368 68561016 68370320 68188304 
1448.332 68019512 67870536 67739536 67613072 67466288 67272120 67011340 
1451.708 66679248 66288888 65865016 65435440 65015868 64603692 64175980 
1455.083 63691468 63095184 62333804 61391784 60321808 59231868 58220160 
1458.458 57319792 56518300 55792200 55121968 54492472 53886956 53283672 
1461.833 52654176 51967968 51198056 50329676 49373660 48372888 47395964 
1465.209 46517332 45792320 45248596 44895092 44730372 44746200 44924636 
1468.584 45237340 45646064 46108740 46592164 47070808 47528172 47948676 
1471.959 48306892 48566196 48694680 48686640 48565788 48371112 48140312 
1475.334 47897396 47652100 47400952 47135252 46847680 46538536 46214724 
1478.710 45885812 45556856 45225796 44882492 44513580 44110616 43676804 
1482.085 43228308 42787448 42371176 41982964 41611512 41234144 40825472 
1485.460 40365004 39845748 39275460 38673068 38055956 37430980 36790532 
1488.835 36122756 35425196 34719996 34051312 33461198 32967642 32560102 
1492.211 32209676 31884354 31557564 31212538 30839686 30436374 30004964 
1495.586 29549470 29077164 28599676 28133246 27696662 27306278 26971208 
1498.961 26689700 26451054 26239150 26038814 25841526 25647704 25463418 
1502.336 25295434 25148126 25017924 24894150 24758026 24585654 24351594 
1505.712 24038932 23656718 23256034 22904618 22636276 22432328 22259688 
1509.087 22099844 21948944 21810222 21686104 21576052 21475708 21380190 
1512.462 21287650 21201150 21126458 21068510 21027158 20993390 20950548 
1515.837 20881046 20775056 20642164 20507782 20399974 20331880 20298166 
1519.213 20278306 20243868 20165420 20024420 19827868 19611334 19416044 
1522.588 19259216 19129280 19000974 18852048 18670312 18458500 18233078 
1525.963 18020100 17843162 17715686 17636656 17595526 17578966 17575066 
1529.338 17575412 17571444 17554400 17514828 17442840 17331030 17178332 
1532.714 16996502 16810304 16650386 16535820 16464647 16421838 16390903 
1536.089 16360968 16326290 16284216 16232619 16169645 16096020 16017869 
1539.464 15951935 15917631 15919281 15935093 15931243 15879516 15771374 
1542.839 15617745 15445802 15289510 15179386 15131283 15136910 15170671 
1546.214 15202685 15212774 15192700 15144766 15077010 14999694 14920232 
1549.590 14840544 14756998 14664625 14560314 14445477 14324575 14203364 
1552.965 14088108 13983455 13893095 13819478 13764719 13730793 13719337 
1556.340 13731306 13762907 13801658 13818384 13765677 13612483 13395916 
1559.715 13199471 13067135 12991815 12948015 12915074 12880600 12839371 
1563.091 12790571 12736555 12680772 12625235 12570967 12517354 12464396 
1566.466 12413455 12367669 12330852 12305933 12291856 12283096 12270179 
1569.841 12246184 12211320 12173187 12141327 12122724 12119657 12130901 
1573.216 12152504 12178981 12203380 12216773 12209139 12170530 12097511 
1576.592 11996880 11884149 11774410 11676576 11593432 11522484 11459645 
1579.967 11399706 11338279 11273052 11204468 11135080 11069373 11010474 
1583.342 10959601 10917025 10881520 10853152 10832701 10822102 10822340 
1586.717 10831682 10845576 10856753 10857636 10843844 10815410 10777909 
1590.093 10739019 10705635 10680708 10661148 10639722 10608653 10562309 
1593.468 10499778 10425446 10347630 10274476 10212564 10164125 10127630 
1596.843 10098565 10071537 10041764 10006499 9964662 9917539 9868252 9820665 
1600.701 9778404 9742619 9711852 9681256 9644971 9599036 9543587 9483810 
1604.558 9428442 9386863 9365025 9363333 9375622 9391570 9399898 9392247 
1608.415 9366549 9327481 9283642 9242584 9209551 9186165 9171275 9163423 
1612.273 9162273 9168196 9181292 9199770 9217674 9224341 9206031 9151174 
1616.130 9059749 8949672 8851357 8791134 8777474 8801954 8847975 8898905 
1619.988 8940742 8964318 8964656 8941588 8899480 8848042 8800060 8765574 
1623.845 8747587 8740859 8735788 8723009 8696912 8657058 8608623 8561647 
1627.703 8528024 8517313 8531437 8564656 8606055 8645633 8676291 8695863 
1631.560 8706275 8711110 8713104 8712867 8706342 8686669 8645498 8580235 
1635.417 8501262 8431494 8393287 8393252 8422102 8464772 8508393 8543940 
1639.275 8566751 8575706 8571786 8557829 8536980 8513123 8489606 8469401 
1643.132 8454670 8446832 8445649 8448589 8450751 8444433 8421022 8376430 
1646.990 8316138 8252748 8199429 8163132 8144563 8141490 8152430 8176773 
1650.847 8214555 8264432 8318739 8354744 8336336 8242347 8100642 7963269 
1654.704 7860285 7795578 7761677 7749871 7754188 7770042 7794431 7825029 
1658.562 7859981 7896927 7933066 7965024 7989120 8001169 7997962 7977679 
1662.419 7942279 7896860 7849995 7809746 7782354 7771661 7779352 7804787 
1666.277 7845878 7896623 7946632 7982168 7987568 7952369 7878673 7784209 
1670.134 7694151 7627243 7589140 7572551 7564763 7552658 7525957 7478997 
1673.992 7411347 7329521 7247204 7181207 7142167 7130849 7140078 7160525 
1677.849 7184004 7205193 7221027 7231707 7239994 7251450 7273552 7313043 
1681.706 7374881 7460592 7565740 7673848 7754458 7777564 7738031 7662045 
1685.564 7579160 7503538 7434638 7366152 7292791 7213548 7134824 7067632 
1689.421 7024459 7012875 7032406 7074165 7124483 7170226 7201656 7211762 
1693.279 7196636 7153013 7079486 6978967 6864872 6762316 6697571 6683573 
1697.136 6715035 6777831 6856389 6937756 7009306 7057629 7072313 7054666 
1700.994 7017320 6973782 6930350 6886719 6840097 6789106 6734418 6679502 
1704.851 6629672 6589470 6559463 6536220 6515131 6492663 6468313 6443427 
1708.708 6420257 6400115 6382899 6367633 6353579 6341172 6332095 6329203 
1712.566 6334650 6348636 6368978 6390363 6406537 6412725 6407647 6394936 
1716.423 6380276 6370323 6366927 6366927 6363363 6350990 6328161 6295618 
1720.281 6255715 6210741 6163083 6115396 6071579 6036367 6013992 6007440 
1724.138 6017082 6042011 6080752 6132770 6198137 6276557 6365380 6458089 
1727.995 6543250 6607502 6637040 6624928 6574635 6501374 6425974 6368138 
1731.853 6341609 6350284 6386059 6428328 6451498 6438820 6396752 6346283 
1735.710 6305838 6282742 6275817 6280120 6289735 6300190 6308628 6315386 
1739.568 6322883 6334549 6352436 6376375 6404654 6434549 6462428 6484726 
1743.425 6497473 6497103 6481396 6450153 6405125 6350351 6291819 6236992 
1747.283 6193566 6168897 6167788 6191045 6233698 6285869 6333809 6362690 
1751.140 6363094 6334482 6286239 6233194 6191280 6173299 6184895 6226572 
1754.997 6291046 6363868 6424192 6451162 6432397 6369852 6277162 6173199 
1758.855 6074401 5991281 5929741 5892256 5878318 5883255 5898537 5913853 
1762.712 5919194 5910024 5887117 5855649 5822268 5793456 5773309 5761087 
1766.570 5752760 5741277 5720965 5690918 5657381 5631064 5622673 5638650 
1770.427 5677154 5727411 5771260 5789124 5770925 5722945 5663524 5610522 
1774.285 5573065 5551486 5539874 5531719 5521987 5509906 5498128 5491182 
1778.142 5491954 5500544 5512994 5522625 5522323 5508363 5481887 5449273 
1781.999 5418406 5396465 5388111 5394955 5415319 5444207 5474304 5498027 
1785.857 5508531 5503329 5482156 5447730 5403611 5353189 5297743 5237072 
1789.714 5168999 5091014 5002886 4909247 4820520 4750268 4709101 4699454 
1793.572 4717608 4757270 4813920 4885187 4970476 5067413 5170140 5269436 
1797.429 5353290 5410119 5433537 5423506 5387910 5340107 5295731 5265109 
1801.286 5250520 5245389 5238682 5220439 5184826 5132050 5066408 4995244 
1805.144 4925333 4863575 4815494 4785342 4776498 4790234 4824507 4872588 
1809.001 4924461 4967024 4987669 4978955 4940614 4881166 4814288 4755193 
1812.859 4715431 4699889 4707627 4733285 4768927 4805142 4833922 4848865 
1816.716 4846955 4828997 4799313 4763433 4727121 4693894 4664889 4638364 
1820.574 4611339 4581368 4547348 4510586 4473994 4441489 4416919 4403095 
1824.431 4401020 4409455 4426124 4448184 4472454 4496893 4519358 4537840 
1828.288 4550998 4558532 4561411 4563220 4568075 4578154 4593658 4612578 
1832.146 4632638 4651961 4670650 4688870 4707660 4727825 4748962 4770234 
1836.003 4791406 4812144 4832950 4853891 4873158 4886561 4889209 4876107 
1839.861 4845113 4798174 4741391 4682339 4629423 4588869 4561947 4546110 
1843.718 4536031 4528331 4524547 4529804 4548453 4580665 4620548 4658860 
1847.576 4685286 4693358 4683209 4661674 4638498 4621921 4613516 4606852 
1851.433 4590577 4553041 4489159 4404066 4312597 4235568 4192777 4194784 
1855.290 4241256 4320160 4412467 4494951 4547650 4558666 4526824 4461005 
1859.148 4376453 4293255 4229077 4196691 4200638 4236003 4291414 4352757 
1863.005 4409789 4457222 4496123 4531277 4567606 4605043 4637293 4650320 
1866.863 4628720 4560273 4446008 4304264 4168589 4073992 4039444 4063958 
1870.720 4128948 4209805 4282948 4332576 4353895 4351251 4337194 4327087 
1874.578 4335153 4369892 4431313 4511523 4598279 4676678 4735161 4768123 
1878.435 4775694 4763132 4738176 4708699 4679994 4655578 4637628 4628887 
1882.292 4634714 4662578 4719149 4807353 4922049 5049814 5171179 5267155 
1886.150 5323939 5337994 5316258 5276412 5242136 5236133 5273528 5354665 
1890.007 5464841 5577395 5664666 5705890 5690447 5620592 5509336 5378953 
1893.865 5255652 5166786 5132251 5157566 5232511 5335948 5444475 5539370 
1897.722 5612872 5666680 5709919 5751450 5796679 5843760 5886278 5916238 
1901.579 5929573 5930446 5929573 5940724 5974854 6035393 6115631 6201700 
1905.437 6275615 6321975 6330413 6297534 6225732 6122587 5998672 5865858 
1909.294 5740001 5637207 5570918 5549237 5571857 5629889 5709751 5799903 
1913.152 5893331 5991483 6102224 6236186 6400350 6593776 6803915 7008195 
1917.009 7180837 7298081 7349976 7343842 7299227 7234705 7161097 7077567 
1920.867 6975567 6847536 6695081 6532453 6387505 6290239 6260186 6301333 
1924.724 6401527 6538003 6683876 6816536 6918398 6978429 6991830 6957924 
1928.581 6879044 6762182 6621026 6475982 6353377 6281398 6281935 6366557 
1932.439 6530637 6754374 7002234 7232785 7408988 7503404 7504583 7414616 
1936.296 7248518 7028163 6779918 6532688 6313032 6142751 6038416 6010430 
1940.154 6061197 6184458 6364036 6571977 6775778 6947924 7072111 7148095 
1944.011 7186833 7203407 7209539 7210010 7204014 7188248 7160794 7123776 
1947.869 7082753 7042677 7005736 6968631 6923178 6861944 6783687 6694912 
1951.726 6609386 6543923 6509682 6508135 6528988 6555494 6573154 6573356 
1955.583 6558993 6539483 6525457 6519470 6516039 6500264 6459065 6387102 
1959.441 6292962 6197498 6127326 6102123 6124974 6182542 6249093 6295820 
1963.298 6300526 6255345 6165368 6047051 5920739 5803563 5708408 5638147 
1967.156 5587598 5542961 5488363 5406362 5288251 5136543 4968063 4811173 
1971.013 4699789 4662678 4712484 4839651 5015355 5205684 5380630 5525846 
1974.870 5643484 5748697 5856891 5977239 6104811 6225799 6319857 6367465 
1978.728 6357479 6282339 6140398 5935216 5674334 5372847 5057591 4767085 
1982.585 4541321 4413103 4393656 4464888 4584349 4697980 4757906 4732715 
1986.443 4618338 4434191 4219140 4014763 3853303 3753995 3719873 3742732 
1990.300 3803696 3880281 3944140 3971391 3947550 3873561 3767732 3659690 
1994.158 3583812 3564669 3613012 3719505 3863900 4020916 4170496 4305268 
1998.015 4427697 4546110 4664789 4777905 4870176 4922618 4921814 4868701 
2001.872 4781456 4691784 4631197 4623696 4674166 4771976 4892492 5007043 
2005.730 5093897 5140701 5145126 5116762 5070766 5023735 4994741 5003557 
2009.587 5066106 5192707 5384622 5630494 5909655 6194305 6456778 6669306 
2013.445 6811689 6866993 6824547 6677180 6422611 6069597 5640664 5177114 
2017.302 4735194 4369056 4117341 3992658 3979885 4042755 4138481 4230014 
2021.160 4293121 4322168 4327255 4325448 4328995 4340106 4346264 4324042 
2025.017 4248350 4104095 3894021 3643317 3395629 3201753 3110036 3150485 
2028.874 3326976 3611141 3956344 4302223 4590644 4780250 4844275 4778609 
2032.732 4602163 4356204 4093793 3875667 3755299 3765493 3911473 4165411 
2036.589 4474329 4774287 5012506 5162260 5228822 5239621 5225536 5208165 
2040.447 5185497 5131715 5013545 4809799 4523476 4189264 3858718 3589391 
2044.304 3419673 3359398 3390086 3478788 3593200 3711986 3827162 3936248 
2048.161 4032721 4102422 4126071 4090849 4001420 3881785 3772144 3710616 
2052.019 3723817 3812354 3951295 4097405 4208066 4252666 4224460 4139953 
2055.876 4031250 3932003 3865504 3840767 3852166 3885597 3923175 3948687 
2059.734 3952566 3932136 3893420 3851999 3829034 3845514 3916489 4043524 
2063.591 4209371 4381674 4523610 4608258 4628351 4601761 4565061 4560641 
2067.448 4618673 4747253 4929488 5133223 5318405 5451856 5516618 5510208 
2071.306 5441657 5324644 5173157 4998596 4812613 4630159 4467533 4342984 
2075.163 4269798 4253134 4290544 4372671 4488758 4627748 4780652 4938168 
2079.021 5088265 5217588 5312501 5364830 5375464 5356410 5327025 5308107 
2082.878 5314748 5349466 5404449 5463969 5512859 5543834 5559037 5567393 
2086.736 5580751 5607401 5647546 5694241 5736577 5764041 5769850 5753935 
2090.593 5719924 5676314 5631635 5594780 5572965 5570615 5586256 5612402 
2094.450 5635965 5639892 5611093 5545344 5451454 5348896 5260951 5206589 
2098.308 5191365 5205918 5228588 5237039 5216012 5164708 5095674 5031378 
2102.165 4992127 4988943 5020316 5073582 5131145 5176477 5200385 5201425 
2106.023 5184692 5159142 5135705 5125177 5137247 5179931 5256021 5362750 
2109.880 5488497 5616027 5727008 5806048 5846077 5850174 5828581 5792415 
2113.738 5751484 5709382 5665069 5616329 5564877 5515913 5478397 5459238 
2117.595 5458903 5469304 5476115 5463869 5421593 5349231 5255652 5156794 
2121.452 5069022 5004797 4970677 4967862 4995010 5049043 5125546 5214637 
2125.310 5300896 5361811 5373149 5316996 5189286 5006003 4800653 4620079 
2129.167 4510653 4505966 4619912 4843471 5147037 5484740 5808902 6073528 
2133.025 6244387 6306140 6263682 6140633 5974988 5812730 5691488 5634723 
2136.882 5642846 5697531 5769615 5829487 5858906 5855447 5829286 5793456 
2140.740 5757158 5717641 5663155 5581523 5470680 5346380 5244786 5209306 
2144.597 5278055 5467593 5764579 6122117 6471306 6744345 6884026 6866925 
2148.454 6704401 6441241 6134517 5843693 5613476 5462627 5383213 5346212 
2152.312 5317130 5265478 5178657 5062988 4941888 4843504 4789965 4792009 
2156.169 4846587 4940849 5060776 5193511 5326220 5440214 5514168 5524135 
2160.027 5458164 5328300 5171581 5042540 4996920 5071838 5265512 5542559 
2163.884 5842249 6108507 6307250 6438853 6528719 6612581 6712242 6821214 
2167.741 6907254 6930619 6862213 6701037 6477495 6238841 6031193 5876001 
2171.599 5766661 5674770 5573233 5450213 5321323 5219366 5180467 5219466 
2175.456 5320954 5442630 5536384 5566688 5525813 5433571 5326824 5238883 
2179.314 5184156 5156493 5135638 5101742 5044417 4968063 4882574 4793785 
2183.171 4697612 4578623 4422107 4227605 4015967 3826694 3705370 3690666 
2187.029 3797111 4014562 4310857 4642316 4966990 5247301 5457024 5579174 
2190.886 5606629 5544035 5411428 5245423 5088567 4984485 4955126 4993233 
2194.743 5059368 5100233 5063122 4921445 4686626 4405605 4144302 3958216 
2198.601 3879044 3901076 3991254 4100650 4189765 4239951 4256815 4261432 
2202.458 4280439 4331739 4416986 4523978 4631499 4718111 4766515 4768927 
2206.316 4725011 4643990 4540719 4434660 4346532 4291749 4275386 4288302 
2210.173 4311192 4318119 4287031 4211914 4105500 3996069 3919230 3905522 
2214.031 3967579 4095566 4259358 4417923 4529302 4560842 4498734 4347502 
2217.888 4128948 3873361 3619795 3402375 3247685 3170444 3172013 3241008 
2221.745 3362036 3520775 3708177 3921972 4162400 4423680 4688468 4928382 
2225.603 5104257 5181641 5143517 4999032 4783064 4550328 4359651 4252097 
2229.460 4244368 4325214 4462712 4614554 4743099 4824607 4849602 4823737 
2233.318 4760720 4680831 4605646 4557527 4557260 4618673 4744976 4926405 
2237.175 5141673 5361173 5556956 5710456 5814678 5874053 5897932 5893331 
2241.032 5859276 5788285 5671413 5506417 5303210 5084778 4878854 4712751 
2244.890 4602197 4547917 4537605 4553342 4577718 4599283 4615826 4629858 
2248.747 4645230 4664353 4686726 4711981 4742329 4783098 4841427 4922820 
2252.605 5026182 5142075 5254310 5343897 5397270 5409616 5387339 5344434 
2256.462 5298448 5262996 5245020 5243109 5249850 5255283 5249816 5228420 
2260.320 5190259 5139963 5086321 5040864 5015624 5019545 5056686 5123266 
2264.177 5209306 5298816 5376202 5430954 5460278 5469505 5469640 5471787 
2268.034 5480210 5490746 5490645 5463533 5395224 5280571 5125982 4950334 
2271.892 4779346 4639469 4553844 4533821 4579426 4678353 4811038 4952512 
2275.749 5079280 5174834 5230499 5249582 5243813 5231338 5229326 5249481 
2279.607 5293484 5353693 5414883 5460782 5480210 5470076 5436322 5390526 
2283.464 5346078 5311965 5291437 5281778 5277720 5274567 5270442 5266820 
2287.322 5266149 5268698 5270341 5261923 5232478 5173023 5081258 4963035 
2291.179 4832917 4711278 4617501 4566937 4566200 4612511 4694731 4796264 
2295.036 4900099 4990317 5055379 5090142 5094869 5075425 5041199 5003624 
2298.894 4972554 4954422 4951674 4961561 4977950 4993971 5004596 5007478 
2302.751 5003859 4997791 4993736 4995043 5002719 5015456 5030003 5042272 
2306.609 5048540 5045993 5033456 5011132 4981268 4947552 4915346 4889007 
2310.466 4871482 4862469 4857342 4848229 4827522 4790334 4738243 4679726 
2314.323 4629289 4602699 4611942 4661372 4745712 4852182 4962633 5060206 
2318.181 5132251 5173258 5185329 5176946 5159376 5144322 5142209 5159645 
2322.038 5198172 5254344 5319646 5381737 5426727 5444240 5428571 5382006 
2325.896 5312938 5235194 5163601 5109755 5079683 5072877 5084141 5105162 
2329.753 5129435 5152805 5173727 5191533 5205348 5212659 5211284 5200452 
2333.611 5183686 5167390 5161053 5172587 5205348 5255618 5313407 5363689 
2337.468 5390426 5381804 5331755 5242975 5124540 4991993 4863642 4757202 
2341.325 4688468 4665927 4690076 4752077 4836133 4922987 4994306 5038685 
2345.183 5054541 5048842 5032450 5015456 5003255 4994038 4982307 4961091 
2349.040 4924327 4869271 4797504 4714594 4629958 4553241 4493478 4455917 
2352.898 4441689 4449021 4474128 4513097 4561713 4615324 4668540 4715934 
2356.755 4753384 4779446 4795426 4804271 4808593 4809162 4804338 4791473 
2360.613 4770870 4746784 4729801 4734357 4774421 4859654 4990686 5157498 
2364.470 5341315 5520511 5672185 5778043 5828144 5819111 5754539 5644424 
2368.327 5503027 5346581 5192271 5056988 4952847 4888471 4866188 4881468 
2372.185 4924763 4983513 5044417 5096110 5132553 5152235 5159376 5161019 
2376.042 5165311 5178422 5202465 5235060 5269268 5297341 5311663 5307772 
2379.900 5286272 5252432 5213396 5177382 5150458 5134799 5129334 5130508 
2383.757 5134430 5139158 5145797 5157935 5181004 5219030 5272924 5338497 
2387.615 5408006 5470445 5514806 5533934 5525880 5494940 5450011 5403241 
2391.472 5366071 5346648 5349164 5372981 5414816 5470311 5535679 5608340 
2395.329 5686822 5768977 5851182 5927423 5990307 6032638 6049638 6040970 
2399.187 6011639 5970453 5927524 5892760 5871635 5865488 5872004 5887117 
2403.044 5906867 5929338 5955236 5986813 6026221 6073830 6127326 6182072 
2406.902 6232723 6274002 6303216 6320462 6328531 6331389 6333843 6340634 
2410.759 6354857 6379132 6415583 6465085 6527912 6602018 6683674 6766658 
2414.616 6843598 6907456 6952739 6977755 6984860 6979775 6970179 6963446 
2418.474 6965095 6977217 6999238 7028634 7063085 7101041 7142739 7188956 
2422.331 7239893 7293735 7346707 7393552 7429413 7451760 7461401 7462311 
2426.189 7460390 7460929 7466424 7476705 7489514 7502426 7514629 7527676 
2430.046 7544500 7566988 7594131 7619892 7635876 7633448 7608326 7562875 
2433.904 7508090 7460491 7435918 7446738 7496257 7579193 7682887 7792879 
2437.761 7897062 7987736 8062598 8122856 8170493 8206924 8232250 8246703 
2441.618 8252545 8254402 8258894 8272233 8298576 8337788 8386733 8439839 
2445.476 8492309 8542183 8589664 8636677 8684438 8731866 8775074 8809798 
2449.333 8833028 8845202 8851357 8859067 8875231 8903775 8943414 8987928 
2453.191 9028083 9055757 9065568 9056535 9031703 8996791 8958263 8921802 
2457.048 8892716 8875536 8874352 8892479 8931205 8988808 9060493 9138924 
2460.906 9215880 9284793 9342037 9388014 9425260 9457124 9486484 9514458 
2464.763 9540876 9565331 9589415 9615803 9648698 9691692 9745737 9808193 
2468.620 9873336 9932726 9978155 10003211 10004804 9983377 9942320 9887844 
2472.478 9826969 9767729 9718595 9686542 9677326 9693996 9735944 9799483 
2476.335 9878420 9965509 10053734 10137805 10214192 10280279 10335414 
2479.710 10378782 10410546 10431996 10445572 10455143 10465087 10479310 
2483.086 10499506 10524898 10551717 10574803 10588519 10588858 10574939 
2486.461 10548628 10514951 10480090 10450629 10432064 10427142 10436170 
2489.836 10457112 10486370 10519229 10552532 10583766 10612422 10638872 
2493.211 10663288 10684783 10701729 10711238 10710796 10699929 10680742 
2496.587 10657107 10634220 10616156 10604511 10598025 10593917 10589130 
2499.962 10583291 10578333 10578537 10588146 10608755 10637378 10666921 
2503.337 10688586 10694563 10681082 10650214 10608993 10567232 10533860 
2506.712 10514511 10510743 10520044 10537696 10558676 10579352 10597517 
2510.088 10612490 10624849 10635816 10647260 10661386 10680606 10705227 
2513.463 10733755 10761335 10781272 10786061 10771048 10735895 10686175 
2516.838 10631199 10582034 10548016 10533385 10536848 10553109 10575380 
2520.213 10597414 10616496 10632421 10647361 10662880 10679316 10696092 
2523.589 10711646 10726147 10741193 10759364 10783650 10814901 10851148 
2526.964 10887840 10918995 10940164 10949645 10949339 10943699 10937310 
2530.339 10933368 10932111 10930956 10927422 10920117 10910467 10903163 
2533.714 10904012 10917331 10943596 10978664 11014449 11041842 11053534 
2537.090 11047450 11027670 11003269 10985224 10983524 11004186 11046635 
2540.465 11105165 11170877 11234117 11286858 11324776 11346577 11353107 
2543.840 11346067 11326443 11294543 11250473 11194370 11128756 11057544 
2547.215 10986922 10923719 10874148 10843436 10834128 10846595 10878768 
2550.591 10927049 10986174 11050000 11111998 11166186 11208004 11234933 
2553.966 11247310 11248058 11241904 11234083 11229085 11229085 11233266 
2557.341 11238401 11239115 11229085 11203958 11161426 11103228 11035113 
2560.716 10966771 10909346 10873570 10867455 10893343 10947538 11020567 
2564.092 11100712 11175365 11235273 11276112 11299134 11308997 11312228 
2567.467 11314336 11318349 11323960 11328960 11330626 11326851 11317125 
2570.842 11302705 11285770 11268427 11252139 11237823 11225446 11214974 
2574.217 11206372 11199606 11194676 11192058 11191684 11193928 11198926 
2577.593 11207086 11218408 11232859 11249588 11267679 11286042 11304474 
2580.968 11323280 11343958 11368039 11397291 11432634 11474137 11521259 
2584.343 11573014 11628144 11685596 11743771 11800488 11852821 11898248 
2587.718 11934415 11961321 11980872 11997595 12016159 12041027 12073799 
2591.094 12112775 12152776 12187534 12211525 12221646 12219636 12210911 
2594.469 12203925 12206992 12226997 12266600 12324136 12393988 12467840 
2597.844 12538089 12597946 12643997 12676542 12698410 12714343 12729219 
2601.219 12747235 12770847 12801354 12838484 12881556 12929616 12981812 
2604.594 13036404 13092028 13146770 13198924 13247225 13291396 13331677 
2607.970 13368716 13402545 13432823 13458762 13479474 13495709 13509654 
2611.345 13525105 13546572 13577748 13619457 13670130 13725835 13782846 
2614.720 13838566 13893334 13950505 14013945 14086192 14166014 14248762 
2618.095 14326766 14392283 14440373 14470518 14486687 14495389 14503097 
2621.471 14514437 14531601 14554180 14581900 14615413 14656605 14707844 
2624.846 14769887 14840716 14914711 14985015 15044696 15089909 15121368 
2628.221 15143531 15162333 15183744 15210750 15243384 15279351 15315903 
2631.596 15351293 15385071 15418371 15451090 15482335 15509977 15530959 
2634.972 15543767 15548885 15549365 15549125 15551529 15558019 15567292 
2638.347 15576839 15584773 15591196 15599301 15614310 15640484 15679609 
2641.722 15729286 15783433 15834840 15877694 15910758 15936468 15959876 
2645.097 15985692 16015429 16046336 16072089 16085945 16084500 16069544 
2648.473 16048776 16032789 16032446 16054174 16098391 16159397 16227735 
2651.848 16293263 16348170 16388839 16415643 16431576 16440591 16445823 
2655.223 16449505 16452705 16456284 16461652 16470360 16484058 16503984 
2658.598 16530417 16562602 16599400 16639335 16680719 16721729 16759919 
2661.974 16792430 16816502 16829834 16831728 16823806 16809752 16794530 
2665.349 16783026 16779032 16783716 16796424 16815126 16837444 16861694 
2668.724 16887254 16913744 16941064 16968248 16993710 17015486 17032750 
2672.099 17046052 17057976 17072312 17093266 17123732 17164818 17215286 
2675.475 17272344 17333134 17395000 17456498 17517554 17578860 17640902 
2678.850 17703606 17765768 17825522 17879966 17926512 17963082 17988740 
2682.225 18004144 18012052 18016646 18023518 18037852 18064172 18104692 
2685.600 18158720 18222988 18293172 18364266 18432676 18496672 18556630 
2688.976 18614384 18671866 18730328 18790456 18851494 18912090 18971172 
2692.351 19028390 19084372 19140394 19198848 19262264 19332444 19410776 
2695.726 19496784 19588386 19681362 19770750 19851730 19921068 19978240 
2699.101 20026328 20071056 20118842 20175762 20244668 20325214 20413484 
2702.477 20504658 20593660 20677608 20756218 20831748 20907676 20987198 
2705.852 21072752 21165106 21263466 21366198 21471112 21575636 21677396 
2709.227 21774372 21865484 21951106 22032980 22114208 22198170 22286614 
2712.602 22378878 22471232 22557708 22631318 22687346 22724284 22745548 
2715.978 22757942 22769918 22789228 22820274 22863438 22915306 22970358 
2719.353 23022656 23067694 23103336 23129964 23149046 23163200 23174662 
2722.728 23184414 23192838 23198848 23201436 23199374 23192034 23180568 
2726.103 23167392 23156280 23151282 23155580 23171132 23197170 23230936 
2729.479 23268792 23307948 23346722 23385358 23425608 23468834 23515176 
2732.854 23562538 23606896 23644156 23670572 23685654 23691744 23694122 
2736.229 23698566 23710570 23733700 23768908 23815456 23871112 23933638 
2739.604 24000796 24070588 24141060 24209790 24274222 24332496 24383838 
2742.979 24429156 24471360 24514304 24561916 24617422 24682300 24755640 
2746.355 24834924 24916538 24997008 25073350 25144546 25210802 25274222 
2749.730 25337512 25403692 25474942 25551228 25630902 25710274 25785230 
2753.105 25851936 25908452 25955830 25997478 26038462 26084202 26138390 
2756.480 26202510 26275578 26355210 26438624 26524168 26611312 26701010 
2759.856 26794288 26891640 26992046 27092862 27191302 27284474 27371102 
2763.231 27451816 27528944 27605414 27684372 27767546 27855790 27948538 
2766.606 28044840 28143426 28243592 28344592 28445618 28545744 28643562 
2769.981 28738070 28828848 28916810 29003976 29093428 29188000 29289930 
2773.357 29399364 29514536 29632614 29749868 29863892 29973790 30080238 
2776.732 30185042 30290438 30397532 30506428 30616100 30725336 30833212 
2780.107 30940616 31049116 31160952 31277698 31399210 31523216 31646010 
2783.482 31763702 31873122 31973508 32066784 32156974 32249254 32347906 
2786.858 32456152 32574710 32702766 32838256 32978974 33123028 33269596 
2790.233 33418578 33569936 33723496 33878580 34033468 34186184 34334476 
2793.608 34476792 34612228 34741856 34868184 34994872 35126628 35267368 
2796.983 35419300 35582652 35755560 35933900 36113360 36290296 36462588 
2800.359 36630332 36795076 36959268 37124424 37291376 37459224 37626668 
2803.734 37792148 37955096 38116252 38277472 38441176 38609432 38783188 
2807.109 38962380 39146140 39332700 39520716 39709000 39896812 40083548 
2810.484 40268768 40452132 40633540 40813064 40991452 41169480 41348088 
2813.860 41527356 41706840 41885088 42060420 42231584 42398936 42564352 
2817.235 42731032 42902680 43081892 43269124 43462040 43655848 43845200 
2820.610 44025132 44193508 44351756 44503816 44654388 44807032 44961900 
2823.985 45115128 45259036 45385516 45487568 45562264 45610548 45637452 
2827.361 45648824 45648900 45638520 45614560 45570912 45500556 45396956 
2830.736 45256244 45075940 44854460 44589724 44277856 43913488 43490896 
2834.111 43004916 42452464 41832040 41143288 40385256 39555304 38649236 
2837.486 37661320 36586676 35421604 34165216 32819354 31387314 29873296 
2840.862 28280970 26614130 24876396 23071046 21202090 19272204 17283170 
2844.237 15234084 13122249 10944344 8698568 6388177 4023157 1623051 -782087 
2848.094 -3155460 -5451250 -7619858 -9611790 -11375584 -12864567 -14036050 
2851.469 -14851599 -15281992 -15306846 -14917811 -14120606 -12934750 
2854.363 -11393787 -9537957 -7415054 -5072178 -2552091 104219 2862318 
2857.738 5690011 8556072 11431308 14286530 17093542 19828458 22469244 
2861.113 24998412 27402050 29668726 31789870 33759376 35573444 37231664 
2864.488 38737112 40096848 41319848 42417132 43400812 44282368 45075832 
2867.864 45797180 46466252 47107480 47747288 48411112 49121332 49892064 
2871.239 50729068 51628852 52581396 53571568 54581396 55592340 56584688 
2874.614 57537776 58432076 59246948 59964584 60569836 61050456 61398576 
2877.989 61607664 61673956 61595788 61374228 61014192 60523748 59914296 
2881.365 59196704 58378556 57463448 56449508 55332456 54109008 52780252 
2884.740 51354136 49845456 48270712 46647644 44990268 43306684 41601444 
2888.115 39875928 38131592 36371464 34599708 32821782 31043030 29267032 
2891.490 27496856 25735200 23984618 22248634 20531056 18835818 17166716 
2894.865 15526700 13918891 12346054 10811605 9317967 7866628 6456677 5084544 
2898.723 3744771 2431709 1140312 -131886 -1385276 -2619151 -3832585 -5026785 
2902.580 -6205886 -7374954 -8541078 -9710464 -10888341 -12078533 -13284947 
2905.956 -14512054 -15766090 -17054940 -18385840 -19766118 -21200408 
2908.849 -22691552 -24240832 -25849392 -27519414 -29254782 -31061112 
2911.742 -32944244 -34909820 -36960976 -39097792 -41317284 -43613332 
2914.635 -45975052 -48389028 -50837736 -53298216 -55744568 -58145864 
2917.528 -60466244 -62668868 -64711848 -66552088 -68147600 -69455528 
2920.421 -70437576 -71062352 -71305480 -71154080 -70604240 -69660792 
2923.314 -68333608 -66636792 -64587480 -62206936 -59523684 -56574344 
2926.207 -53401776 -50055360 -46582096 -43022772 -39410880 -35769468 
2929.100 -32115292 -28462696 -24824280 -21213724 -17643850 -14124935 
2931.993 -10664608 -7268385 -3940657 -687880 2481559 5557426 8528835 
2935.368 11387086 14125896 16740600 19227800 21582216 23796906 25863576 
2938.744 27773622 29520566 31101080 32514390 33761884 34845168 35764952 
2942.119 36520428 37109376 37528472 37774764 37845360 37738444 37454676 
2945.494 36997836 36375460 35598980 34684716 33649556 32511428 31286954 
2948.869 29989944 28633580 27232012 25802108 24366488 22952926 21590366 
2952.245 20308200 19129382 18067970 17128248 16305786 15591402 14973594 
2955.620 14443250 13993448 13619424 13318044 13086291 12921047 12820328 
2958.995 12783814 12813161 12912002 13084208 13331437 13651665 14038927 
2962.370 14483844 14974829 15499916 16049499 16615752 17193326 17779300 
2965.746 18371870 18969682 19571056 20172812 20769982 21355410 21919844 
2969.121 22453784 22948384 23396966 23797012 24149466 24458670 24730596 
2972.496 24971492 25185940 25377134 25545746 25691292 25813256 25911370 
2975.871 25986256 26039308 26072626 26088140 26087614 26072732 26045322 
2979.247 26007188 25961246 25910738 25859180 25809810 25764838 25724758 
2982.622 25688654 25653292 25614522 25568940 25513732 25448238 25374816 
2985.997 25297964 25222916 25155324 25099046 25055272 25023366 25000306 
2989.372 24982794 24967842 24953664 24939802 24926642 24915344 24905870 
2992.748 24898360 24892254 24887060 24883026 24880850 24881692 24886464 
2996.123 24895588 24908360 24923730 24940610 24959244 24980336 25006624 
2999.498 25040530 25084056 25137102 25197598 25261790 25325642 25386022 
3002.873 25442232 25496022 25550454 25609390 25674488 25745008 25818108 
3006.249 25888862 25953474 26009968 26059678 26106122 26154858 26210498 
3009.624 26275720 26350034 26430632 26513072 26593064 26667716 26736706 
3012.999 26801794 26865378 26931544 27002976 27082246 27170314 27266832 
3016.374 27369864 27475924 27580276 27678156 27765074 27839114 27900906 
3019.750 27954722 28007448 28067496 28142402 28237474 28353964 28489416 
3023.125 28637650 28790324 28939086 29077270 29201040 29310596 29409612 
3026.500 29504182 29600722 29704736 29818428 29940740 30067916 30194276 
3029.875 30315308 30428522 30534866 30638108 30743580 30855446 30975522 
3033.250 31102716 31233760 31364412 31491968 31616036 31738930 31863778 
3036.626 31994014 32130856 32272880 32416626 32557924 32693014 32820638 
3040.001 32941870 33059842 33178390 33300862 33428668 33561380 33696820 
3043.376 33832048 33964452 34093136 34218200 34341936 34467000 34595936 
3046.751 34730944 34872132 35018648 35168624 35319804 35470676 35620664 
3050.127 35769696 35918784 36067916 36217108 36365444 36512248 36657372 
3053.502 36801780 36948048 37099020 37257116 37423360 37596428 37773572 
3056.877 37951368 38127540 38301392 38474520 38649672 38829748 39015808 
3060.252 39207168 39401336 39595152 39785828 39972224 40154816 40334100 
3063.628 40511420 40686408 40858380 41025756 41188492 41347868 41507852 
3067.003 41673104 41848200 42036292 42237496 42449172 42666396 42884208 
3070.378 43098796 43308404 43514268 43719272 43927124 44141424 44363864 
3073.753 44594204 44829956 45067268 45301732 45529516 45747736 45956084 
3077.129 46155652 46349704 46542148 46736748 46936268 47141936 47353356 
3080.504 47569128 47787192 48006552 48226652 48448232 48672852 48902300 
3083.879 49137732 49379488 49626876 49878460 50131416 50383324 50631212 
3087.254 50873172 51108332 51337092 51561200 51784000 52009608 52242284 
3090.630 52485888 52743100 53014500 53298844 53592820 53891460 54188956 
3094.005 54478764 54755576 55015148 55256592 55482048 55697720 55911992 
3097.380 56133980 56372576 56632628 56914856 57215448 57527712 57842320 
3100.755 58152196 58452432 58742028 59022976 59299052 59573976 59850668 
3104.131 60130808 60415816 60707144 61007520 61319312 61644892 61983860 
3107.506 62332692 62685288 63034156 63373096 63698836 64011612 64315200 
3110.881 64614848 64914860 65217920 65523936 65832048 66141276 66452532 
3114.256 66767960 67091032 67423872 67766688 68117056 68470504 68822376 
3117.632 69169712 69511808 69850240 70188088 70527480 70869160 71212136 
3121.007 71554200 71892824 72225992 72553312 72874968 73192272 73507176 
3124.382 73822816 74143872 74475872 74824616 75194720 75586976 75998024 
3127.757 76420448 76844224 77259952 77661816 78048488 78423336 78792584 
3131.133 79162392 79536760 79916920 80301184 80686840 81071120 81452936 
3134.508 81832288 82210096 82587264 82964968 83343320 83723488 84106640 
3137.883 84494560 84888224 85287976 85692120 86098272 86503704 86906808 
3141.258 87307928 87708976 88113080 88522672 88939488 89363176 89792808 
3144.634 90226624 90662800 91099736 91534616 91964808 92386672 92797280 
3148.009 93195832 93584520 93969160 94357304 94756968 95173288 95607400 
3151.384 96055712 96511712 96968504 97420696 97866360 98307328 98747824 
3154.759 99193016 99647208 100112472 100588768 101073480 101561800 102048024 
3158.135 102525560 102988672 103433824 103860656 104272192 104675232 
3161.028 105078728 105491088 105919400 106366720 106832968 107314480 
3163.921 107805880 108301488 108795792 109284384 109763648 110231680 
3166.814 110687480 111132720 111570880 112006984 112446240 112892984 
3169.707 113348672 113811760 114278712 114744992 115207112 115664064 
3172.600 116117208 116570392 117027168 117490776 117961744 118438664 
3175.493 118918624 119397912 119873872 120345112 120811712 121275384 
3178.386 121738368 122203256 122671280 123142616 123616096 124089088 
3181.279 124558616 125021976 125477792 125926464 126370712 126814720 
3184.172 127263216 127720280 128188328 128667560 129155728 129647824 
3187.065 130139184 130624312 131099168 131562200 132014336 132458848 
3189.958 132900400 133344008 133793264 134249184 134710272 135173280 
3192.851 135634480 136091248 136543088 136991664 137440448 137892192 
3195.744 138349600 138812944 139281312 139752960 140224992 140695504 
3198.637 141161648 141620816 142069760 142505952 142928560 143338384 
3201.531 143738688 144134544 144531984 144935552 145348336 145771680 
3204.424 146205312 146649232 147102512 147564512 148032928 148503712 
3207.317 148970656 149426992 149866448 150286432 150688128 151076624 
3210.210 151458528 151841296 152230128 152628112 153036880 153456976 
3213.103 153888720 154331248 154782416 155236880 155687056 156125232 
3215.996 156544576 156943024 157322512 157690128 158053424 158419424 
3218.889 158791792 159170128 159551280 159931552 160308304 160680672 
3221.782 161049984 161417648 161785376 162154448 162525744 162901120 
3224.675 163282192 163670432 164065664 164465504 164865232 165259552 
3227.568 165643408 166014656 166372896 166719600 167056624 167384960 
3230.461 167704992 168017888 168326672 168636496 168954720 169286368 
3233.354 169633616 169992976 170357664 170718032 171066848 171400560 
3236.247 171719424 172025984 172322096 172607872 172881584 173142464 
3239.140 173393600 173642864 173902688 174185648 174499536 174844128 
3242.033 175211120 175587056 175957456 176312144 176646992 176963168 
3244.927 177263520 177550864 177825280 178085392 178330512 178562976 
3247.820 178787808 179011904 179240448 179475360 179714592 179954320 
3250.713 180191824 180426752 180661440 180899136 181140672 181383296 
3253.606 181621440 181849424 182066048 182275968 182488368 182713472 
3256.499 182957136 183217408 183485216 183746816 183991456 184213616 
3259.392 184416272 184607312 184796496 184990160 185189408 185391312 
3262.285 185591456 185787392 185978928 186167568 186354336 186538080 
3265.178 186715040 186881968 187037344 187184176 187328032 187474240 
3268.071 187624656 187775920 187920432 188050576 188162432 188258720 
3270.964 188347776 188440672 188544800 188662864 188790512 188921040 
3273.857 189048000 189169952 189289824 189413520 189545200 189685440 
3276.750 189830528 189975424 190116576 190253792 190390192 190528816 
3279.643 190670176 190810048 190940656 191053920 191146080 191219040 
3282.536 191279520 191336608 191395904 191458000 191517792 191567840 
3285.429 191601840 191618016 191619104 191610688 191598944 191588240 
3288.323 191581760 191582320 191593392 191619600 191663968 191725792 
3291.216 191798224 191869248 191926512 191960016 191968112 191956976 
3294.109 191938880 191925328 191923888 191935232 191954912 191976720 
3297.002 191996096 192012400 192027248 192041824 192054064 192058176 
3299.895 192047648 192018832 191973424 191919408 191866416 191823280 
3302.788 191791744 191767104 191740048 191702192 191650368 191587360 
3305.681 191520464 191456976 191400176 191347360 191291824 191227488 
3308.574 191151840 191068080 190982752 190902352 190830048 190764032 
3311.467 190699536 190631984 190560400 190487600 190418608 190356816 
3314.360 190301040 190245440 190181552 190101840 190003088 189887376 
3317.253 189759888 189625696 189487632 189345168 189196128 189039408 
3320.146 188875936 188709312 188543664 188380800 188219408 188056416 
3323.039 187889344 187719296 187552400 187396336 187257744 187137472 
3325.932 187029200 186920800 186799440 186656224 186489312 186303056 
3328.825 186105200 185902560 185698304 185492368 185283936 185074112 
3331.719 184867296 184668944 184483200 184308464 184138016 183961344 
3334.612 183769728 183560704 183338944 183115824 182901792 182703696 
3337.505 182519840 182342256 182159744 181964064 181752176 181526560 
3340.398 181292144 181052976 180810032 180562208 180308144 180048768 
3343.291 179788880 179534000 179288320 179051104 178816176 178575616 
3346.184 178323216 178059264 177790192 177527280 177281408 177057184 
3349.077 176851968 176655792 176457072 176245424 176015888 175768240 
3351.970 175505360 175229184 174940384 174637680 174320720 173991920 
3354.863 173657344 173324560 173000752 172689824 172391968 172104560 
3357.756 171825424 171553504 171289072 171032496 170780912 170527600 
3360.649 170264224 169982832 169680864 169361344 169033632 168708672 
3363.542 168393376 168089072 167790864 167490832 167182080 166862336 
3366.435 166534656 166205248 165879920 165561040 165247728 164936864 
3369.328 164625408 164312288 163997648 163681248 163360416 163029776 
3372.221 162682960 162316912 161933952 161543568 161159072 160793392 
3375.115 160453744 160138864 159839440 159543104 159238400 158919488 
3378.008 158586048 158243040 157896112 157548800 157202432 156856624 
3380.901 156511360 156167584 155827632 155492528 155161616 154831152 
3383.794 154495840 154151232 153796032 153432496 153065248 152698000 
3386.687 152333024 151968816 151603008 151234032 150863152 150494096 
3389.580 150130832 149775632 149425552 149073760 148712032 148333968 
3392.473 147938304 147529296 147114976 146703008 146297776 145899808 
3395.366 145506736 145115824 144726448 144339584 143957456 143580608 
3398.259 143207152 142833296 142455088 142071280 141684448 141300400 
3401.152 140924928 140561792 140210768 139867376 139526016 139181472 
3404.045 138831200 138474320 138110448 137737904 137353904 136955968 
3406.938 136544128 136122976 135700192 135285104 134883296 134494608 
3409.831 134112480 133727536 133332448 132925328 132511168 132099032 
3412.724 131697920 131311880 130938368 130569608 130197856 129818064 
3415.617 129431144 129041848 128656208 128276688 127901464 127524376 
3418.510 127139192 126741336 126330600 125909536 125480848 125045224 
3421.404 124601296 124147424 123685304 123221600 122767616 122334104 
3424.297 121927200 121544400 121174984 120803352 120415544 120005672 
3427.190 119576952 119140544 118708184 118288224 117881488 117481480 
3430.083 117078928 116667088 116244936 115817400 115392312 114977272 
3432.976 114575432 114185136 113801984 113420552 113036920 112648600 
3435.869 112254192 111852032 111439640 111015216 110578824 110133248 
3438.762 109683872 109236744 108796600 108364592 107939464 107518456 
3441.655 107099928 106683832 106271736 105864472 105460080 105053608 
3444.548 104639016 104211120 103769976 103320952 102873816 102437920 
3447.441 102017976 101611656 101211168 100806112 100390280 99962872 99529272 
3450.816 99097056 98673592 98262704 97863496 97471912 97083416 96694984 
3454.192 96305488 95914776 95522424 95126096 94723088 94310904 93888816 
3457.567 93458688 93023432 92585552 92145968 91704048 91259224 90812984 
3460.942 90369848 89935728 89515272 89108440 88709264 88306928 87889784 
3464.317 87450792 86990064 86514864 86035896 85563960 85104944 84659056 
3467.693 84223480 83796136 83378200 82975360 82593560 82235680 81897504 
3471.068 81568144 81232040 80875728 80492536 80084664 79661096 79233680 
3474.443 78812128 78400552 77997856 77600160 77204376 76810184 76419336 
3477.818 76033704 75652952 75273080 74888896 74495184 74090544 73677920 
3481.194 73264280 72856040 72457504 72068216 71684400 71301184 70915232 
3484.569 70526080 70134656 69742464 69349496 68954320 68555312 68151752 
3487.944 67745304 67339168 66936232 66536948 66138728 65737052 65328360 
3491.319 64912700 64495212 64084880 63690588 63318424 62967808 62632204 
3494.695 62300568 61962800 61612280 61247812 60872592 60492364 60111592 
3498.070 59733096 59357396 58984944 58616336 58253464 57897896 57549996 
3501.445 57208116 56868660 56528564 56186212 55843668 55504264 55171104 
3504.820 54844852 54522640 54199880 53871616 53535696 53192432 52844124 
3508.196 52493816 52142104 51786988 51424628 51053064 50674220 50295072 
3511.571 49925512 49575844 49252024 48953664 48673704 48401444 48124992 
3514.946 47835800 47530648 47211560 46884108 46554692 46228800 45909784 
3518.321 45598220 45292720 44989864 44686152 44377628 44061288 43735508 
3521.697 43400704 43059936 42717612 42378480 42045744 41719904 41399480 
3525.072 41081988 40766216 40452568 40143656 39842372 39550728 39268276 
3528.447 38992320 38719000 38445268 38169140 37891204 37612612 37334600 
3531.822 37057044 36779640 36501040 36220708 35939120 35657136 35376056 
3535.198 35096448 34818064 34540256 34262800 33986740 33713540 33444486 
3538.573 33179712 32916744 32652040 32381962 32104526 31820816 31536042 
3541.948 31257186 30990682 30741126 30508596 30289338 30076298 29862686 
3545.323 29643716 29417838 29187326 28955768 28727024 28503498 28286132 
3548.698 28074142 27865824 27658064 27446450 27225698 26991022 26739666 
3552.074 26473838 26200044 25928042 25667106 25423470 25198546 24989882 
3555.449 24793140 24603782 24419202 24238308 24061064 23886586 23712458 
3558.824 23534518 23347980 23149918 22940664 22724388 22507210 22295788 
3562.199 22094684 21904964 21725290 21552514 21383392 21215136 21045138 
3565.575 20870442 20687094 20490728 20278620 20051866 19816804 19581558 
3568.950 19353782 19138246 18937078 18750600 18577482 18416014 18264384 
3572.325 18119372 17977066 17833290 17682760 17521452 17347754 17163474 
3575.700 16973382 16784268 16602945 16433366 16276268 16128721 15985761 
3579.076 15842091 15693866 15540299 15383422 15227667 15077558 14938029 
3582.451 14811539 14698487 14596395 14500082 14401462 14290776 14157867 
3585.826 13993789 13795878 13570091 13332599 13104834 12903674 12736077 
3589.201 12598664 12483594 12382464 12289538 12201369 12115807 12030127 
3592.577 11939830 11839134 11722699 11587544 11436444 11277676 11122740 
3595.952 10982845 10864804 10769724 10693579 10627565 10561019 10483553 
3599.327 10386383 10264570 10118066 9952457 9777353 9604387 9444222 9303885 
3603.185 9185082 9085259 8998110 8915984 8831845 8740420 8640733 8535053 
3607.042 8428589 8327014 8234951 8152767 8077519 8005320 7932054 7855056 
3610.899 7773111 7685180 7590860 7490223 7384654 7277898 7174773 7081541 
3614.757 7001258 6935467 6882175 6837674 6796005 6749629 6690673 6611875 
3618.614 6509379 6384815 6245665 6103097 5967766 5848361 5749436 5671615 
3622.472 5613946 5573367 5546586 5529806 5519839 5514000 5510175 5506551 
3626.329 5500309 5486887 5459876 5411125 5335478 5237274 5131949 5036372 
3630.187 4960622 4904556 4862435 4827489 4793751 4756566 4712684 4660368 
3634.044 4599082 4529502 4453841 4375348 4298910 4230282 4175915 4140923 
3637.901 4127510 4132895 4149922 4169927 4184145 4187256 4178892 4163002 
3641.759 4146242 4135337 4135036 4146744 4168689 4197260 4229177 4261466 
3645.616 4292418 4321030 4346632 4367985 4382611 4385891 4371332 4332275 
3649.474 4264009 4167953 4052018 3928692 3809713 3703097 3611475 3533802 
3653.331 3467733 3410189 3358930 3313621 3275427 3247151 3231261 3227555 
3657.188 3233330 3243913 3254294 3261138 3262273 3257166 3246583 3231962 
3661.046 3214771 3196278 3176852 3156826 3136701 3117311 3100725 3089813 
3664.903 3087310 3095186 3114842 3146213 3187867 3236902 3288514 3335090 
3668.761 3366944 3373823 3350382 3301100 3239406 3181458 3138337 3115476 
3672.618 3113240 3128258 3154056 3180524 3193241 3178822 3135099 3076332 
3676.476 3023277 2989412 2977969 2983307 2996352 3005761 3001623 2977736 
3680.333 2933933 2876127 2814559 2761003 2725359 2714256 2729626 2767739 
3684.190 2820496 2877628 2929897 2970363 2995651 3006228 3005360 2999054 
3688.048 2992815 2990714 2991181 2987944 2972264 2937870 2882631 2809557 
3691.905 2725392 2639243 2559244 2491523 2440239 2406220 2388062 2381832 
3695.763 2382398 2384164 2382832 2377001 2368372 2361143 2360744 2372071 
3699.620 2397991 2438107 2487291 2536847 2576009 2596075 2594242 2573176 
3703.478 2540113 2503287 2470929 2449869 2444405 2456700 2485558 2526615 
3707.335 2571676 2611609 2636643 2640143 2620675 2584409 2544812 2517017 
3711.192 2512851 2533947 2570910 2608242 2633776 2641877 2634543 2617609 
3715.050 2597942 2580776 2567843 2557944 2547146 2531315 2506786 2472862 
3718.907 2431043 2384897 2337524 2291355 2247588 2207523 2173089 2148015 
3722.765 2136627 2142820 2167828 2209688 2262143 2316004 2361710 2390761 
3726.622 2399890 2391561 2373037 2352715 2338157 2334826 2345752 2372037 
3730.479 2412884 2465664 2524649 2582109 2629576 2659712 2667180 2649711 
3734.337 2607542 2544179 2467630 2390494 2324499 2277731 2252285 2245257 
3738.194 2252051 2267306 2285992 2303046 2314838 2319235 2315904 2307310 
3742.052 2297350 2292087 2298150 2322367 2366240 2423413 2481193 2529248 
3745.909 2564477 2588675 2604675 2614475 2618342 2615809 2606975 2593009 
3749.767 2577276 2562444 2548945 2533848 2512152 2481193 2442005 2399557 
3753.624 2360011 2328896 2310042 2304612 2312040 2329962 2354747 2381732 
3757.481 2406553 2425245 2434942 2433809 2422047 2401423 2375802 2350150 
3761.339 2328896 2314772 2308076 2307110 2308376 2307477 2301281 2288657 
3765.196 2272735 2259445 2255316 2265108 2289623 2326064 2368739 2410485 
3769.054 2443305 2460932 2460699 2444405 2416316 2381232 2342887 2303746 
3772.911 2265507 2230270 2200563 2179183 2168627 2169593 2180449 2197999 
3776.769 2216615 2230003 2231602 2217214 2186276 2143753 2099036 2062547 
3780.626 2041007 2036313 2045568 2063645 2084986 2105229 2123408 2140590 
3784.483 2159470 2181381 2204426 2223143 2229737 2217414 2183512 2131766 
3788.341 2071835 2016640 1979458 1968474 1984817 2021899 2069005 2113786 
3792.198 2147549 2166862 2174088 2174055 2172324 2172257 2173955 2174821 
3796.056 2171624 2163133 2151411 2141355 2137759 2144086 2161068 2187442 
3799.913 2219179 2250719 2275933 2290922 2296085 2295785 2294952 2296384 
3803.771 2300215 2304945 2308476 2308276 2302880 2292354 2279297 2268239 
3807.628 2263109 2265641 2274367 2286058 2296551 2302214 2300082 2289123 
3811.485 2269571 2243558 2213684 2182014 2150046 2118280 2087117 2057986 
3815.343 2033817 2018604 2015841 2026659 2050129 2084952 2130767 2188041 
3819.200 2256215 2332660 2407886 2467030 2495356 2487924 2453035 2405121 
3823.058 2357012 2314672 2278731 2245590 2209688 2165896 2112221 2051327 
3826.915 1991208 1940849 1907168 1892592 1895121 1909165 1927836 1944943 
3830.772 1955527 1957257 1950534 1937388 1920181 1901344 1882975 1868033 
3834.630 1860246 1864539 1884738 1922877 1976529 2039210 2101034 2152643 
3838.487 2188874 2209688 2219346 2221910 2219346 2210387 2192204 2162067 
3842.345 2120378 2070803 2020235 1975730 1941847 1919116 1904240 1891960 
3846.202 1878316 1861910 1845139 1832694 1830798 1845006 1878216 1930265 
3850.060 1997433 2074998 2156739 2235765 2304512 2353314 2373137 2361576 
3853.917 2324699 2274634 2220578 2167462 2117648 2072467 2033817 2003491 
3857.774 1982520 1970571 1965279 1962583 1957524 1945741 1924507 1894223 
3861.632 1859115 1826339 1803913 1799056 1814993 1850164 1897218 1946174 
3865.489 1987513 2015807 2029988 2032152 2025494 2013044 1997499 1980956 
3869.347 1965146 1951133 1938919 1927569 1915821 1903175 1889830 1877184 
3873.204 1867567 1864306 1870262 1886735 1912892 1946041 1983253 2021267 
3877.062 2057120 2087916 2110423 2122276 2122443 2113453 2100900 2092510 
3880.919 2094275 2107459 2128702 2151911 2170792 2180182 2176852 2160369 
3884.776 2133897 2103830 2078327 2064078 2063013 2073500 2092710 2118081 
3888.634 2147216 2177818 2206691 2228138 2235665 2223709 2190373 2139591 
3892.491 2078993 2018670 1966144 1927303 1905005 1900346 1912793 1940649 
3896.349 1981855 2032851 2088981 2145451 2196100 2236031 2262210 2274201 
3900.206 2274234 2266240 2254982 2244291 2237131 2235265 2239429 2248354 
3904.063 2259179 2268005 2271003 2266540 2255482 2241593 2229437 2224208 
3907.921 2230270 2249020 2279197 2316637 2355513 2389262 2413017 2424346 
3911.778 2423746 2414150 2399657 2384298 2370805 2361077 2355713 2353981 
3915.636 2354614 2355413 2353747 2347318 2334892 2317103 2296651 2278064 
3919.493 2265674 2263609 2273401 2294153 2322034 2352448 2380266 2400723 
3923.351 2411451 2411951 2405187 2395525 2388695 2388729 2397258 2413117 
3927.208 2433076 2453035 2468730 2477660 2478693 2473128 2463598 2453202 
3931.065 2443605 2435175 2426745 2417915 2409252 2403988 2406320 2419748 
3934.923 2445671 2481293 2520650 2555145 2576676 2579742 2563744 2533314 
3938.780 2497022 2463331 2439840 2429344 2431310 2442039 2456800 2472095 
3942.638 2486191 2499854 2514618 2531448 2549979 2567877 2581609 2588309 
3946.495 2585475 2572943 2552412 2527949 2504487 2486124 2475161 2471595 
3950.353 2472995 2475694 2476227 2472595 2464664 2454234 2444871 2440906 
3954.210 2445537 2460532 2485458 2517584 2552778 2586042 2613075 2630209 
3958.067 2635410 2628109 2609475 2582109 2550245 2519217 2494556 2480926 
3961.925 2480993 2494023 2516317 2542480 2566510 2583642 2591542 2589742 
3965.782 2579976 2564877 2547745 2531414 2517984 2509619 2507852 2513318 
3969.640 2526216 2545512 2569210 2594075 2617675 2637376 2652611 2663879 
3973.497 2672914 2682049 2693384 2707621 2724558 2742130 2757736 2768473 
3977.354 2771541 2765472 2750366 2728560 2704020 2682116 2668713 2668146 
3981.212 2683149 2712855 2753367 2798585 2841140 2874592 2894739 2899675 
3985.069 2890670 2870757 2844341 2815727 2788381 2764405 2744231 2727493 
3988.927 2713155 2700552 2690050 2682116 2678648 2680615 2689017 2703120 
3992.784 2721624 2741563 2760303 2774975 2783712 2784879 2778210 2764205 
3996.642 2744231 2720824 2697585 2679148 2669647 2671647 2685016 2706054 
4000.499 2728626 
##END=
