##TITLE=eg_2 26.08. 11:32:34 2026 (GMT+02:00)
##JCAMP-DX=5.01  $$ Nicolet v. 970
##DATATYPE=INFRARED SPECTRUM
##ORIGIN=Vojna akademija
##OWNER=Nicolet
##LONGDATE=2026/08/26
##TIME=11:33:02
##SPECTROMETER/DATA SYSTEM=Nicolet iS20
##DATA PROCESSING=
Ratio against background
%Transmittance->Absorbance
Truncated
ElementMultiply or ElementDivide
##COMMENTS=
Number of sample scans: 8
Collection length: 11,90 sec
Sample gain: 8,0
Background collected on: Wed Aug 26 11:06:29 2026 (GMT+02:00);
Number of background scans: 8
Background gain: 8,0
Sample spacing:  1,000
Number of scan points: 12415
Resolution points: 8286
Number of FFT points: 65536
Apodization: N-B strong;
Phase correction: Mertz;
Laser frequency: 15798,00 cm-1
Number of rejected sample scans: 0
Number of rejected background scans: 0
Bench serial number: BER2010005;
##RESOLUTION= 4,000
##XUNITS=1/CM
##YUNITS=ABSORBANCE
##FIRSTX=400.156891
##LASTX=4000.123047
##FIRSTY=0.188497
##MAXX=4000.123047
##MINX=400.156891
##MAXY=0.655791
##MINY=0.003602
##XFACTOR=1.000000
##YFACTOR=1.000000E-009
##NPOINTS=7468
##DELTAX=0.482117
##ZPD=6100
##XYDATA=(X++(Y..Y))
400.157 188497088 188351920 189154176 190034496 190551200 190796832 
403.050 191128064 191841984 192893168 193873712 194156208 193297696 
405.942 191336816 188847280 186616960 185303168 185147856 185967040 
408.835 187327984 188830544 190328784 191944560 193893232 196236432 
411.728 198719424 200828768 202011520 201968816 200872512 199310016 
414.620 198007200 197460752 197829424 198910064 200311120 201596096 
417.513 202512064 203086240 203539328 203946336 204015376 203296464 
420.406 201644432 199366624 197112128 195555072 195254080 196405280 
423.298 198755136 201631792 204240000 206027664 206918576 207270736 
426.191 207586112 208207408 209156368 210189424 210984096 211370800 
429.084 211423920 211430448 211696000 212374624 213353984 214323664 
431.977 214943824 215069760 214821312 214509952 214431984 214730544 
434.869 215303168 215892992 216240112 216284912 216211408 216338288 
437.762 216885136 217843728 218970624 219942624 220516480 220687632 
440.655 220697680 220939488 221725408 223093040 224759440 226266208 
443.547 227256064 227665616 227746096 227876576 228333712 229115920 
446.440 229956784 230487792 230494896 230071280 229605488 229543728 
449.333 230191536 231540608 233302880 235035760 236392912 237269264 
452.225 237853872 238461152 239310752 240343056 241261680 241683312 
455.118 241389008 240470768 239364560 238689264 238964816 240314928 
458.011 242337040 244319696 245678624 246295344 246454864 246604064 
460.904 247064080 247914400 248967696 249928544 250585408 250989312 
463.796 251437968 252327264 253910576 256192960 258900736 261630096 
466.689 263986208 265776880 267056352 268030704 268870464 269590656 
469.582 270063936 270145792 269825056 269323008 269016512 269288480 
472.474 270290944 271839552 273509696 274907968 275903040 276649216 
475.367 277452384 278554144 279990944 281556224 282908320 283769504 
478.260 284122144 284230592 284505280 285239712 286460352 287869856 
481.152 289008000 289446976 289056352 288056512 286913440 286055456 
484.045 285677728 285651424 285658592 285403648 284836320 284184448 
486.938 283834144 284090784 285017088 286402592 287880832 289124160 
489.831 290005760 290664864 291408928 292519072 294061792 295846848 
492.723 297527296 298827040 299687296 300304864 300985856 301988192 
495.616 303370464 304997120 306640032 308152864 309573728 311120160 
498.509 313027520 315400416 318095200 320770688 323007488 324565856 
501.401 325541664 326382080 327631456 329645760 332397600 335519584 
504.294 338493440 340932384 342765792 344236448 345760992 347684960 
507.187 350124800 352903744 355687008 358161088 360209952 361909312 
510.079 363409280 364783328 365951424 366714752 366914368 366565024 
512.972 365917760 365349152 365215968 365652800 366517184 367421792 
515.865 367936064 367762208 366872832 365469248 363824640 362082144 
518.758 360181216 357931808 355197728 352039296 348735808 345648640 
521.650 343049792 340998976 339310368 337637216 335626048 333085376 
524.543 330044064 326723552 323387104 320215104 317216160 314280352 
527.436 311294432 308260352 305310560 302649472 300425408 298659680 
530.328 297212544 295856576 294362784 292621056 290671904 288658304 
533.221 286722496 284921440 283206080 281471232 279642784 277750432 
536.114 275930080 274369312 273206336 272456704 272009984 271689184 
539.007 271356416 270971744 270608736 270388128 270393568 270600576 
541.899 270881024 271066720 271057280 270881632 270697408 270699520 
544.792 271032736 271691488 272520128 273265824 273714464 273781024 
547.685 273534880 273136224 272752448 272487392 272356480 272333792 
550.577 272411104 272631360 273076608 273802496 274774336 275836544 
553.470 276762240 277335680 277446816 277150080 276635104 276138976 
556.363 275826112 275745888 275831936 275978784 276111168 276237920 
559.255 276428640 276753280 277212576 277716384 278115680 278296384 
562.148 278243456 278069344 277947040 278032064 278362208 278840608 
565.041 279275296 279492640 279434976 279198176 278979840 278980672 
567.934 279297952 279871040 280513856 281011104 281237248 281198528 
570.826 281016192 280837376 280763072 280796384 280869120 280899808 
573.719 280860064 280794784 280792320 280913696 281142304 281369376 
576.612 281458848 281318048 280971104 280542656 280205120 280080416 
579.504 280184512 280422400 280653152 280769472 280772640 280770368 
582.397 280916672 281313504 281942944 282658912 283254144 283563712 
585.290 283532896 283244480 282860416 282537376 282344608 282257184 
588.182 282193632 282091680 281955680 281862080 281907488 282147840 
591.075 282543232 282971584 283279520 283378400 283288416 283125856 
593.968 283018304 283033440 283124832 283160608 282980448 282491168 
596.861 281718784 280801760 279919840 279210688 278725952 278422400 
599.753 278211776 278025760 277862848 277780896 277850784 278094976 
602.646 278460000 278831328 279091360 279167104 279070848 278876992 
605.539 278676928 278517856 278382656 278208064 277937408 277559712 
608.431 277126272 276715520 276387872 276142528 275921664 275646464 
611.324 275282016 274871904 274531712 274380352 274473184 274744800 
614.217 275031488 275117856 274842784 274176416 273234560 272222944 
617.109 271335072 270681984 270251712 269952192 269682336 269403392 
620.002 269152448 269009120 269028352 269193856 269408160 269540768 
622.895 269479648 269193088 268731200 268191792 267651344 267128080 
625.788 266581840 265962576 265267520 264577536 264026080 263748608 
628.680 263798896 264109104 264496304 264741008 264676368 264249600 
631.573 263538144 262698560 261890912 261200608 260627392 260108560 
634.466 259580496 259021664 258470512 257994112 257645968 257427904 
637.358 257293248 257172848 257025184 256854416 256703584 256615008 
640.251 256591680 256576032 256475840 256202432 255724224 255082464 
643.144 254372656 253687056 253072864 252511056 251940928 251305488 
646.036 250598288 249872304 249219392 248712368 248357680 248083584 
648.929 247773776 247329488 246717472 245988304 245241680 244572720 
651.822 244014800 243532352 243049856 242510336 241915680 241336672 
654.715 240866928 240571888 240433936 240351408 240171648 239773936 
657.607 239118208 238267136 237344864 236484416 235764512 235185408 
660.500 234690448 234214992 233730384 233255632 232833312 232491264 
663.393 232210672 231931696 231580816 231110080 230520896 229867536 
666.285 229237184 228708592 228309360 227966992 227546400 226954144 
669.178 226242016 225545104 224972576 224548240 224223568 223904192 
672.071 223495744 222938080 222238608 221464544 220714256 220056368 
674.963 219495744 218974256 218410192 217744880 216980080 216174960 
677.856 215416928 214775904 214272032 213877632 213542816 213229888 
680.749 212927744 212648432 212398928 212153952 211855232 211430448 
683.642 210834432 210084624 209263616 208487136 207842096 207349648 
686.534 206949776 206536944 206005504 205312672 204499200 203670992 
689.427 202938288 202367840 201952032 201626912 201305200 200923312 
692.320 200466080 199955472 199420352 198865248 198259904 197557584 
695.212 196730928 195800416 194835776 193933792 193173824 192577776 
698.105 192106144 191678384 191221824 190703792 190149360 189618928 
700.998 189174880 188839136 188581680 188331920 188017488 187590992 
703.890 187049728 186422992 185747696 185041632 184296160 183490320 
706.783 182617664 181704592 180811696 180007680 179340032 178813216 
709.676 178388512 178001760 177595744 177147904 176671632 176201472 
712.569 175764768 175362384 174966368 174538352 174051904 173513552 
715.461 172959600 172438256 171979504 171581088 171207680 170814096 
718.354 170365264 169856224 169310544 168761648 168226560 167694464 
721.247 167129984 166499120 165792352 165036864 164283600 163587424 
724.139 162977552 162445008 161949776 161444688 160904112 160337632 
727.032 159785104 159293856 158893920 158580272 158316272 158051712 
729.925 157749968 157399296 157013376 156612016 156204000 155774640 
732.817 155292736 154725584 154062208 153320464 152545728 151788000 
735.710 151088512 150468656 149931120 149470752 149083152 148766384 
738.603 148511120 148289856 148054032 147737552 147284064 146669440 
741.496 145917152 145090736 144274032 143536848 142908240 142374656 
744.388 141892576 141417424 140922640 140411008 139904464 139425408 
747.281 138977008 138540000 138078928 137563680 136982896 136349376 
750.174 135689648 135032048 134390832 133764552 133145688 132532712 
753.066 131937248 131383032 130890984 130466056 130088984 129722640 
755.959 129324824 128867104 128346544 127783016 127205360 126634480 
758.852 126075400 125518400 124950400 124368944 123788216 123234488 
761.744 122733072 122293088 121902592 121534272 121160576 120764576 
764.637 120348872 119927984 119516352 119114696 118707968 118271696 
767.530 117789920 117265928 116727768 116213840 115760128 115380464 
770.423 115063288 114777616 114489648 114178584 113841432 113487760 
773.315 113128232 112762552 112377776 111955360 111484904 110972608 
776.208 110443048 109925912 109439960 108984952 108541616 108086104 
779.101 107606152 107113792 106642320 106232632 105908576 105664064 
781.993 105460664 105245296 104965968 104597064 104143856 103634840 
784.886 103102464 102566760 102028616 101476656 100900024 100302944 99705560 
788.261 99138640 98628096 98181944 97789160 97427632 97080648 96746656 
791.636 96441952 96191928 96014496 95906840 95841392 95772272 95656456 
795.010 95465784 95197424 94872088 94523520 94184608 93878208 93616128 
798.385 93398336 93215752 93049336 92871744 92647272 92338632 91922432 
801.760 91399688 90803384 90189632 89625304 89158888 88803896 88535472 
805.135 88303232 88051432 87741536 87366352 86947200 86520320 86116088 
808.510 85750976 85422232 85116064 84816520 84513600 84203608 83884672 
811.885 83553720 83204888 82834792 82449112 82065336 81709448 81404456 
815.259 81161416 80972768 80816688 80665896 80503784 80331008 80165272 
818.634 80028088 79933408 79877128 79839896 79795336 79724424 79625952 
822.009 79515712 79415840 79342336 79296072 79263624 79227120 79176296 
825.384 79116424 79067728 79054296 79089432 79171208 79283512 79408648 
828.759 79540264 79691624 79889792 80163960 80525800 80961072 81432392 
832.133 81897784 82329672 82734120 83150152 83641208 84269656 85073584 
835.508 86060216 87207592 88479616 89842200 91278488 92787968 94381600 
838.883 96070712 97863704 99768096 101797720 103981840 106363152 108987680 
842.258 111894344 115100032 118598848 122371080 126401216 130693824 
845.151 135279648 140205504 145517952 151242336 157375248 163887840 
848.043 170746256 177931776 185446352 193304624 201511152 210033744 
850.936 218802096 227716432 236678240 245626400 254539520 263416864 
853.829 272238720 280925984 289335360 297291392 304626400 311237376 
856.721 317090400 322191040 326532544 330062080 332687712 334331072 
859.614 334983136 334738336 333758624 332224928 330251232 327857024 
862.507 324991808 321603520 317702688 313399552 308865280 304281952 
865.400 299771712 295363840 291020640 286692160 282374464 278138912 
868.292 274115008 270444768 267246096 264577504 262457904 260898256 
871.185 259932368 259633296 260093664 261383152 263517616 266437856 
874.078 270030176 274149856 278674208 283517248 288612544 293886272 
876.970 299212992 304399040 309230080 313504416 317099808 319992928 
879.863 322224096 323835232 324811200 325063136 324470816 322945280 
882.756 320484832 317180448 313175424 308594240 303487872 297836672 
885.648 291593984 284751744 277381792 269631872 261675744 253665232 
888.541 245677728 237722080 229769056 221797312 213818992 205884752 
891.434 198055696 190382640 182886512 175565504 168416368 161454176 
894.327 154718208 148262960 142132208 136343472 130881760 125712200 
897.219 120798008 116118768 111676056 107486072 103562704 99903448 96486192 
900.594 93276000 90240904 87361856 84639240 82086880 79719648 77541216 
903.969 75540408 73692448 71970992 70353680 68829208 67396248 66055932 
907.344 64806788 63640752 62544488 61505152 60513424 59564928 58658848 
910.719 57794476 56968728 56176972 55415864 54687548 53999992 53366092 
914.093 52796380 52294568 51854896 51464088 51106432 50769400 50448820 
917.468 50145992 49864376 49604144 49358328 49114576 48860436 48588316 
920.843 48300376 48008440 47729088 47477016 47261396 47082480 46934828 
924.218 46809848 46699260 46598064 46502648 46410796 46319736 46227472 
927.593 46133096 46037892 45945440 45858560 45778400 45702272 45625380 
930.967 45543464 45455448 45365584 45281320 45209540 45152808 45106860 
934.342 45062672 45010776 44945916 44871692 44799504 44744844 44720272 
937.717 44732172 44777572 44845752 44921476 44989096 45034664 45046612 
941.092 45017868 44945144 44831940 44689828 44539060 44405044 44310292 
944.467 44269748 44285376 44347096 44438000 44544568 44662136 44796856 
947.841 44961644 45167444 45414248 45686884 45955932 46186640 46351068 
951.216 46435608 46446488 46407776 46355900 46328288 46357632 46466472 
954.591 46661996 46935048 47260696 47604400 47925552 48189480 48377076 
957.966 48490720 48553300 48600248 48669072 48781612 48940236 49127116 
961.341 49316828 49487568 49633936 49768608 49917896 50108096 50353076 
964.716 50649644 50979688 51319492 51648704 51960500 52259024 52556488 
968.090 52863508 53185840 53523588 53874916 54241100 54628024 55043848 
971.465 55494020 55976628 56482864 56999704 57519200 58042580 58581112 
974.840 59148820 59755072 60396052 61054612 61706032 62330092 62921344 
978.215 63492732 64069212 64677984 65336720 66046944 66797868 67574552 
981.590 68369304 69186112 70037816 70937192 71886920 72875200 73880000 
984.964 74878592 75861160 76837976 77837488 78893496 80034544 81273392 
988.339 82604784 84012424 85479064 86994560 88557776 90172056 91839368 
991.714 93556080 95316168 97117648 98970648 100897384 102928240 105088600 
995.089 107387920 109815864 112349200 114966776 117662392 120453840 
997.982 123376032 126467616 129751984 133227736 136870592 140651280 
1000.874 144549392 148568176 152731952 157075152 161622816 166382176 
1003.767 171343536 176495984 181843888 187416480 193258816 199414896 
1006.660 205904128 212712528 219798400 227118256 234654272 242425040 
1009.552 250475520 258846288 267543728 276528448 285729088 295080704 
1012.445 304568480 314241056 324189664 334489472 345153600 356107488 
1015.338 367222592 378370432 389499456 400656320 411957888 423501920 
1018.231 435292832 447204992 459040512 470610976 481850336 492842720 
1021.123 503779648 514826304 526007488 537161088 548010432 558299840 
1024.016 567928832 577002752 585763328 594432064 603053632 611455360 
1026.909 619320256 626369216 632484544 637766912 642422528 646612032 
1029.802 650299648 653252224 655149120 655790848 655214848 653696512 
1032.695 651573120 649088192 646249216 642870144 638701760 633630336 
1035.588 627768576 621421952 614910144 608415552 601896448 595142528 
1038.481 587906816 580070784 571718208 563090176 554443776 545913024 
1041.374 537465536 528945856 520195360 511157856 501925536 492684640 
1044.267 483613856 474782048 466133536 457537568 448894560 440201632 
1047.161 431574208 423173568 415129344 407455616 400049920 392743072 
1050.054 385400352 377979456 370548736 363227776 356121824 349256320 
1052.947 342573952 335975904 329392896 322832224 316380224 310151840 
1055.840 304233632 298643456 293331744 288224480 283279616 278522816 
1058.733 274045632 269958272 266329200 263155408 260359680 257836704 
1061.626 255500608 253334048 251389120 249758560 248517200 247690304 
1064.519 247242064 247105472 247219936 247572400 248199392 249168016 
1067.412 250530160 252293088 254414320 256832784 259505328 262440080 
1070.305 265695120 269348544 273449120 277982336 282863552 287977440 
1073.198 293236960 298619744 304179072 310002752 316154816 322621376 
1076.091 329299712 336029664 342670560 349140160 355432256 361572992 
1078.984 367554272 373282048 378582176 383238304 387085120 390056096 
1081.877 392176992 393503168 394050048 393748032 392477856 390133216 
1084.770 386706464 382310464 377145696 371404128 365192128 358512096 
1087.663 351300320 343503840 335143840 326327840 317211680 307931200 
1090.557 298546336 289045536 279386048 269554112 259602784 249648128 
1093.450 239821552 230228256 220904544 211827056 202945440 194225104 
1096.343 185669136 177315040 169205200 161362672 153776624 146415856 
1099.236 139254928 132300288 125595960 119212656 113212800 107629456 
1102.129 102454696 97648952 93162000 88953920 85007536 81322536 77902024 
1105.504 74740032 71814512 69094152 66551240 64170672 61955468 59919164 
1108.879 58073824 56418076 54932452 53583412 52335756 51159808 50039792 
1112.255 48972836 47963328 47015900 46134424 45321552 44582564 43926760 
1115.630 43363976 42897556 42516440 42191596 41881336 41538332 41127444 
1119.005 40636852 40082788 39503224 38947012 38460980 38073208 37791756 
1122.380 37602932 37479200 37383960 37281736 37145212 36957536 36715960 
1125.755 36432212 36130028 35837596 35581392 35377280 35226904 35118472 
1129.131 35033160 34954792 34875688 34799756 34737692 34701516 34695452 
1132.506 34713248 34739772 34757792 34754812 34728216 34684072 34634440 
1135.881 34588616 34549544 34512272 34466816 34404012 34319556 34216300 
1139.256 34102920 33992148 33896128 33825884 33790784 33796412 33844048 
1142.632 33928556 34038300 34154676 34257852 34332756 34374032 34389024 
1146.007 34394904 34412584 34457208 34532360 34629020 34731268 34822052 
1149.382 34892136 34942836 34984276 35029676 35088692 35164852 35255080 
1152.757 35354740 35461724 35579056 35714296 35875452 36066696 36286120 
1156.133 36526052 36777296 37031280 37283616 37533384 37780112 38022140 
1159.508 38255112 38473436 38674300 38859928 39039408 39225156 39430904 
1162.883 39666920 39937352 40242084 40577624 40939492 41322616 41721212 
1166.258 42127188 42530436 42921072 43293248 43648996 43999060 44361296 
1169.634 44753992 45188400 45665280 46174368 46698780 47221644 47733712 
1173.009 48235648 48736904 49250392 49787520 50355272 50954204 51582132 
1176.384 52235968 52912948 53609804 54321404 55039972 55755580 56461056 
1179.759 57154596 57842016 58534092 59241816 59969716 60713052 61457740 
1183.135 62187416 62890404 63564800 64219652 64871380 65537764 66230224 
1186.510 66952772 67702904 68475552 69266704 70074496 70897480 71732272 
1189.885 72570944 73402440 74215760 75003760 75764928 76502904 77221272 
1193.260 77920976 78599528 79252728 79880832 80490784 81094992 81707096 
1196.636 82332920 82965936 83587024 84174008 84710112 85192656 85633888 
1200.011 86053184 86463672 86862040 87224648 87515808 87702688 87767296 
1203.386 87716480 87577216 87387424 87177944 86967688 86760112 86549640 
1206.761 86330344 86100008 85860504 85612096 85348464 85055888 84717040 
1210.137 84320112 83864864 83364312 82837280 82301352 81762528 81214504 
1213.512 80642632 80033632 79382664 78696624 77988736 77271312 76549704 
1216.887 75820448 75076688 74316448 73547088 72787744 72062000 71388112 
1220.262 70772392 70206896 69674112 69153400 68630552 68101520 67570488 
1223.638 67045560 66534324 66041812 65571212 65126792 64716636 64349668 
1227.013 64034768 63775660 63569708 63409060 63285576 63193968 63134036 
1230.388 63108592 63119248 63161784 63226396 63299372 63369492 63434020 
1233.763 63499784 63580288 63688896 63833452 64012112 64217040 64440056 
1237.139 64678640 64939560 65235132 65576532 65966948 66397944 66852628 
1240.514 67311272 67760416 68197376 68628568 69063072 69505552 69951520 
1243.889 70389208 70804064 71187456 71540952 71874640 72202088 72532912 
1247.264 72869056 73205992 73538136 73863976 74188680 74521344 74867920 
1250.640 75225320 75578064 75903032 76178760 76392952 76546896 76653016 
1254.015 76726472 76776568 76801632 76792144 76737776 76635072 76492120 
1257.390 76324408 76147920 75970312 75787856 75587848 75358088 75096232 
1260.765 74812176 74524568 74249456 73992240 73743768 73483896 73191560 
1264.141 72854872 72475600 72066144 71642272 71217128 70795952 70378424 
1267.516 69964016 69554976 69157784 68779752 68423064 68081792 67742096 
1270.891 67389048 67013472 66617788 66216216 65830892 65481400 65179268 
1274.266 64925052 64710864 64525768 64360388 64211316 64078808 63964732 
1277.641 63869296 63791044 63728072 63681492 63656980 63662544 63705356 
1281.017 63786900 63900620 64033956 64172180 64305284 64430640 64554028 
1284.392 64684296 64829252 64991316 65167448 65351204 65538032 65728380 
1287.767 65926956 66140116 66371956 66621804 66884748 67155312 67431032 
1291.142 67713480 68006872 68312920 68627448 68937856 69228040 69483544 
1294.518 69698032 69877176 70036768 70197784 70377520 70586688 70827312 
1297.893 71096320 71389520 71704760 72041152 72397144 72767608 73143680 
1301.268 73516120 73880944 74243360 74618944 75026992 75485600 76002840 
1304.643 76574440 77185928 77819536 78461208 79104376 79749104 80398504 
1308.019 81052704 81708056 82359664 83005000 83649640 84305784 84987344 
1311.394 85701248 86440832 87185520 87906824 88579592 89193920 89759648 
1314.769 90301680 90847336 91416696 92015840 92636768 93263056 93878824 
1318.144 94474216 95046208 95594760 96119040 96615392 97079904 97512352 
1321.520 97919744 98313728 98706272 99102424 99496520 99873008 100214040 
1324.895 100507824 100754080 100964312 101154864 101339264 101520904 
1327.788 101693648 101846440 101971712 102070152 102149792 102220896 
1330.681 102288400 102348584 102390608 102402352 102379032 102325808 
1333.574 102255944 102181952 102109840 102034744 101944936 101828216 
1336.467 101681296 101512240 101338144 101173520 101020128 100860728 
1339.360 100666720 100411952 100088528 99712816 99317232 98934496 98584312 
1342.735 98272880 97994808 97741600 97508952 97299392 97120840 96979808 
1346.111 96874728 96793520 96717800 96631984 96529592 96418824 96317856 
1349.486 96248336 96224552 96248504 96311112 96399216 96501912 96615344 
1352.861 96742008 96887600 97055624 97245832 97456984 97691520 97958936 
1356.236 98275704 98658864 99117912 99649376 100237664 100860936 101499048 
1359.612 102145720 102808568 103504960 104249496 105037752 105836696 
1362.505 106591800 107246016 107768472 108164728 108467384 108711680 
1365.398 108919936 109095304 109226608 109298032 109301304 109242968 
1368.291 109144760 109034096 108932656 108850576 108787400 108739608 
1371.184 108707216 108695216 108710920 108755992 108820776 108881872 
1374.077 108911496 108893240 108831160 108747520 108667256 108607128 
1376.970 108567816 108538120 108502936 108454544 108398232 108352256 
1379.863 108336648 108365096 108436424 108537104 108648104 108756336 
1382.756 108860960 108974264 109113928 109294272 109518488 109777888 
1385.649 110053024 110322232 110570656 110795616 111005040 111208816 
1388.542 111411456 111609440 111796872 111972088 112141704 112319712 
1391.435 112523432 112766376 113054112 113380592 113731368 114084376 
1394.328 114419520 114724880 115000024 115251960 115488952 115717608 
1397.222 115940536 116158984 116371352 116572168 116750488 116892408 
1400.115 116987912 117036024 117048088 117044480 117050992 117090080 
1403.008 117173264 117295224 117432632 117552664 117629112 117658608 
1405.901 117662040 117672384 117714704 117796216 117903224 118009736 
1408.794 118086744 118115968 118095056 118035696 117956008 117871408 
1411.687 117788656 117708616 117631456 117563176 117514960 117498944 
1414.580 117519008 117566344 117617000 117641448 117611608 117511008 
1417.473 117340024 117117112 116870720 116624776 116388200 116157256 
1420.366 115926896 115697576 115473520 115256152 115038024 114801184 
1423.259 114522160 114185040 113796688 113389368 113008816 112689008 
1426.152 112442416 112255136 112097136 111930408 111725128 111467984 
1429.045 111166360 110840904 110511336 110185088 109856912 109518832 
1431.938 109172032 108831120 108520680 108262960 108067400 107923832 
1434.831 107801208 107651488 107422296 107088176 106668376 106216304 
1437.724 105780896 105381048 105008208 104644960 104281208 103919200 
1440.618 103573096 103262984 103003632 102799880 102646960 102537184 
1443.511 102467832 102445016 102481632 102591480 102782544 103053952 
1446.404 103396032 103795472 104240480 104725160 105248840 105812560 
1449.297 106415688 107052528 107712832 108383128 109049432 109696240 
1452.190 110311208 110887824 111424472 111923592 112387272 112808560 
1455.083 113165160 113407216 113454496 113219768 112668784 111868456 
1457.976 110949888 110019680 109126784 108283712 107492096 106751656 
1460.869 106058584 105399296 104742912 104040528 103226344 102230416 
1463.762 100998640 99522736 97858976 96108904 94371792 92706168 91125976 
1467.137 89622696 88187112 86820888 85525952 84301848 83133544 81982776 
1470.513 80790752 79487104 78018112 76382480 74662352 72992744 71479976 
1473.888 70151512 68968304 67866696 66799992 65748080 64717980 63730836 
1477.263 62809980 61968536 61206188 60512816 59870444 59255376 58639092 
1480.638 57994596 57303644 56566872 55805352 55053096 54342472 53689468 
1484.014 53092784 52532592 51980812 51410676 50810072 50186012 49561876 
1487.389 48960448 48384852 47801324 47149692 46363788 45421492 44373704 
1490.764 43321180 42362080 41549668 40891108 40361112 39924200 39547572 
1494.139 39205176 38877612 38547328 38196748 37805452 37358212 36855700 
1497.515 36317640 35777040 35267512 34811892 34415744 34070412 33759736 
1500.890 33469788 33195696 32944050 32727808 32564886 32472968 32465544 
1504.265 32552924 32738958 33013578 33323220 33549316 33523258 33148632 
1507.640 32507784 31774256 31075488 30458232 29926682 29468116 29066182 
1511.016 28707168 28380634 28082556 27815762 27588750 27411790 27293012 
1514.391 27232892 27220264 27228978 27223370 27166010 27040670 26862454 
1517.766 26669970 26501310 26379258 26309514 26281916 26272552 26243372 
1521.141 26155596 25984814 25738998 25448872 25146018 24850922 24575028 
1524.516 24327554 24114824 23938260 23788820 23647132 23489118 23298542 
1527.892 23075870 22838292 22612294 22421650 22283860 22203192 22172750 
1531.267 22176236 22191580 22192592 22152178 22053930 21902246 21724592 
1534.642 21554568 21419174 21334110 21308462 21350884 21470938 21676908 
1538.017 21965396 22311726 22652438 22886456 22923688 22751378 22445446 
1541.393 22101134 21779076 21492000 21226166 20957364 20664714 20338998 
1544.768 19985630 19624298 19280586 18977644 18728978 18541864 18418018 
1548.143 18353172 18335854 18345290 18355660 18344046 18303608 18244446 
1551.518 18186914 18149740 18144938 18174926 18233458 18309692 18397346 
1554.894 18500820 18636448 18827928 19097426 19455440 19883744 20294590 
1558.269 20482740 20216654 19501496 18647448 17927616 17411418 17055598 
1561.644 16801968 16610518 16459312 16339293 16247375 16181646 16137730 
1565.019 16109087 16090347 16080271 16082129 16099699 16132332 16167855 
1568.395 16181372 16136734 16007418 15798347 15550430 15315217 15131111 
1571.770 15015129 14966152 14976338 15036360 15138316 15272143 15421186 
1575.145 15554860 15624512 15583502 15418783 15164392 14878981 14614488 
1578.520 14400880 14244688 14139074 14068051 14012063 13952147 13876400 
1581.896 13782230 13675806 13567014 13464983 13375003 13297306 13229393 
1585.271 13168185 13111868 13059725 13011070 12964742 12918317 12869507 
1588.646 12817734 12765183 12715844 12673608 12640552 12615036 12593274 
1592.021 12570285 12542864 12510193 12472511 12429957 12379839 12317421 
1595.397 12237971 12140715 12030842 11919634 11821019 11746392 11701968 
1598.772 11686889 11695059 11717082 11744247 11770120 11789900 11799229 
1602.147 11792726 11764707 11712419 11639342 11558075 11485977 11441886 
1605.522 11437907 11474410 11538374 11605888 11651389 11654215 11608372 
1608.898 11523846 11421306 11322600 11244624 11195900 11177677 11187026 
1612.273 11220857 11277574 11356475 11455358 11568964 11683861 11778529 
1615.648 11825650 11800863 11699552 11543887 11371508 11214158 11090175 
1619.023 11005851 10962252 10961538 11005240 11094321 11221808 11369944 
1622.399 11508262 11601055 11626239 11587851 11512141 11430287 11365318 
1625.774 11326171 11308894 11301515 11289238 11260537 11211234 11144598 
1629.149 11069033 10993686 10925587 10870649 10835385 10827028 10854783 
1632.524 10928442 11056831 11244657 11488291 11768384 12039460 12239129 
1635.900 12315614 12263396 12120271 11934960 11741184 11554332 11380896 
1639.275 11225038 11091772 10987398 10916957 10882608 10882505 10913287 
1642.650 10972276 11059551 11179819 11339911 11545792 11796948 12074617 
1646.025 12334874 12516263 12568478 12490312 12328806 12145927 11985334 
1649.401 11871618 11816151 11825616 11907613 12068757 12305763 12571683 
1652.776 12751875 12720041 12473500 12139215 11832085 11594657 11422496 
1656.151 11299202 11209126 11140960 11089461 11054146 11037356 11042318 
1659.526 11069679 11116315 11173359 11228541 11265638 11270841 11237212 
1662.901 11170401 11088068 11010678 10956135 10934490 10949951 11003405 
1666.277 11094254 11219768 11372902 11541232 11704215 11834673 11908499 
1669.652 11914185 11859904 11766885 11659967 11557838 11470735 11403039 
1673.027 11354060 11318893 11286960 11243604 11173223 11069883 10943155 
1676.402 10814358 10705533 10630791 10597245 10604646 10647192 10713242 
1679.778 10788881 10862087 10928272 10991612 11062541 11151738 11260095 
1683.153 11367290 11424470 11379297 11225514 11015639 10810111 10642030 
1686.528 10516480 10426192 10360016 10306335 10254697 10196485 10127597 
1689.903 10048783 9966051 9889302 9830087 9799483 9806431 9857710 9958085 
1693.761 10108706 10303892 10526901 10744148 10916006 11020295 11070291 
1697.136 11102106 11150173 11235885 11359399 11496456 11591186 11579344 
1700.511 11434573 11199368 10946484 10730087 10571000 10468346 10413771 
1703.887 10393442 10389471 10377661 10335516 10250830 10128546 9986971 
1707.262 9849068 9732792 9645412 9586264 9547312 9518726 9493088 9468807 
1711.119 9450927 9449775 9475682 9535525 9630574 9756139 9902759 10061500 
1714.977 10226845 10395512 10559932 10699012 10770267 10725502 10542789 
1718.352 10249133 9909640 9590262 9332863 9149110 9033902 8971353 8942569 
1722.209 8927315 8909254 8878884 8835058 8783527 8733557 8694139 8671322 
1726.067 8669023 8689339 8732712 8798674 8884633 8986576 9098692 9216185 
1729.924 9337366 9466199 9610451 9779285 9977071 10196044 10405964 10549000 
1733.782 10562988 10427617 10196010 9951744 9757258 9632979 9573190 9562587 
1737.639 9584164 9620884 9657371 9684407 9699993 9710531 9725067 9751294 
1741.496 9791485 9841983 9894996 9941676 9975850 9996362 10009246 10025216 
1745.354 10056413 10111588 10192686 10292357 10395749 10481685 10530533 
1748.729 10529413 10475542 10374438 10235665 10069197 9884251 9691590 
1752.104 9505348 9340683 9213138 9133815 9107354 9130600 9190768 9265533 
1755.962 9324264 9340581 9302937 9222751 9125761 9040092 8985188 8966449 
1759.819 8977577 9004199 9028692 9033123 9007345 8950721 8870700 8777339 
1763.677 8679131 8582127 8490991 8410549 8346064 8302527 8284155 8292497 
1767.534 8326372 8383050 8461258 8561749 8685959 8832995 8993307 9142071 
1771.391 9242449 9253280 9155234 8965535 8731089 8499371 8300129 8146218 
1775.249 8037857 7971639 7943122 7949400 7986859 8049805 8129506 8210976 
1779.106 8274833 8301886 8278751 8205675 8097199 7978219 7871047 7789674 
1782.964 7738031 7710037 7693881 7675535 7644812 7597536 7537757 7473839 
1786.821 7416201 7373296 7349942 7347347 7364602 7398708 7447244 7508932 
1790.679 7583813 7672128 7771256 7873140 7965429 8034785 8071037 8069349 
1794.536 8029486 7955170 7853841 7736547 7617026 7508898 7423548 7368511 
1798.393 7345157 7349605 7371645 7398236 7413808 7406628 7371544 7312066 
1802.251 7238107 7162377 7096191 7046045 7013178 6994725 6985298 6980112 
1806.108 6976442 6974624 6977183 6986779 7004625 7029342 7057326 7082922 
1809.966 7099761 7101984 7084269 7042845 6976644 6887696 6782644 6671426 
1813.823 6567267 6483179 6428731 6407513 6414607 6436466 6455298 6456543 
1817.681 6432834 6388009 6334112 6287415 6261732 6264758 6297668 6356739 
1821.538 6436836 6532117 6637512 6745961 6846560 6925434 6968496 6968496 
1825.395 6930753 6873220 6818690 6785976 6785538 6816065 6866286 6916041 
1829.253 6944658 6936813 6891601 6821181 6743908 6673378 6614499 6566023 
1833.110 6522799 6479815 6433103 6381587 6325875 6269766 6217598 6176291 
1836.968 6153706 6156798 6190306 6254807 6345644 6454626 6573390 6694374 
1840.825 6812665 6924862 7027254 7113671 7175313 7201352 7185890 7132129 
1844.682 7055912 6979371 6919879 6885642 6873692 6873287 6870056 6850633 
1848.540 6805362 6730548 6629639 6510792 6384479 6262304 6156933 6080584 
1852.397 6044363 6054880 6110389 6200187 6305468 6407310 6490410 6547791 
1856.255 6581565 6600639 6615710 6633743 6655612 6676372 6688519 6686803 
1860.112 6670955 6645553 6617998 6593036 6571607 6550146 6524212 6491385 
1863.970 6455265 6423620 6407142 6414204 6447429 6501979 6567873 6631085 
1867.827 6678593 6702282 6699825 6674522 6630783 6571439 6497775 6410808 
1871.684 6313435 6210472 6108742 6014999 5934376 5870224 5824484 5797754 
1875.542 5790635 5801817 5827976 5862130 5895111 5919496 5932159 5937197 
1879.399 5945763 5972939 6030185 6121646 6240387 6371197 6494008 6590311 
1883.257 6649186 6667725 6651743 6611303 6557984 6499490 6441409 6388043 
1887.114 6344064 6316260 6312057 6335154 6383571 6447463 6512911 6567402 
1890.972 6605752 6632162 6658809 6700296 6769686 6874163 7012000 7171236 
1894.829 7332520 7474918 7580980 7642620 7660493 7641541 7595580 7533070 
1898.686 7464199 7398776 7346808 7318097 7321433 7363456 7446199 7565471 
1902.544 7708181 7854684 7982404 8069349 8100845 8072185 7989559 7868045 
1906.401 7730375 7601616 7502594 7449704 7449401 7498684 7584217 7685281 
1910.259 7778408 7841324 7860926 7835858 7778509 7709396 7654659 7638068 
1914.116 7672027 7756009 7875704 8008830 8131397 8225463 8282737 8306174 
1917.974 8306411 8295232 8280203 8262744 8240118 8211246 8179575 8153003 
1921.831 8141828 8152193 8181263 8216987 8243562 8248391 8229346 8195140 
1925.688 8162018 8145204 8155603 8193925 8253085 8321035 8387408 8447372 
1929.546 8502040 8555260 8609536 8663109 8709791 8741705 8754518 8750190 
1933.403 8738256 8731528 8739540 8764018 8795834 8818455 8812266 8762632 
1937.261 8666387 8534783 8388016 8251633 8148378 8090244 8080387 8111275 
1941.118 8168501 8234175 8294117 8340963 8375416 8402306 8423183 8432947 
1944.975 8420109 8369235 8270983 8128459 7961582 7805867 7699952 7677491 
1948.833 7751186 7910222 8120593 8341368 8534918 8677238 8763206 8801108 
1952.690 8803476 8779097 8727674 8642355 8515217 8346806 8147332 7937352 
1956.548 7738908 7565909 7421795 7297509 7181578 7066655 6955668 6861640 
1960.405 6802501 6791158 6830605 6912338 7019879 7133409 7233728 7304922 
1964.263 7332924 7310515 7237097 7124483 7000349 6899713 6863155 6916715 
1968.120 7058572 7259637 7475626 7661640 7785863 7836027 7812749 7719514 
1971.977 7551984 7293129 6921731 6429505 5841611 5228152 4694865 4363667 
1975.835 4319960 4579493 5072106 5671010 6227177 6619176 6793817 6769080 
1979.692 6618402 6432498 6294105 6248791 6307048 6449312 6642928 6850532 
1983.550 7040623 7193470 7300676 7360221 7373027 7340473 7259839 7125494 
1987.407 6932235 6676743 6364910 6015604 5658187 5333164 5081929 4928617 
1991.265 4872353 4882205 4910923 4914810 4877916 4819683 4790267 4847056 
1995.122 5030607 5348896 5771429 6233799 6657295 6977284 7151531 7175380 
1998.979 7074468 6892678 6672772 6449547 6246135 6076585 5948283 5859981 
2002.837 5801347 5747925 5662887 5508967 5258569 4911325 4500308 4093726 
2006.694 3771776 3602187 3621599 3823886 4165076 4576781 4988005 5338262 
2010.552 5587632 5722979 5750107 5689575 5568702 5424814 5293417 5206421 
2014.409 5187073 5239923 5353492 5501517 5652917 5782240 5876639 5940489 
2018.266 5987854 6032335 6073427 6097788 6084011 6016578 5901627 5774249 
2022.124 5694543 5731238 5932864 6308964 6815190 7364366 7838456 8130248 
2025.981 8177718 7974979 7572686 7053252 6512238 6023029 5632072 5351244 
2029.839 5171213 5073179 5043747 5080688 5186101 5355906 5576723 5819816 
2033.696 6052796 6247345 6386261 6466295 6493739 6478033 6426276 6348771 
2037.554 6257429 6172056 6119765 6126553 6207817 6355495 6536287 6695989 
2041.411 6778268 6747408 6600807 6373719 6122688 5912745 5794161 5783684 
2045.268 5868041 6013454 6178475 6326883 6437004 6495825 6497977 6441409 
2049.126 6324799 6155689 5951944 5746179 5578838 5489101 5505376 5634723 
2052.983 5862097 6152496 6466733 6769619 7037491 7263107 7448086 7594737 
2056.841 7699142 7748892 7726664 7620971 7433154 7183296 6909140 6658708 
2060.698 6472618 6379536 6386160 6480387 6637208 6826364 7023516 7212739 
2064.555 7388024 7549894 7699075 7830225 7932527 7990909 7992900 7933843 
2068.413 7821723 7674118 7515506 7369825 7249866 7156718 7079722 7001325 
2072.270 6906615 6790048 6657732 6526701 6417432 6347392 6325875 6351494 
2076.128 6415078 6504939 6610597 6723717 6840232 6956577 7069383 7174874 
2079.985 7270789 7355536 7429413 7492650 7541566 7569955 7566920 7522080 
2083.843 7430323 7295117 7130748 6958799 6804621 6687039 6616215 6589907 
2087.700 6598856 6630783 6676372 6732904 6803847 6894293 7009373 7150453 
2091.557 7314963 7497200 7690104 7884949 8070868 8235492 8365689 8450346 
2095.415 8484976 8474806 8436156 8393084 8369370 8383321 8439636 8528532 
2099.272 8628192 8714997 8766791 8771862 8729433 8647560 8538669 8415143 
2103.130 8286181 8158236 8036000 7924326 7828942 7756954 7714421 7706124 
2106.987 7734119 7798311 7895409 8018719 8156616 8294658 8415041 8501972 
2110.844 8546069 8547590 8516908 8473185 8437373 8423926 8435683 8461765 
2114.702 8482544 8475516 8425852 8332587 8211111 8087004 7988580 7938061 
2118.559 7941773 7989323 8054666 8107259 8118129 8071780 7970356 7835858 
2122.417 7703494 7610922 7592242 7664473 7822465 8038397 8270950 8470076 
2126.274 8592739 8613524 8528329 8357278 8137000 7915789 7738065 7635202 
2130.132 7621106 7689261 7815515 7962763 8094802 8180858 8204865 8169986 
2133.989 8096490 8013184 7948184 7918894 7924833 7949872 7968972 7961683 
2137.846 7921526 7860015 7801380 7775203 7799491 7874084 7978186 8078700 
2141.704 8144732 8158169 8121167 8053552 7984361 7933336 7906172 7889740 
2145.561 7861331 7798142 7691082 7547770 7391260 7249967 7143750 7080699 
2149.419 7055575 7053285 7060054 7069316 7083124 7110640 7162377 7243027 
2153.276 7350111 7474311 7598952 7707945 7788392 7832754 7843720 7834205 
2157.134 7827356 7854010 7944101 8116474 8365114 8658072 8941148 9159228 
2160.991 9262927 9227658 9058395 8788869 8469502 8159283 7908804 7749938 
2164.848 7695399 7738908 7860656 8033773 8229549 8424906 8603013 8753369 
2168.706 8869381 8947778 8981197 8961679 8880406 8731562 8520422 8268383 
2172.563 8009235 7790686 7657964 7637090 7725248 7887176 8062261 8181398 
2176.421 8194533 8081367 7860589 7578350 7296936 7070831 6932740 6888234 
2180.278 6922101 7008430 7118959 7232481 7337136 7423750 7487559 7522855 
2184.135 7526159 7499257 7451120 7394361 7341079 7294240 7246732 7183128 
2187.993 7087030 6952974 6794356 6643029 6539012 6519705 6603465 6780624 
2191.850 7016175 7255863 7447075 7547096 7538768 7428166 7242218 7011023 
2195.708 6764403 6524683 6303719 6109751 5950735 5835868 5777304 5787210 
2199.565 5871601 6029244 6249765 6514189 6798933 7082483 7345326 7573360 
2203.423 7758911 7896893 7986691 8030634 8032254 7997727 7933371 7845811 
2207.280 7741607 7628659 7515944 7414583 7335789 7289422 7279381 7302698 
2211.137 7346640 7393349 7420852 7412797 7364062 7282481 7187305 7104780 
2214.995 7057966 7058236 7100603 7163320 7216715 7229988 7182825 7072144 
2218.852 6914526 6739533 6581934 6474434 6434986 6467473 6560708 6694677 
2222.710 6846022 6994086 7125797 7235244 7324298 7397158 7458671 7511933 
2226.567 7555424 7585768 7600773 7599256 7586578 7571911 7567156 7584554 
2230.425 7630919 7705584 7800469 7901415 7992056 8058548 8093317 8093924 
2234.282 8064692 8011935 7942043 7861432 7776721 7695534 7629604 7593625 
2238.139 7602695 7667643 7791091 7965024 8171303 8384571 8579830 8736396 
2241.997 8841178 8890484 8888962 8846555 8775750 8690996 8607001 8538196 
2245.854 8499539 8501127 8548502 8638637 8759927 8893257 9016919 9110670 
2249.712 9160175 9160581 9115406 9037183 8942772 8848719 8770340 8717667 
2253.569 8693430 8695120 8714118 8738729 8756681 8760299 8746911 8721826 
2257.427 8694647 8677711 8680753 8707526 8753875 8810373 8864512 8905094 
2261.284 8926334 8928769 8918250 8903301 8892175 8889774 8898127 8915816 
2265.141 8939626 8966347 8991954 9012623 9024091 9021756 9002305 8965265 
2268.999 8913042 8852033 8791810 8741840 8709183 8697723 8706242 8729906 
2272.856 8761381 8793400 8820179 8839149 8850748 8858390 8868333 8885817 
2276.714 8915883 8960056 9015667 9076056 9133341 9179025 9208468 9222616 
2280.571 9226609 9229655 9239910 9262047 9294373 9330493 9359540 9371898 
2284.428 9362350 9332322 9289363 9245258 9212157 9198654 9207927 9237067 
2288.286 9278700 9322572 9358931 9381006 9386152 9376130 9357272 9338652 
2292.143 9329850 9339126 9370882 9424481 9493562 9567804 9635926 9688541 
2296.001 9721305 9735470 9739569 9744415 9760952 9796671 9852626 9923505 
2299.858 9998396 10064178 10108400 10123527 10108231 10068926 10018367 
2303.233 9971815 9946355 9954660 10002702 10088968 10205271 10337552 
2306.609 10470587 10591846 10692187 10768229 10820064 10849857 10859573 
2309.984 10850333 10822816 10779303 10724653 10667532 10618092 10586991 
2313.359 10580914 10601522 10645120 10703868 10769588 10835758 10899663 
2316.734 10962999 11030185 11106355 11196070 11301481 11422599 11558280 
2320.110 11705202 11859495 12015785 12166474 12302150 12412023 12486663 
2323.485 12520423 12513330 12471557 12407045 12336067 12274405 12236710 
2326.860 12233063 12266259 12331874 12418944 12513364 12600334 12670605 
2330.235 12720929 12755424 12781937 12807599 12835480 12862442 12879678 
2333.611 12877869 12850941 12799511 12731642 12661190 12603131 12569262 
2336.986 12564180 12585633 12626395 12677258 12730618 12781835 12829235 
2340.361 12871419 12906950 12933371 12947776 12948629 12935794 12909169 
2343.736 12867358 12805791 12718642 12600301 12451609 12281188 12106233 
2347.112 11947289 11823062 11748775 11732264 11775261 11873014 12016568 
2350.487 12191963 12382464 12572229 12747200 12899510 13027322 13135193 
2353.862 13231067 13321871 13413378 13507296 13601919 13693484 13778708 
2357.237 13855670 13925768 13993139 14063157 14139999 14223460 14307863 
2360.613 14383720 14440305 14468154 14463872 14429755 14372965 14301254 
2363.988 14221235 14134008 14037010 13923954 13788831 13629099 13446014 
2367.363 13244697 13033467 12821830 12620357 12439231 12288583 12175743 
2370.738 12104394 12071074 12065623 12070869 12066747 12035917 11967383 
2374.114 11860040 11722291 11569373 11417836 11280770 11165233 11070325 
2377.489 10989709 10914647 10837152 10752503 10659790 10560951 10459826 
2380.864 10359745 10262941 10170671 10083644 10002736 9930285 9869743 
2384.239 9825816 9803245 9805176 9832019 9880386 9942930 10008636 10065908 
2388.097 10103923 10116133 10102194 10068689 10028370 9995887 9985987 
2391.472 10007924 10063297 10145877 10242790 10339316 10421576 10481109 
2394.847 10516038 10530771 10532502 10529447 10527376 10527987 10530160 
2398.222 10531144 10529006 10524491 10520688 10522081 10533317 10556402 
2401.598 10590556 10632353 10677245 10721630 10763882 10805015 10847682 
2404.973 10894363 10945703 10999972 11053398 11101834 11142558 11175875 
2408.348 11204740 11233675 11266625 11304984 11346645 11387120 11420660 
2411.723 11443452 11455256 11459577 11462911 11471824 11491149 11521702 
2415.099 11560798 11603164 11644106 11680422 11712078 11740639 11768417 
2418.474 11796267 11822892 11845263 11860074 11865932 11864705 11860313 
2421.849 11858882 11864637 11878905 11899201 11920691 11938332 11949945 
2425.224 11957847 11968575 11991465 12034282 12101294 12191316 12297582 
2428.600 12410284 12518309 12613705 12691348 12750613 12794017 12825618 
2431.975 12849917 12870259 12888894 12906609 12922890 12936579 12946854 
2435.350 12953715 12959587 12968770 12987684 13022372 13077515 13153704 
2438.725 13247497 13351050 13454149 13548110 13626159 13685517 13726758 
2442.101 13752510 13765370 13767489 13760615 13747004 13730998 13718893 
2445.476 13717319 13731785 13763933 13810859 13865556 13918823 13964397 
2448.851 13999367 14026847 14053472 14087765 14135309 14197441 14269409 
2452.226 14342485 14406086 14450683 14470346 14464009 14436263 14395228 
2455.602 14353068 14322965 14316253 14341321 14400811 14489941 14597663 
2458.977 14709249 14808934 14883987 14928668 14943860 14937036 14918140 
2462.352 14897086 14881175 14873357 14873186 14879701 14891496 14908778 
2465.727 14932577 14963477 15000071 15038728 15074265 15101023 15116290 
2469.103 15120750 15119241 15119206 15128641 15153413 15194518 15248944 
2472.478 15309623 15368318 15417993 15455382 15481888 15501839 15521687 
2475.853 15546995 15579999 15619840 15662434 15703587 15740519 15773572 
2479.228 15805596 15840441 15880134 15922306 15960254 15983870 15983628 
2482.604 15953723 15894948 15814805 15726572 15644090 15579210 15538891 
2485.979 15524536 15532881 15558912 15598099 15647147 15704619 15769724 
2489.354 15841095 15916703 15993495 16067550 16134772 16192136 16236609 
2492.729 16267050 16283184 16287312 16283527 16277852 16276063 16282633 
2496.104 16297976 16318858 16339155 16352057 16353227 16343318 16326839 
2499.480 16311290 16303377 16305991 16316621 16328285 16331965 16321128 
2502.855 16293881 16253566 16208714 16169541 16144745 16139932 16156061 
2506.230 16191002 16239773 16296634 16355842 16411584 16459072 16494313 
2509.605 16515067 16520711 16512176 16491938 16462306 16425245 16381992 
2512.981 16334442 16285591 16240701 16206479 16190313 16197398 16229248 
2516.356 16282702 16350372 16423214 16492041 16550347 16594477 16623188 
2519.731 16636821 16635995 16621742 16595613 16560638 16521571 16483540 
2523.106 16452223 16431093 16421733 16423455 16434329 16452430 16476588 
2526.482 16506393 16541295 16579365 16618058 16653622 16683094 16705751 
2529.857 16723348 16739428 16757509 16779478 16804000 16827146 16843714 
2533.232 16849982 16845194 16832004 16815678 16802520 16797354 16802072 
2536.607 16815816 16835344 16856148 16873854 16885290 16887906 16881122 
2539.983 16866240 16846676 16828350 16818156 16823186 16848156 16893936 
2543.358 16956466 17028236 17099332 17160856 17206666 17234730 17247106 
2546.733 17247760 17241418 17231834 17220802 17208944 17195738 17181226 
2550.108 17166336 17153306 17145414 17146688 17160614 17189604 17233490 
2553.484 17289480 17351686 17412488 17464362 17501512 17521970 17527732 
2556.859 17524108 17517140 17511862 17511068 17514208 17519108 17524212 
2560.234 17529076 17535702 17546982 17564094 17585520 17605878 17617576 
2563.609 17613262 17589798 17549810 17502722 17461362 17439528 17447116 
2566.985 17486542 17552226 17632448 17712200 17776468 17815650 17826212 
2570.360 17811576 17780300 17744542 17715928 17703158 17710750 17737740 
2573.735 17779540 17829044 17879278 17925752 17966534 18002244 18034812 
2577.110 18065518 18093740 18117334 18133742 18141446 18142242 18140756 
2580.486 18144488 18161140 18195794 18249352 18317882 18393924 18469218 
2583.861 18536642 18593182 18639286 18678854 18715970 18754232 18795196 
2587.236 18837928 18880596 18921884 18961030 18998966 19037114 19076616 
2590.611 19116848 19156220 19192130 19222780 19248340 19271338 19296452 
2593.987 19328494 19371176 19425190 19487704 19553724 19617402 19674254 
2597.362 19722518 19762880 19798770 19833314 19869108 19907608 19948786 
2600.737 19993366 20042464 20098888 20165314 20243868 20333476 20429878 
2604.112 20525778 20612768 20683966 20735468 20768140 20786874 20798726 
2607.488 20811832 20833140 20867486 20917830 20985112 21068822 21166290 
2610.863 21273626 21384366 21490818 21585524 21662212 21717730 21753228 
2614.238 21773362 21785242 21795730 21810884 21834054 21866284 21906464 
2617.613 21953510 22006246 22064494 22127980 22197160 22271476 22349540 
2620.989 22429606 22508744 22584232 22653274 22712832 22761224 22796842 
2624.364 22820098 22832916 22839374 22844824 22855232 22875556 22908738 
2627.739 22954394 23008786 23066646 23120842 23165366 23197310 23216186 
2631.114 23225064 23228978 23233802 23243800 23261416 23286202 23316304 
2634.490 23349310 23383786 23420502 23461734 23510908 23570410 23640868 
2637.865 23719598 23801980 23881790 23953560 24013262 24059874 24094054 
2641.240 24118538 24136262 24149852 24161762 24174128 24188630 24206708 
2644.615 24228640 24253866 24280212 24305092 24326504 24344094 24359936 
2647.990 24378440 24404620 24442196 24492428 24552940 24618474 24682722 
2651.366 24740452 24788580 24826926 24857974 24884746 24909730 24934188 
2654.741 24958050 24980932 25002798 25024454 25047444 25073210 25102346 
2658.116 25134188 25166980 25198932 25228570 25255856 25281772 25307974 
2661.491 25335826 25365402 25396666 25428214 25459378 25489770 25519636 
2664.867 25549154 25578606 25607108 25634276 25659444 25683312 25708058 
2668.242 25736780 25772574 25816912 25868746 25924702 25979572 26027662 
2671.617 26065904 26093174 26111752 26125052 26137088 26150142 26165064 
2674.992 26180760 26196280 26211484 26228274 26249990 26280508 26322504 
2678.368 26375948 26438096 26503776 26567702 26625508 26675324 26718488 
2681.743 26758342 26798836 26843102 26892240 26945224 26999520 27052164 
2685.118 27101008 27144706 27183788 27220016 27255824 27294424 27338882 
2688.493 27392098 27456402 27532402 27618762 27712202 27807602 27899212 
2691.869 27982604 28055302 28118044 28174078 28228600 28286874 28352516 
2695.244 28427186 28510292 28599924 28693432 28788768 28884054 28978402 
2698.619 29070574 29159544 29244314 29324490 29400500 29473932 29547022 
2701.994 29622254 29701474 29785602 29875248 29970278 30070720 30177334 
2705.370 30290830 30411464 30538668 30670322 30803332 30934534 31061358 
2708.745 31182670 31299204 31412602 31524998 31637880 31751510 31864778 
2712.120 31976074 32083120 32183948 32276984 32361220 32436370 32503214 
2715.495 32563172 32618746 32672722 32728344 32787122 32849334 32913308 
2718.871 32975684 33032958 33082050 33121776 33152922 33177994 33200096 
2722.246 33222950 33248600 33278578 33312384 33348948 33386122 33421080 
2725.621 33451394 33474870 33490546 33498884 33502572 33505042 33510734 
2728.996 33523080 33543554 33571008 33601796 33630796 33652524 33663092 
2732.372 33661228 33648124 33627572 33604268 33583356 33568396 33561276 
2735.747 33561812 33568756 33580140 33594672 33612104 33633444 33660584 
2739.122 33694956 33736960 33785236 33836776 33888212 33936688 33981976 
2742.497 34026300 34073672 34128832 34195112 34272948 34359724 34450536 
2745.873 34540364 34625040 34703204 34775780 34844884 34912852 34980544 
2749.248 35048028 35114592 35180120 35245916 35314592 35389388 35472724 
2752.623 35565172 35664980 35769052 35873796 35976336 36075336 36171224 
2755.998 36265012 36357880 36450732 36544432 36639452 36737160 36838932 
2759.374 36946244 37059648 37178600 37300980 37424008 37544872 37661576 
2762.749 37773172 37879924 37982144 38080988 38177028 38271756 38366972 
2766.124 38464960 38567896 38676836 38791452 38909612 39029112 39147956 
2769.499 39266212 39386640 39513168 39649424 39797048 39954172 40115856 
2772.875 40276364 40430316 40576024 40715484 40853428 40995532 41145512 
2776.250 41304616 41470628 41639372 41806796 41969752 42127224 42279676 
2779.625 42428312 42574800 42720576 42867424 43017572 43173300 43336628 
2783.000 43508516 43687580 43870968 44054540 44235516 44412236 44585688 
2786.375 44758288 44932944 45111308 45293240 45477268 45661820 45846704 
2789.751 46033476 46225300 46425804 46636984 46858492 47087240 47319288 
2793.126 47550720 47779352 48005480 48231020 48458676 48689864 48925216 
2796.501 49163888 49404844 49647160 49890872 50136884 50386192 50639404 
2799.876 50896456 51156676 51419328 51683748 51949484 52216128 52482596 
2803.252 52747588 53009744 53268276 53523852 53778864 54037444 54304548 
2806.627 54584404 54880228 55193000 55521736 55863452 56214264 56569216 
2810.002 56923392 57272304 57613060 57944920 58270360 58594684 58924488 
2813.377 59265896 59623308 59997108 60384020 60778332 61174336 61567644 
2816.753 61957604 62346192 62737352 63135072 63541128 63955212 64374760 
2820.128 64796524 65216692 65633336 66045100 66451876 66854404 67254056 
2823.503 67653184 68054696 68463216 68882640 69316536 69766624 70232216 
2826.878 70710784 71198352 71691472 72187184 72684328 73182464 73682240 
2830.254 74184440 74690560 75202984 75725056 76261216 76816112 77393328 
2833.629 77994360 78618112 79261992 79922168 80595920 81282336 81981888 
2837.004 82695720 83424776 84168376 84924528 85691152 86466992 87252960 
2840.379 88052240 88869512 89708520 90571072 91455880 92359616 93277152 
2843.755 94204736 95140456 96085304 97041824 98013200 99001824 100007512 
2847.130 101028240 102059760 103096928 104133536 105164280 106183680 
2850.023 107187320 108171440 109133992 110073776 110990616 111884192 
2852.916 112753616 113596936 114410296 115189712 115931184 116632840 
2855.809 117295912 117924480 118526232 119110464 119686928 120265264 
2858.702 120852712 121454816 122074248 122711488 123364944 124031016 
2861.595 124705888 125385744 126068128 126751680 127437416 128126640 
2864.488 128820344 129518016 130216224 130909440 131590200 132251592 
2867.381 132887440 133494392 134070296 134613120 135119456 135582880 
2870.274 135993616 136341568 136617008 136814144 136932080 136974816 
2873.167 136949104 136861776 136718032 136520032 136268688 135964576 
2876.061 135610624 135212144 134776464 134310160 133817848 133300560 
2878.954 132755936 132180872 131573200 130933536 130265520 129574376 
2881.847 128864304 128138568 127397952 126642960 125875800 125101520 
2884.740 124327992 123564088 122816984 122089432 121378952 120679792 
2887.633 119985056 119290664 118597504 117911872 117243264 116601728 
2890.526 115994760 115425288 114892136 114391240 113917920 113468824 
2893.419 113043320 112642288 112268648 111925392 111614960 111339136 
2896.312 111099344 110896424 110731864 110606600 110521936 110478776 
2899.205 110477280 110517488 110598136 110718312 110876144 111070248 
2902.098 111300296 111566680 111871112 112216520 112606040 113042120 
2904.991 113525320 114053616 114622448 115224744 115852912 116500368 
2907.884 117162240 117836768 118525240 119231712 119962000 120722576 
2910.777 121519768 122357640 123238184 124160080 125119152 126108752 
2913.670 127120944 128148448 129184544 130224240 131263864 132299752 
2916.563 133327704 134341808 135335568 136302464 137236832 138135296 
2919.457 138996432 139820016 140605440 141351360 142053808 142707360 
2922.350 143305856 143842592 144313008 144714112 145045808 145310656 
2925.243 145514240 145665056 145772560 145847056 145896144 145924336 
2928.136 145930912 145912464 145863136 145777568 145653872 145493168 
2931.029 145300048 145079584 144836976 144575520 144296976 144002784 
2933.922 143695184 143377424 143054240 142729488 142405696 142082944 
2936.815 141759120 141431344 141096384 140752992 140400160 140037504 
2939.708 139663552 139276112 138871920 138448192 138003744 137539120 
2942.601 137057616 136563184 136059376 135548912 135032128 134507968 
2945.494 133973392 133425232 132859408 132271856 131658656 131016536 
2948.387 130343080 129637552 128900096 128130736 127329144 126492592 
2951.280 125616968 124697720 123730848 122715440 121654088 120552016 
2954.173 119415272 118248680 117053728 115828344 114568008 113267672 
2957.066 111924880 110540264 109118816 107667832 106196120 104712080 
2959.959 103221472 101728192 100232328 98731808 97221792 95697264 94153328 
2963.335 92586944 90999048 89394552 87782384 86173576 84580944 83015832 
2966.710 81486912 80000080 78557800 77159456 75801976 74481064 73191520 
2970.085 71928840 70690200 69474720 68283336 67117480 65977976 64864300 
2973.460 63773312 62701404 61646420 60609228 59595372 58613796 57675264 
2976.836 56789052 55959176 55183856 54455288 53762180 53092260 52436236 
2980.211 51788928 51150116 50523892 49916184 49333788 48781240 48260752 
2983.586 47770696 47306468 46860968 46427720 46001828 45582688 45174356 
2986.961 44784480 44421816 44093416 43801108 43541368 43305732 43083064 
2990.337 42864060 42642856 42418668 42194588 41975848 41767176 41571000 
2993.712 41387884 41216692 41056308 40907052 40770040 40647516 40540920 
2997.087 40450424 40374932 40311628 40257240 40208572 40162916 40118432 
3000.462 40073668 40028064 39982436 39937860 39896848 39861692 39834272 
3003.838 39815316 39804164 39799300 39798936 39802532 39810556 39823668 
3007.213 39842700 39867032 39894380 39920712 39941928 39954644 39957260 
3010.588 39950540 39936844 39919516 39902044 39887588 39879452 39881448 
3013.963 39897904 39932916 39989552 40067960 40164880 40273964 40385912 
3017.339 40491488 40583372 40657412 40714068 40757304 40794532 40833732 
3020.714 40882404 40945864 41025792 41120120 41223288 41328704 41429000 
3024.089 41519588 41599152 41670112 41737300 41806392 41882356 41967708 
3027.464 42062024 42164028 42271240 42381768 42494880 42609708 42725292 
3030.840 42840176 42951876 43058476 43159252 43255764 43351016 43448528 
3034.215 43551000 43658928 43770904 43884052 43995396 44103316 44208260 
3037.590 44311976 44416676 44524228 44635700 44751052 44869816 44992108 
3040.965 45118328 45248408 45381876 45516672 45650112 45779064 45902124 
3044.341 46019696 46134828 46252280 46376692 46511944 46659636 46819112 
3047.716 46988064 47162768 47339460 47514420 47684304 47846416 47999856 
3051.091 48145088 48284524 48422412 48563044 48709844 48863916 49024248 
3054.466 49187488 49350272 49510816 49669372 49828064 49990344 50158376 
3057.842 50332464 50511052 50691424 50871272 51050528 51231048 51415636 
3061.217 51607244 51807448 52015248 52228120 52442556 52656120 52867512 
3064.592 53076872 53285436 53494132 53703008 53911040 54116852 54318852 
3067.967 54515992 54707956 54894892 55077884 55258356 55438492 55621108 
3071.343 55809344 56006216 56213476 56431320 56657960 56890380 57125268 
3074.718 57360056 57593348 57825284 58056740 58289044 58523060 58759516 
3078.093 58998836 59241288 59487180 59736744 59989268 60243428 60497428 
3081.468 60749444 60998140 61243232 61484804 61723756 61960052 62193340 
3084.844 62423312 62650116 62876152 63104688 63340544 63587620 63848420 
3088.219 64122356 64406960 64699024 64995468 65295400 65599112 65907480 
3091.594 66219992 66534288 66845900 67149784 67442256 67722184 67991960 
3094.969 68255880 68518888 68784488 69054600 69329320 69608256 69892232 
3098.344 70182400 70481416 70790808 71110064 71436536 71766040 72094272 
3101.720 72418472 72738536 73056720 73376816 73702384 74035848 74378256 
3105.095 74729088 75086264 75446848 75806752 76161144 76505752 76837704 
3108.470 77157752 77469800 77781640 78102040 78437824 78791704 79161232 
3111.845 79539832 79919384 80293488 80660424 81022200 81383792 81749376 
3115.221 82120296 82494264 82865992 83230088 83584608 83931696 84277824 
3118.596 84631432 85000240 85388072 85795264 86216816 86646264 87075816 
3121.971 87499152 87912176 88313952 88706864 89095784 89487296 89887272 
3125.346 90299232 90722328 91151560 91579456 91997944 92403472 92797112 
3128.722 93186264 93580000 93986808 94409312 94844592 95284064 95718744 
3132.097 96143304 96558600 96971808 97392832 97829168 98282560 98747408 
3135.472 99212792 99668424 100107216 100529080 100940232 101349896 101766776 
3138.847 102195448 102636216 103085920 103541384 104000912 104465344 
3141.740 104937280 105418984 105910944 106410824 106914888 107418816 
3144.634 107919544 108415832 108907416 109394728 109877864 110356832 
3147.527 110831920 111303816 111774152 112244880 112717104 113190920 
3150.420 113665376 114139192 114611928 115084792 115560504 116042232 
3153.313 116532128 117030472 117535680 118045176 118557096 119070976 
3156.206 119587552 120107856 120631840 121157560 121681664 122201448 
3159.099 122715576 123226480 123738512 124256800 124783920 125318392 
3161.992 125853896 126381664 126894368 127388496 127866808 128337592 
3164.885 128813696 129307416 129827488 130376848 130951408 131541256 
3167.778 132131960 132709520 133261960 133783040 134274624 134746272 
3170.671 135212864 135690560 136193072 136726576 137288416 137867776 
3173.564 138450752 139023920 139578768 140114368 140635856 141152240 
3176.457 141671360 142198768 142736208 143281472 143831200 144381744 
3179.350 144930048 145473744 146011232 146541120 147063232 147579552 
3182.243 148093920 148611184 149135600 149669408 150211968 150760512 
3185.136 151312032 151865120 152420976 152981872 153549168 154120976 
3188.030 154691600 155253088 155798368 156324832 156836080 157341072 
3190.923 157849984 158370848 158905344 159450240 159998176 160543312 
3193.816 161083680 161622048 162163264 162710768 163263120 163813904 
3196.709 164354032 164875152 165374064 165854096 166323520 166791648 
3199.602 167265936 167749696 168242864 168743616 169250608 169763040 
3202.495 170280032 170797744 171310160 171808992 172288448 172747904 
3205.388 173194688 173641584 174104160 174593728 175113552 175657456 
3208.281 176211968 176763168 177299456 177816432 178315856 178803520 
3211.174 179285056 179763808 180240752 180716032 181189856 181663680 
3214.067 182138704 182614784 183089264 183558080 184018176 184469760 
3216.960 184917968 185371552 185838560 186323488 186823792 187331136 
3219.853 187833376 188320160 188786624 189233936 189667680 190094544 
3222.746 190520224 190946528 191374176 191803792 192236928 192676224 
3225.639 193123584 193577488 194032912 194482288 194918592 195338640 
3228.532 195744192 196140320 196533616 196927072 197320064 197708320 
3231.426 198088352 198460192 198829264 199204000 199592592 199998096 
3234.319 200416704 200837728 201248480 201638944 202004944 202349808 
3237.212 202681776 203011168 203346576 203694608 204058784 204441152 
3240.105 204841040 205255360 205676704 206092944 206490816 206859376 
3242.998 207194560 207502016 207795696 208094112 208411376 208753648 
3245.891 209115904 209486096 209849904 210198384 210529792 210850048 
3248.784 211166672 211485712 211807648 212127856 212439136 212735392 
3251.677 213014656 213277856 213528352 213768560 214000144 214224176 
3254.570 214442848 214661648 214888032 215128528 215386512 215660128 
3257.463 215942176 216224432 216502016 216774768 217048144 217328656 
3260.356 217620368 217920144 218219168 218504256 218764736 218996080 
3263.249 219200992 219387888 219566240 219743408 219922304 220102240 
3266.142 220281408 220459280 220636768 220815904 220997344 221179792 
3269.035 221360720 221538480 221713808 221890112 222071968 222261328 
3271.928 222455280 222646032 222823744 222981968 223121248 223249792 
3274.822 223380224 223524640 223688016 223866368 224049168 224224096 
3277.715 224382944 224524640 224653888 224777632 224900288 225021056 
3280.608 225134944 225236544 225323376 225398160 225466912 225535296 
3283.501 225604928 225672688 225732336 225779408 225814672 225845040 
3286.394 225880496 225929648 225994768 226071136 226148880 226218624 
3289.287 226275936 226323280 226367328 226414656 226466448 226517696 
3292.180 226560256 226586368 226594864 226591792 226588480 226595840 
3295.073 226620304 226660512 226710480 226761360 226806512 226843040 
3297.966 226870128 226886960 226890576 226876736 226842400 226789504 
3300.859 226726400 226664864 226616000 226584000 226564048 226543360 
3303.752 226507856 226449696 226370832 226283440 226202800 226141392 
3306.645 226101488 226074864 226046432 226002480 225936096 225850320 
3309.538 225754176 225658144 225568160 225483536 225399408 225310496 
3312.431 225215632 225117840 225021920 224929728 224837040 224734736 
3315.324 224611952 224461568 224285072 224092432 223898864 223717712 
3318.218 223558768 223423760 223309808 223210960 223121904 223037872 
3321.111 222952880 222857712 222740800 222590240 222399920 222173424 
3324.004 221924656 221674016 221442528 221243072 221077472 220936176 
3326.897 220804576 220669216 220522160 220362528 220193168 220016336 
3329.790 219831008 219632336 219415472 219178656 218925808 218665040 
3332.683 218404880 218151616 217906512 217666400 217427472 217188304 
3335.576 216951040 216719952 216497632 216282112 216066352 215841328 
3338.469 215599888 215340848 215070000 214796960 214530512 214274800 
3341.362 214027568 213782624 213532928 213275072 213009712 212740544 
3344.255 212469824 212196480 211915376 211620176 211307136 210978096 
3347.148 210640800 210305392 209981008 209670864 209373392 209083472 
3350.041 208796480 208511296 208228816 207951376 207678400 207404848 
3352.934 207122688 206823952 206504512 206166288 205816080 205460976 
3355.827 205105696 204749552 204388240 204017888 203639392 203259104 
3358.720 202888496 202537872 202212208 201908800 201618208 201328528 
3361.614 201030480 200720512 200400080 200072528 199740192 199401232 
3364.507 199052624 198691488 198318272 197937280 197553872 197171648 
3367.400 196789280 196402096 196005456 195599776 195193136 194799904 
3370.293 194433360 194100304 193794816 193499424 193188720 192841504 
3373.186 192447040 192008064 191538752 191058496 190584192 190124784 
3376.079 189683328 189258320 188849232 188457232 188083696 187727616 
3378.972 187382048 187035728 186676032 186294432 185890624 185472752 
3381.865 185053104 184641712 184242880 183853360 183465392 183071968 
3384.758 182671552 182267504 181865296 181468192 181072400 180669088 
3387.651 180248128 179803760 179337984 178860384 178384416 177920240 
3390.544 177470688 177030848 176592240 176148080 175698032 175247968 
3393.437 174807168 174381344 173969664 173564384 173154896 172733168 
3396.330 172297504 171853040 171407936 170968736 170536384 170106400 
3399.223 169672336 169230640 168782992 168336880 167899616 167476416 
3402.116 167065520 166659920 166250336 165831024 165401664 164967008 
3405.010 164532768 164101872 163671648 163235616 162786640 162321888 
3407.903 161844400 161361808 160882752 160411552 159948032 159488272 
3410.796 159027840 158566144 158106080 157652016 157206240 156764912 
3413.689 156319136 155858368 155377264 154878624 154374272 153880032 
3416.582 153409568 152967232 152547504 152136656 151721312 151292320 
3419.475 150848672 150395808 149939952 149484400 149026560 148560992 
3422.368 148083888 147597376 147109712 146631392 146170048 145725424 
3425.261 145289952 144851184 144398288 143927408 143442832 142954016 
3428.154 142469616 141993840 141523952 141053568 140577184 140094240 
3431.047 139609392 139130400 138661440 138201168 137742128 137275584 
3433.940 136795488 136303664 135808176 135320352 134847328 134388800 
3436.833 133936448 133479160 133008360 132523000 132029784 131538880 
3439.726 131058616 130589936 130126136 129657208 129175616 128680480 
3442.619 128178312 127679736 127193184 126720848 126257256 125793416 
3445.512 125322368 124842656 124359768 123882648 123418168 122966928 
3448.406 122522928 122076480 121620720 121154048 120680616 120206872 
3451.299 119738224 119275568 118815288 118352104 117882456 117407488 
3454.192 116931792 116460424 115995576 115534480 115070064 114595496 
3457.085 114107176 113606880 113101184 112597200 112097992 111601728 
3459.978 111102632 110594760 110076856 109553328 109033160 108525744 
3462.871 108035696 107560896 107094200 106628344 106159512 105690304 
3465.764 105227728 104779560 104349592 103934944 103526960 103115488 
3468.657 102693168 102257624 101811672 101359560 100904912 100447568 
3471.550 99984736 99513312 99032536 98545440 98057056 97573240 97097672 
3474.925 96631120 96172536 95720928 95276888 94842040 94417632 94001328 
3478.301 93587232 93166560 92732216 92280968 91817424 91352000 90897528 
3481.676 90462712 90047952 89644696 89240176 88821856 88382376 87921352 
3485.051 87443832 86957968 86470544 85987592 85513280 85050448 84602280 
3488.426 84170344 83753624 83347896 82946360 82541784 82130144 81712216 
3491.802 81294488 80885264 80490416 80110400 79738280 79363296 78973688 
3495.177 78563632 78134320 77693112 77249664 76811760 76381808 75958680 
3498.552 75539616 75124160 74715040 74318024 73937232 73573272 73220000 
3501.927 72867096 72503824 72122864 71725320 71318448 70911760 70512864 
3505.302 70124768 69746120 69373552 69004808 68638776 68275544 67914584 
3508.678 67552952 67185480 66807108 66415780 66013620 65606208 65199636 
3512.053 64797632 64400084 64003780 63606604 63210256 62821432 62450628 
3515.428 62106060 61789532 61493008 61199892 60890012 60547744 60168752 
3518.803 59761880 59345508 58939856 58561280 58215572 57899032 57600652 
3522.179 57308372 57012060 56706812 56392876 56072304 55746732 55416920 
3525.554 55082960 54745952 54409092 54076920 53753252 53439228 53131840 
3528.929 52825636 52514160 52192324 51858704 51515008 51164876 50812904 
3532.304 50464228 50122116 49789716 49468628 49157652 48853832 48551596 
3535.680 48244832 47929104 47604808 47277280 46956388 46651816 46369688 
3539.055 46111064 45871120 45641868 45414836 45184060 44947052 44704040 
3542.430 44454852 44197512 43927420 43639908 43332200 43007656 42676416 
3545.805 42351960 42046876 41768084 41515468 41284244 41068472 40863988 
3549.181 40668724 40481084 40296940 40107352 39899248 39659548 39381092 
3552.556 39066920 38730408 38390536 38064420 37760744 37479884 37215960 
3555.931 36961360 36711020 36464536 36224924 35996460 35780708 35574992 
3559.306 35373216 35169452 34961220 34752444 34552024 34371520 34220208 
3562.682 34101984 34015044 33952268 33903332 33854792 33791000 33693380 
3566.057 33541084 33319146 33024986 32674934 32298506 31926788 31580794 
3569.432 31268510 30988690 30734370 30497826 30273066 30057476 29851186 
3572.807 29655316 29470102 29293722 29121842 28950314 28776410 28600384 
3576.183 28425418 28255154 28091214 27932142 27773162 27608910 27435684 
3579.558 27253496 27066870 26882544 26707214 26545054 26398236 26267272 
3582.933 26153098 26058622 25987452 25942638 25923188 25920904 25917138 
3586.308 25883762 25791806 25622466 25380646 25093360 24797104 24521808 
3589.684 24282630 24083864 23921736 23788928 23677082 23578000 23482192 
3593.059 23380744 23266662 23136080 22990688 22836792 22683960 22540360 
3596.434 22410904 22295996 22192732 22096532 22001782 21903814 21797436 
3599.809 21676978 21537262 21374308 21187546 20982190 20769216 20562356 
3603.185 20375598 20220158 20101420 20019424 19968248 19938622 19918364 
3606.560 19894740 19857454 19799014 19717768 19617816 19508394 19400348 
3609.935 19303934 19226036 19168928 19128760 19096074 19057298 18996994 
3613.310 18905652 18783502 18641706 18496774 18363298 18252324 18167738 
3616.686 18107592 18065104 18029874 17988290 17926512 17835120 17710370 
3620.061 17556988 17384998 17208048 17039368 16890078 16769769 16684404 
3623.436 16637407 16629867 16660783 16728651 16832484 16973520 17152238 
3626.811 17364240 17592696 17793554 17899164 17846340 17622474 17282756 
3630.187 16909094 16563978 16273310 16040422 15855907 15706405 15578317 
3633.562 15460601 15346727 15234942 15126891 15026688 14937996 14863516 
3636.937 14804923 14762825 14736671 14724639 14724228 14731392 14740853 
3640.312 14746166 14741126 14720527 14682687 14631794 14578097 14536056 
3643.688 14521837 14551405 14637071 14787028 15002644 15278355 15595695 
3647.063 15925160 16229214 16467607 16606078 16621260 16503433 16261891 
3650.438 15928390 15551014 15179146 14851413 14590227 14401975 14285914 
3653.813 14233697 14232191 14260541 14293036 14302829 14271053 14197201 
3657.188 14096596 13990881 13896413 13822147 13768892 13731853 13704735 
3660.564 13681448 13659085 13637339 13618090 13603492 13594158 13588175 
3663.939 13582329 13573680 13561852 13551494 13552110 13577030 13642058 
3667.314 13761196 13941951 14177517 14441811 14685977 14853231 14910801 
3670.689 14869586 14777086 14684915 14634467 14648175 14734169 14886010 
3674.065 15079582 15263426 15364543 15329736 15167686 14940671 14711374 
3677.440 14515465 14358444 14230274 14115456 14000223 13877118 13746114 
3680.815 13613816 13489967 13385288 13307385 13260957 13246097 13259351 
3684.190 13294334 13344353 13405450 13477389 13564450 13673652 13811953 
3687.566 13980581 14169061 14352794 14498986 14577000 14570627 14482165 
3690.941 14328444 14135959 13933192 13747380 13598774 13499059 13452405 
3694.316 13454149 13491437 13544657 13592586 13614671 13598671 13544452 
3697.691 13462897 13372440 13292079 13238889 13222356 13243330 13291772 
3701.067 13351016 13400631 13425202 13420828 13394344 13358841 13327952 
3704.442 13312988 13321119 13355492 13416419 13502305 13609919 13735444 
3707.817 13874792 14023322 14174161 14318069 14440818 14524681 14552125 
3711.192 14511525 14403722 14244106 14058024 13870722 13702102 13564553 
3714.568 13461941 13394719 13360105 13353579 13369570 13401827 13443349 
3717.943 13487814 13531018 13571697 13612004 13655529 13705624 13763419 
3721.318 13826764 13889674 13945510 13989170 14018839 14036018 14043478 
3724.693 14042384 14031124 14005492 13961933 13900895 13829706 13760752 
3728.069 13707505 13682029 13692458 13742797 13833127 13959914 14116175 
3731.444 14291050 14473292 14652904 14821756 14972805 15094917 15169539 
3734.819 15175269 15096838 14940430 14735951 14524578 14337143 14187170 
3738.194 14075273 13994919 13939145 13905000 13892787 13907361 13955363 
3741.570 14042452 14172005 14339712 14529238 14702703 14807837 14804923 
3744.945 14700818 14543901 14389576 14275162 14216715 14219763 14285811 
3748.320 14412251 14589507 14795530 14996401 15147751 15210886 15165902 
3751.695 15018421 14797278 14542668 14292351 14072158 13896585 13770499 
3755.071 13692562 13659188 13664283 13699913 13753912 13811440 13856148 
3758.446 13870927 13843525 13770328 13658402 13524831 13392395 13281694 
3761.821 13205688 13170302 13172898 13206165 13256892 13309879 13350367 
3765.196 13370184 13371039 13365162 13368818 13394651 13448440 13526266 
3768.572 13614602 13691228 13732879 13724091 13663702 13564484 13445399 
3771.947 13324535 13213510 13118493 13042379 12985328 12947400 12928728 
3775.322 12929991 12952317 12996935 13064061 13152166 13256072 13365025 
3778.697 13462556 13531394 13559015 13544213 13497213 13435147 13374592 
3782.073 13327713 13300039 13290234 13290234 13287877 13271376 13233390 
3785.448 13174264 13101419 13026161 12960407 12911831 12885515 12881590 
3788.823 12897462 12927636 12965322 13003764 13036096 13057915 13068227 
3792.198 13070174 13070788 13080281 13109102 13164803 13249240 13355663 
3795.573 13468537 13566297 13631663 13659803 13662266 13659872 13677515 
3798.949 13735855 13846228 14004603 14183816 14334848 14398277 14343375 
3802.324 14187889 13983319 13781068 13616722 13509040 13463308 13475851 
3805.699 13532761 13610021 13674849 13699298 13673583 13606979 13519567 
3809.074 13430840 13354911 13299287 13267414 13260342 13278209 13321119 
3812.450 13389764 13485182 13606911 13750252 13904521 14047585 14151773 
3815.825 14195421 14178030 14121172 14059564 14023630 14031980 14092763 
3819.200 14202611 14344540 14481172 14561273 14543799 14423760 14236881 
3822.575 14033178 13852967 13716396 13630399 13591833 13591252 13611457 
3825.951 13632142 13634707 13607594 13551836 13478244 13403194 13341038 
3829.326 13302363 13292797 13313125 13360514 13429952 13516046 13614261 
3832.701 13721389 13835180 13952900 14071337 14187205 14297419 14400572 
3836.076 14496656 14584813 14660752 14715625 14735334 14708461 14630868 
3839.452 14510874 14366287 14218941 14086499 13978871 13897166 13834393 
3842.827 13778571 13716601 13640109 13547597 13445331 13343567 13254501 
3846.202 13187960 13150117 13144756 13173000 13234824 13329729 13458660 
3849.577 13624142 13831211 14086944 14396530 14754975 15135229 15470283 
3852.953 15665181 15651818 15447451 15139345 14816990 14531088 14294337 
3856.328 14100669 13939248 13800769 13681482 13582295 13507364 13462727 
3859.703 13452576 13479030 13539975 13629748 13739275 13857106 13971582 
3863.078 14070070 14139862 14169780 14153725 14096151 14012063 13924433 
3866.454 13855361 13821462 13833401 13893300 13993687 14112512 14218188 
3869.829 14279544 14286393 14254618 14213224 14186007 14181864 14195318 
3873.204 14209252 14201104 14152733 14061651 13942259 13819137 13715234 
3876.579 13646810 13622262 13642809 13703914 13795296 13901408 14000873 
3879.955 14073562 14107275 14104228 14079517 14053609 14045088 14064013 
3883.330 14112717 14183679 14259856 14313924 14318616 14260951 14151363 
3886.705 14018462 13894395 13804154 13760820 13769473 13828406 13929565 
3890.080 14056346 14183576 14284715 14336903 14332040 14276977 14189190 
3893.456 14086979 13986912 13902264 13840652 13807951 13807575 13840036 
3896.831 13903769 13993926 14102757 14219283 14331971 14431364 14512929 
3900.206 14578165 14633712 14687588 14744760 14804065 14856351 14886935 
3903.581 14877643 14815996 14700064 14540099 14354642 14163824 13985338 
3906.957 13830972 13708531 13621407 13569168 13548520 13552656 13573510 
3910.332 13601270 13628210 13649101 13662880 13672763 13685073 13706787 
3913.707 13743994 13799332 13871714 13956561 14045840 14130619 14204390 
3917.082 14263896 14310054 14345909 14374335 14395742 14409682 14415436 
3920.458 14413964 14409682 14408483 14415847 14434755 14463392 14494601 
3923.833 14516629 14517315 14490045 14435851 14364677 14290605 14228699 
3927.208 14189327 14178886 14198536 14244825 14310329 14385466 14459658 
3930.583 14521905 14563465 14578680 14565796 14528381 14474149 14414032 
3933.958 14358273 14315020 14288481 14279031 14282934 14293755 14304816 
3937.334 14310500 14308582 14301563 14295398 14297487 14314712 14349848 
3940.709 14401256 14460720 14516390 14555688 14569428 14556168 14521905 
3944.084 14478911 14438797 14410847 14400023 14406257 14426501 14455068 
3947.459 14485694 14512416 14529820 14534445 14524133 14498507 14459350 
3950.835 14410298 14357211 14307247 14268177 14245886 14243797 14261397 
3954.210 14294714 14336081 14376836 14408655 14425164 14424033 14407490 
3957.585 14381699 14355704 14338615 14338273 14358068 14396290 14445682 
3960.960 14495834 14535370 14555654 14553324 14531842 14498507 14463529 
3964.336 14435612 14419821 14417388 14425507 14439859 14455445 14468428 
3967.711 14476581 14479733 14478431 14474526 14470758 14469627 14474388 
3971.086 14487851 14510977 14542703 14579125 14614762 14642795 14657702 
3974.461 14656948 14641424 14615619 14585978 14559937 14543833 14541811 
3977.837 14555962 14585361 14626791 14675249 14724570 14768002 14799746 
3981.212 14816614 14817711 14805266 14783908 14758438 14732900 14710004 
3984.587 14690672 14675763 14666133 14662980 14668018 14682173 14704485 
3987.962 14732488 14761180 14785965 14803414 14812705 14815379 14815002 
3991.338 14814762 14816819 14821276 14826042 14829504 14829676 14826179 
3994.713 14819562 14810923 14800466 14788707 14775989 14763511 14753947 
3998.088 14751685 14760392 14782845 14818739 14864545 14913476 
##END=
