##TITLE=eg_3 28 10:29:52 2026 (GMT+02:00)
##JCAMP-DX=5.01  $$ Nicolet v. 970
##DATATYPE=INFRARED SPECTRUM
##ORIGIN=Vojna akademija
##OWNER=Nicolet
##LONGDATE=2026/08/28
##TIME=10:30:15
##SPECTROMETER/DATA SYSTEM=Nicolet iS20
##DATA PROCESSING=
Ratio against background
%Transmittance->Absorbance
Truncated
ElementMultiply or ElementDivide
##COMMENTS=
Number of sample scans: 8
Collection length: 11,90 sec
Sample gain: 8,0
Background collected on: Fri Aug 28 10:08:01 2026 (GMT+02:00);
Number of background scans: 8
Background gain: 8,0
Sample spacing:  1,000
Number of scan points: 12415
Resolution points: 8286
Number of FFT points: 65536
Apodization: N-B strong;
Phase correction: Mertz;
Laser frequency: 15798,00 cm-1
Number of rejected sample scans: 0
Number of rejected background scans: 0
Bench serial number: BER2010005;
##RESOLUTION= 4,000
##XUNITS=1/CM
##YUNITS=ABSORBANCE
##FIRSTX=400.156891
##LASTX=4000.123047
##FIRSTY=0.205704
##MAXX=4000.123047
##MINX=400.156891
##MAXY=1.130562
##MINY=0.004861
##XFACTOR=1.000000
##YFACTOR=1.000000E-008
##NPOINTS=7468
##DELTAX=0.482117
##ZPD=6100
##XYDATA=(X++(Y..Y))
400.157 20570416 20749380 20818498 20751664 20585228 20404186 20293186 
403.532 20305734 20436122 20628518 20799356 20886572 20882046 20838174 
406.907 20831424 20921954 21119156 21380048 21627950 21792456 21845826 
410.281 21811042 21742826 21690646 21674990 21681228 21677874 21644002 
413.656 21588152 21546592 21562180 21658016 21825330 22023390 22196826 
417.031 22292058 22290478 22228496 22193402 22257064 22413874 22582724 
420.406 22681168 22675670 22588222 22467696 22365128 22309006 22296106 
423.781 22297188 22278106 22225024 22157594 22117118 22143750 22253412 
427.155 22429522 22630004 22807690 22934364 23008902 23054784 23100888 
430.530 23164526 23240602 23308900 23350650 23366842 23382250 23434686 
433.905 23551968 23736576 23957146 24162238 24299410 24346284 24319920 
437.280 24265098 24224298 24217128 24235506 24255780 24256748 24237404 
440.655 24220408 24243288 24335094 24495362 24686638 24850514 24939310 
444.030 24939344 24877196 24801278 24756798 24762620 24809344 24868514 
447.404 24914840 24941390 24964712 25010768 25099346 25229972 25382886 
450.779 25527882 25642902 25725230 25793418 25872224 25974364 26087678 
454.154 26181858 26222942 26195410 26112604 26017032 25961486 25983942 
457.529 26083970 26219648 26333148 26389942 26400066 26406488 26457256 
460.904 26577780 26761652 26971284 27158546 27286022 27349762 27376824 
464.278 27407748 27469706 27564636 27669004 27751910 27792522 27796972 
467.653 27794286 27820910 27896342 28013396 28143340 28256822 28343586 
471.028 28424778 28544220 28747350 29048676 29415492 29776928 30061140 
474.403 30232198 30297912 30297672 30275360 30260104 30254694 30242744 
477.778 30205470 30140164 30065980 30015052 30011594 30058954 30133534 
481.152 30198112 30218210 30184638 30118236 30060426 30047352 30091518 
484.527 30173140 30253506 30295270 30286234 30244104 30205656 30204156 
487.902 30252522 30340808 30445594 30547110 30643774 30754754 30909508 
491.277 31127742 31403240 31700068 31967062 32165282 32284144 32346308 
494.652 32389724 32448318 32533086 32631428 32717664 32773138 32799286 
498.027 32819646 32864684 32957354 33099470 33273360 33452172 33619408 
501.401 33781696 33969532 34217740 34543188 34930200 35336808 35710876 
504.776 36013268 36233148 36385612 36499904 36600448 36697200 36784328 
508.151 36852772 36904296 36956496 37036280 37164776 37342288 37544276 
511.526 37730156 37866180 37941308 37975828 38007028 38069924 38173692 
514.901 38294668 38382204 38385304 38275988 38066488 37800816 37533468 
518.276 37299760 37101828 36914760 36707100 36462372 36185904 35898644 
521.650 35620844 35358652 35099476 34819792 34499944 34138952 33759968 
525.025 33402864 33103890 32880324 32719144 32586148 32441754 32262960 
528.400 32048736 31814948 31580156 31355110 31136718 30912534 30669612 
531.775 30405370 30130572 29865810 29630446 29434130 29274342 29140540 
535.150 29022932 28920180 28840708 28797248 28796512 28831518 28880048 
538.524 28912264 28904480 28847406 28750988 28637242 28530442 28444418 
541.899 28379666 28326348 28274044 28219528 28170950 28143292 28151858 
545.274 28202834 28290380 28397984 28506744 28602522 28678436 28733608 
548.649 28767914 28778508 28761212 28714948 28647458 28575138 28520196 
552.024 28500662 28522614 28577740 28647012 28709340 28750398 28769246 
555.398 28775850 28783772 28800630 28824276 28844606 28851616 28842228 
558.773 28824388 28812790 28821850 28856384 28909374 28965158 29009516 
562.148 29037034 29054850 29076942 29116124 29174248 29240314 29294282 
565.523 29318816 29308682 29274782 29238350 29220918 29233692 29272624 
568.898 29322380 29366722 29399448 29427522 29466272 29528106 29613194 
572.273 29705760 29779980 29809770 29782722 29704702 29598140 29490002 
575.647 29402902 29345888 29314584 29297728 29286402 29279414 29282122 
579.022 29300850 29336440 29380932 29420602 29441624 29437282 29410774 
582.397 29372054 29331232 29292694 29254360 29211042 29160354 29107010 
585.772 29061854 29036706 29037536 29060048 29090584 29112446 29115030 
589.147 29098610 29074972 29060212 29067450 29098216 29141722 29178846 
592.521 29193092 29177726 29138472 29088702 29043106 29011586 28997186 
595.896 28998784 29014928 29046536 29096202 29164460 29245868 29326492 
599.271 29388156 29414150 29396678 29340590 29261076 29176086 29097458 
602.646 29028570 28964770 28899512 28829890 28759882 28698364 28654418 
606.021 28631404 28625178 28626146 28625422 28619040 28610286 28606164 
609.396 28612358 28627828 28644288 28649228 28633394 28595982 28546218 
612.770 28498260 28465244 28452700 28456762 28466818 28471708 28465610 
616.145 28449216 28427264 28402858 28373424 28330938 28266648 28177490 
619.520 28070158 27960264 27866382 27800972 27766308 27753108 27746632 
622.895 27732730 27705670 27669304 27633962 27609160 27598458 27597416 
626.270 27597188 27589402 27570978 27544556 27515172 27485040 27450904 
629.644 27404616 27338322 27250084 27147254 27044066 26956428 26895020 
633.019 26860478 26844280 26833534 26818582 26796726 26772896 26754568 
636.394 26746150 26744676 26740670 26722450 26683220 26624564 26556492 
639.769 26491488 26439750 26403854 26379020 26356394 26329062 26295572 
643.144 26260132 26229104 26206672 26191918 26179334 26161624 26133600 
646.519 26094388 26046338 25991786 25930452 25858802 25772836 25672508 
649.893 25564790 25462454 25380028 25327664 25305798 25304342 25306222 
653.268 25295400 25261486 25203770 25128906 25046700 24964478 24884958 
656.643 24807610 24731898 24660216 24598338 24552374 24525004 24512372 
660.018 24505168 24491548 24463090 24418334 24362566 24304076 24249194 
663.393 24199176 24150212 24096744 24035742 23969004 23904162 23852504 
666.767 23823894 23820006 23826354 23816258 23767786 23683262 23582300 
670.142 23484824 23400228 23328202 23262026 23193308 23115966 23029638 
673.517 22939738 22855052 22782820 22725370 22679844 22640690 22603262 
676.892 22566312 22532116 22503904 22482438 22464248 22442104 22408218 
680.267 22358250 22292950 22217404 22137334 22056242 21973536 21886038 
683.642 21791486 21691594 21592940 21504830 21434612 21385114 21353204 
687.016 21332234 21315276 21299024 21284532 21275208 21272752 21274008 
690.391 21270434 21251880 21210468 21145246 21062600 20973780 20889030 
693.766 20812852 20742888 20672120 20593682 20505276 20411194 20320422 
697.141 20242336 20181568 20136504 20099960 20063484 20020426 19968908 
700.516 19910998 19850140 19788224 19724308 19655570 19579964 19498378 
703.890 19415394 19337036 19268476 19210974 19161748 19115348 19066914 
707.265 19014690 18960370 18907480 18858546 18813028 18767326 18716510 
710.640 18657484 18591248 18523052 18459940 18406992 18365066 18329952 
714.015 18294492 18251480 18197394 18133310 18063908 17994430 17928726 
717.390 17867750 17810246 17754354 17699314 17645748 17594920 17547080 
720.765 17500636 17452330 17399246 17340462 17278180 17216578 17160132 
724.139 17110896 17067332 17024524 16976502 16919170 16852028 16778534 
727.514 16704541 16636074 16576599 16526566 16483593 16444208 16405120 
730.889 16364387 16321652 16277684 16233917 16192025 16153832 16120537 
734.264 16092071 16066113 16038115 16001715 15950754 15882136 15797444 
737.639 15703568 15610012 15526554 15458967 15407477 15367055 15330358 
741.013 15290610 15244192 15191495 15135454 15079123 15023619 14967671 
744.388 14908792 14845255 14777596 14708717 14642468 14581914 14527602 
747.763 14477594 14428659 14378311 14326009 14273281 14222498 14175291 
751.138 14131306 14088419 14043793 13995761 13944788 13893315 13844272 
754.513 13799515 13758750 13719811 13679785 13636652 13590267 13542059 
757.888 13493764 13446078 13398020 13347438 13292482 13232905 13170770 
761.262 13109773 13053708 13004683 12962550 12925187 12890019 12854964 
764.637 12819295 12783171 12746528 12708329 12666500 12618849 12564604 
768.012 12505242 12444316 12385612 12331568 12281835 12233581 12183034 
771.387 12127888 12068906 12009995 11956216 11911421 11876141 11847274 
774.762 11819395 11787328 11748852 11705355 11661070 11620423 11586156 
778.136 11557555 11531276 11502679 11468294 11426888 11379415 11327740 
781.511 11273390 11216766 11157546 11095811 11033184 10972679 10918106 
784.886 10872024 10834439 10802431 10771488 10736972 10696252 10649677 
788.261 10600030 10551208 10506113 10466009 10430329 10397493 10366004 
791.636 10335293 10305609 10277544 10251381 10226995 10204115 10182759 
795.010 10163641 10147674 10135107 10124689 10113508 10097807 10074154 
798.385 10041383 10001005 9957015 9913785 9874678 9840590 9810099 9780381 
802.242 9748908 9714492 9677360 9638408 9598226 9556507 9512507 9465947 
806.099 9418070 9371594 9330039 9295998 9269567 9247890 9226020 9199004 
809.956 9163576 9119815 9070877 9021953 8977754 8941434 8913602 8892778 
813.813 8876235 8861076 8845252 8827513 8807591 8786046 8764325 8744516 
817.670 8728933 8719281 8715693 8716033 8716187 8711684 8699169 8678370 
821.527 8652429 8627243 8608869 8600920 8603315 8612348 8622446 8628605 
825.384 8628868 8624660 8619879 8618356 8622094 8630116 8639381 8646420 
829.241 8649578 8650216 8652408 8661184 8680850 8713607 8759286 8816174 
833.098 8882260 8956303 9037670 9125730 9219066 9314959 9410287 9502889 
836.955 9593089 9684263 9782369 9894469 10026204 10181087 10360010 10562388 
840.812 10787532 11036012 11309710 11611162 11942159 12302850 12691665 
844.186 13106516 13546151 14011084 14503530 15026259 15580946 16167508 
847.561 16784450 17430734 18107506 18818902 19570556 20366748 21207086 
850.936 22085314 22989500 23905366 24821274 25729390 26625836 27507436 
854.311 28367614 29195064 29975936 30697030 31350986 31936848 32457250 
857.686 32912844 33298516 33602996 33814392 33925560 33939532 33867992 
861.060 33727332 33530438 33282790 32983524 32630330 32225382 31779122 
864.435 31307524 30828146 30353758 29888990 29432544 28981612 28537196 
867.810 28107158 27704722 27344152 27037206 26789204 26600454 26469138 
871.185 26395130 26382122 26437234 26567310 26775954 27060592 27413108 
874.560 27821470 28274378 28763170 29280898 29820452 30369986 30910582 
877.935 31420114 31875494 32260054 32567054 32797786 32956702 33045658 
881.309 33060884 32994818 32840520 32596212 32266930 31862104 31390804 
884.684 30857852 30264050 29609368 28897434 28138384 27347528 26540852 
888.059 25731278 24924714 24121348 23318780 22515958 21715386 20922916 
891.434 20144840 19385956 18647766 17929166 17228598 16545917 15883201 
894.809 15244168 14632131 14048871 13494112 12966292 12463909 11986557 
898.183 11535022 11110644 10714012 10344215 9998836 9674723 9369058 9080004 
902.040 8806937 8550078 8309754 8086115 7879206 7689299 7517139 7363693 
905.897 7229354 7113149 7011931 6920857 6834270 6746950 6655950 6561021 
909.754 6464310 6368905 6277732 6192161 6111948 6035862 5962775 5892623 
913.611 5826532 5766327 5713426 5668068 5628819 5592936 5557181 5519255 
917.468 5478177 5434750 5390954 5349308 5311985 5280229 5254253 5233310 
921.325 5216064 5200882 5186371 5171506 5155944 5140038 5124809 5111530 
925.182 5101248 5094328 5090193 5087399 5084125 5078962 5071562 5062887 
929.039 5054968 5050319 5051053 5058025 5070747 5087477 5105917 5123671 
932.896 5138990 5150863 5158914 5163138 5163810 5161407 5156653 5150725 
936.753 5145032 5140847 5139035 5139564 5141515 5143264 5143085 5139795 
940.610 5133161 5124096 5114415 5106383 5101926 5102317 5107833 5117807 
944.467 5130879 5145547 5160578 5175242 5189481 5203810 5219086 5236233 
948.324 5255944 5278668 5304463 5333214 5364658 5398592 5434705 5472674 
952.181 5511960 5551838 5591534 5630335 5667910 5704387 5740411 5776877 
956.037 5814571 5853985 5895151 5937768 5981575 6026672 6073584 6123179 
959.894 6176157 6232615 6291721 6351996 6411636 6469479 6525650 6581986 
963.751 6641748 6708767 6786925 6878887 6985678 7106471 7238903 7379371 
967.608 7523620 7667717 7808196 7942965 8071764 8196565 8321263 8450631 
971.465 8589511 8740825 8904970 9079469 9260277 9442982 9624788 9805751 
975.322 9988960 10179588 10383027 10603743 10843761 11102442 11376750 
978.697 11662409 11954632 12248787 12541525 12830874 13117051 13402568 
982.072 13692214 13991868 14306806 14640561 14993705 15364228 15748543 
985.447 16143696 16548507 16963948 17392174 17834864 18291674 18760236 
988.821 19236910 19719118 20207124 20704434 21216396 21747858 22301088 
992.196 22874776 23465040 24067544 24679976 25302610 25937598 26586676 
995.571 27249420 27922964 28603714 29289634 29982386 30687126 31410470 
998.946 32156726 32925978 33713828 34514664 35324536 36143980 36976996 
1002.321 37827992 38697208 39578824 40462060 41337228 42201172 43060668 
1005.695 43929304 44821580 45744404 46692996 47651760 48602392 49533824 
1009.070 50447428 51356204 52276344 53218316 54179912 55148656 56110124 
1012.445 57059668 58007800 58976620 59986156 61041992 62126140 63202952 
1015.820 64230128 65180232 66050924 66863340 67644624 68410848 69154448 
1019.195 69848560 70460968 70975536 71402688 71777144 72139024 72513736 
1022.570 72903368 73289440 73649328 73974016 74277432 74592104 74954112 
1025.945 75385592 75893992 76484096 77181736 78063216 79263536 80962000 
1029.320 83365008 86650144 90914960 96079304 101813928 107367752 111538112 
1032.695 113056208 111228528 106509384 100133920 93420840 87271576 82137728 
1036.070 78180880 75334512 73416408 72182248 71394816 70855328 70443200 
1039.446 70123128 69912352 69840768 69914024 70098408 70333048 70558112 
1042.821 70740488 70889576 71046032 71256200 71542384 71892712 72266624 
1046.196 72620544 72927240 73190216 73433392 73680840 73933168 74161432 
1049.571 74316480 74357640 74272024 74083224 73833344 73560768 73275880 
1052.947 72958192 72568664 72076528 71478496 70801488 70085808 69362440 
1056.322 68637080 67890072 67090540 66218108 65277468 64296288 63309652 
1059.697 62339304 61384696 60425000 59435076 58401316 57332508 56255080 
1063.072 55199696 54183268 53203344 52241196 51276924 50301932 49327556 
1066.448 48378928 47484840 46661924 45909076 45210704 44548260 43911684 
1069.823 43306324 42749144 42260372 41851376 41518392 41244300 41007732 
1073.198 40794532 40604008 40448904 40347360 40313844 40350840 40448896 
1076.573 40591484 40764428 40959912 41177000 41415776 41669624 41921320 
1079.949 42146496 42319444 42424636 42460504 42436460 42363028 42242392 
1083.324 42063560 41807496 41455288 40999452 40447780 39819532 39134860 
1086.699 38405664 37633104 36811496 35936876 35014292 34058828 33091352 
1090.074 32130042 31182634 30245924 29308912 28360760 27395540 26415560 
1093.450 25428846 24445280 23472086 22513318 21571266 20648376 19748978 
1096.825 18878562 18041248 17238320 16467522 15724654 15006164 14311597 
1100.200 13644150 13009672 12413596 11859132 11346035 10871284 10430446 
1103.575 10019431 9635359 9276273 8940567 8626390 8331594 8054422 7794262 
1107.433 7551805 7328596 7125929 6943751 6780270 6632355 6496830 6371686 
1111.290 6256557 6152313 6059677 5977811 5903508 5831606 5756130 5672901 
1115.148 5580738 5482305 5382784 5288641 5205118 5134772 5077271 5029872 
1119.005 4988886 4950702 4913120 4875536 4838681 4803915 4772531 4745136 
1122.862 4721318 4699633 4677977 4654300 4626968 4595534 4560786 4524693 
1126.720 4489572 4457493 4429609 4405839 4385220 4366471 4348767 4331960 
1130.577 4316693 4303824 4294207 4288139 4285520 4285901 4288764 4293472 
1134.435 4299017 4303919 4306063 4303154 4293658 4277556 4256877 4235243 
1138.292 4217187 4206199 4203508 4207629 4215008 4221219 4222690 4218079 
1142.150 4208447 4196603 4185652 4177994 4174569 4175024 4178410 4183886 
1146.007 4191099 4199983 4210317 4221215 4231116 4238374 4241739 4241135 
1149.864 4237680 4233340 4230017 4228851 4230027 4233015 4237249 4242703 
1153.722 4250153 4260894 4276104 4296171 4320397 4347189 4374756 4401629 
1157.579 4427180 4451585 4475465 4499247 4523061 4546700 4569995 4593258 
1161.437 4617396 4643594 4672826 4705231 4739807 4774558 4807235 4836133 
1165.294 4860710 4881898 4901749 4922931 4947672 4977530 5012944 5053476 
1169.151 5097976 5145189 5194044 5243882 5294656 5346831 5401226 5458733 
1173.009 5519872 5584544 5651909 5720490 5788661 5855282 5920031 5983610 
1176.866 6047461 6113249 6182154 6254544 6329949 6407451 6486211 6565846 
1180.724 6646516 6728690 6812624 6898127 6984488 7070867 7156654 7241847 
1184.581 7326910 7412371 7498399 7584368 7669045 7751095 7829804 7905628 
1188.439 7980166 8055439 8133364 8214751 8299224 8385440 8471978 8557981 
1192.296 8643675 8730105 8818724 8910624 9005875 9103423 9201220 9296791 
1196.153 9387406 9470756 9545117 9609609 9664523 9711500 9753516 9793951 
1200.011 9836018 9881558 9930257 9979694 10026129 10065882 10096315 10116901 
1203.868 10129078 10135555 10138931 10140839 10141350 10139140 10131998 
1207.244 10117670 10094730 10063029 10023975 9980316 9935939 9894735 9859583 
1211.101 9831397 9808338 9785835 9757494 9717330 9660728 9586250 9495677 
1214.958 9393452 9284910 9174993 9067725 8965679 8870625 8783937 8706505 
1218.816 8638553 8579203 8526527 8477866 8430897 8384516 8339257 8296841 
1222.673 8259248 8227472 8200878 8177177 8153340 8126903 8096566 8062272 
1226.531 8024570 7983658 7939046 7890077 7837087 7782714 7732230 7692942 
1230.388 7671302 7670891 7690213 7723010 7759232 7788597 7804341 7804845 
1234.245 7794548 7781957 7777644 7790372 7825436 7883732 7962057 8053960 
1238.103 8151065 8245240 8328913 8396700 8446389 8479115 8499133 8512485 
1241.960 8525696 8543313 8567142 8596243 8628261 8661023 8694295 8730060 
1245.818 8771876 8822922 8884150 8953359 9025563 9094676 9155086 9203865 
1249.675 9240942 9268595 9289871 9307566 9323476 9338551 9353586 9369666 
1253.533 9388097 9409806 9434614 9460726 9484863 9503524 9513880 9514821 
1257.390 9507124 9492935 9474802 9454667 9433791 9412699 9391540 9370349 
1261.247 9348869 9326298 9301157 9271745 9236851 9196674 9153167 9109847 
1265.105 9070616 9038094 9013022 8993675 8976784 8958360 8935300 8905885 
1268.962 8869866 8827976 8781475 8731652 8679709 8627032 8575174 8525584 
1272.820 8479445 8437246 8398823 8363654 8331465 8302569 8278078 8259339 
1276.677 8247343 8242083 8242436 8246369 8251919 8258081 8265102 8274402 
1280.535 8287762 8306425 8330293 8357826 8386501 8413873 8438212 8459193 
1284.392 8477729 8495728 8515351 8538444 8566303 8599453 8637586 8679725 
1288.249 8724575 8770894 8818091 8866671 8918253 8975130 9039114 9110586 
1292.107 9187543 9265780 9339443 9403247 9453892 9491331 9518567 9540874 
1295.964 9563862 9591539 9625971 9667247 9714512 9767082 9825074 9889118 
1299.822 9959657 10036106 10116419 10197485 10276356 10351110 10421643 
1303.197 10489509 10557326 10627758 10702713 10783298 10869777 10961819 
1306.572 11058331 11157319 11255594 11348845 11433022 11505163 11564971 
1309.947 11614954 11660090 11705966 11756917 11815199 11880566 11951578 
1313.323 12027177 12107974 12196476 12295910 12408336 12533379 12667812 
1316.698 12806994 12945966 13081722 13213672 13342907 13469955 13592987 
1320.073 13706797 13804422 13879006 13926424 13946977 13945095 13927968 
1323.448 13902812 13875708 13849865 13825865 13802861 13780271 13759466 
1326.824 13745058 13744289 13766566 13820723 13911305 14035749 14181942 
1330.199 14329861 14452334 14523208 14524153 14449754 14310279 14128929 
1333.574 13936193 13759160 13618577 13524829 13478753 13475156 13506664 
1336.949 13566859 13649409 13746695 13846748 13931443 13981937 13985544 
1340.325 13944025 13874732 13806409 13769440 13785444 13865013 14003691 
1343.700 14184059 14377098 14550896 14677013 14735416 14719164 14632587 
1347.075 14488989 14305663 14102821 13900210 13713904 13556685 13435680 
1350.450 13352761 13305777 13290283 13301075 13333185 13382740 13446213 
1353.826 13519889 13599896 13682078 13763118 13841629 13918357 13995615 
1357.201 14075689 14159419 14245209 14329106 14405611 14469793 14518028 
1360.576 14548965 14563423 14564104 14555019 14540645 14525805 14514270 
1363.951 14507991 14506963 14509457 14513017 14515539 14516622 14518376 
1367.327 14525542 14543734 14577404 14626670 14686365 14746614 14796379 
1370.702 14826417 14830898 14808400 14760859 14692606 14608715 14515378 
1374.077 14419633 14328738 14249878 14188436 14147049 14125676 14121608 
1377.452 14129952 14143804 14156003 14159854 14150909 14128011 14093076 
1380.828 14050478 14005832 13965811 13936676 13923205 13928041 13951024 
1384.203 13989760 14040241 14098324 14159712 14220111 14275467 14321658 
1387.578 14355092 14373513 14376642 14366539 14347456 14325626 14307608 
1390.953 14299358 14304771 14324598 14356373 14394957 14434576 14469844 
1394.328 14498162 14520162 14538687 14556228 14573187 14587672 14596677 
1397.704 14597298 14587788 14568353 14540887 14508282 14473312 14438392 
1401.079 14405642 14377047 14354829 14340426 14333640 14331636 14329299 
1404.454 14320645 14301872 14273801 14241695 14212817 14192823 14184518 
1407.829 14187467 14199615 14219050 14245535 14280452 14325382 14379779 
1411.205 14439173 14494902 14537117 14557034 14550497 14519162 14469941 
1414.580 14412472 14356074 14308302 14272848 14249989 14236784 14228065 
1417.955 14216369 14193338 14153373 14096238 14028028 13957754 13893808 
1421.330 13841429 13802384 13775524 13756640 13739215 13715981 13682537 
1424.706 13639179 13590960 13544472 13505293 13475807 13455296 13440740 
1428.081 13428186 13414006 13395675 13372317 13343942 13310698 13272683 
1431.456 13230267 13184895 13138972 13095517 13056576 13022098 12989022 
1434.831 12951168 12900260 12828843 12735961 12629838 12524244 12429897 
1438.207 12349988 12281444 12219122 12158565 12097378 12035163 11972871 
1441.582 11911596 11852005 11794096 11737766 11683447 11632570 11587156 
1444.957 11549436 11521062 11502973 11495620 11499760 11517174 11551589 
1448.332 11608414 11694749 11819478 11991348 12218688 12505843 12849729 
1451.708 13235089 13635065 14018199 14352390 14615405 14794883 14884354 
1455.083 14877525 14765938 14545079 14227670 13860404 13509598 13222980 
1458.458 13009788 12854883 12739760 12650882 12580338 12522700 12472364 
1461.833 12422252 12363085 12283563 12172692 12022549 11833552 11616851 
1465.209 11391886 11177861 10987014 10823776 10687208 10574450 10482368 
1468.584 10407425 10345308 10290220 10234837 10169759 10084393 9969740 
1471.959 9822689 9651171 9472804 9306441 9163453 9046631 8953701 8880645 
1475.817 8822406 8772467 8723263 8666503 8595249 8505134 8393794 8260879 
1479.674 8107722 7938283 7759168 7579831 7411086 7261507 7135925 7034565 
1483.531 6954238 6889797 6835608 6786743 6739318 6691304 6642253 6592363 
1487.389 6540894 6484437 6416058 6327641 6213324 6075017 5924018 5776389 
1491.246 5645347 5536836 5450772 5383557 5331330 5291568 5263293 5246768 
1495.104 5241926 5246775 5255555 5259403 5250103 5222711 5177564 5118486 
1498.961 5050215 4976500 4899750 4821713 4744053 4669243 4600617 4541388 
1502.818 4494948 4464094 4450726 4456064 4480244 4521538 4572712 4618855 
1506.676 4639564 4623396 4579033 4525212 4474701 4430647 4390814 4351097 
1510.533 4307852 4259004 4205115 4149479 4097586 4054805 4025255 4010680 
1514.391 4010146 4019817 4033013 4041707 4038347 4020155 3990731 3958154 
1518.248 3930052 3910988 3902142 3901700 3905111 3905191 3894621 3869172 
1522.106 3831131 3787077 3743564 3704391 3670777 3642673 3618998 3597810 
1525.963 3576387 3552141 3523520 3490990 3456877 3424644 3397620 3377925 
1529.820 3366348 3362195 3363849 3368998 3375085 3379264 3378369 3370122 
1533.678 3354323 3333656 3312141 3293536 3280263 3273699 3274881 3284504 
1537.535 3302823 3328415 3357426 3382040 3391476 3377599 3341156 3291345 
1541.393 3238385 3188324 3142624 3100459 3060511 3021850 2984263 2948208 
1545.250 2914650 2884666 2859210 2838813 2823761 2813862 2808170 2804664 
1549.108 2800303 2792157 2778739 2761187 2742661 2726923 2716548 2712601 
1552.965 2714287 2719444 2725321 2730306 2735109 2743014 2758719 2787002 
1556.822 2831325 2891302 2956514 2997347 2975026 2880838 2755679 2643756 
1560.680 2561441 2505864 2469366 2445618 2430071 2419500 2411174 2402825 
1564.537 2392646 2380072 2366063 2352902 2343281 2339144 2341155 2347757 
1568.395 2354938 2356281 2346047 2322884 2291369 2258999 2232264 2214750 
1572.252 2207080 2208433 2217299 2232076 2250658 2269977 2285421 2290398 
1576.109 2279150 2250462 2208949 2161975 2115908 2074492 2038966 2009548 
1579.967 1985811 1967078 1952620 1941684 1933518 1927303 1922284 1917616 
1583.824 1912505 1906404 1899069 1890759 1882083 1873786 1866412 1860131 
1587.682 1854701 1849684 1844674 1839513 1834335 1829503 1825332 1821956 
1591.539 1819296 1817143 1815302 1813702 1812306 1811018 1809522 1807197 
1595.397 1803395 1797630 1789864 1780681 1771012 1761792 1753759 1747243 
1599.254 1742176 1738306 1735292 1732920 1731044 1729513 1728144 1726634 
1603.111 1724748 1722449 1720046 1717995 1716836 1716788 1717664 1718794 
1606.969 1719301 1718384 1715582 1710970 1704991 1698251 1691212 1684244 
1610.826 1677796 1672527 1669363 1669407 1673574 1682442 1696101 1714117 
1614.684 1735134 1756806 1775503 1786705 1787033 1776083 1756792 1733513 
1618.541 1710305 1690051 1674435 1664646 1661224 1664036 1671890 1682363 
1622.399 1691977 1697279 1696666 1691191 1683751 1677000 1672417 1669841 
1626.256 1668030 1665248 1660084 1652095 1642087 1631682 1622670 1616455 
1630.113 1613673 1614588 1619268 1627850 1640545 1657643 1679359 1705539 
1633.971 1735292 1766329 1794022 1812417 1816884 1807460 1788345 1764776 
1637.828 1740645 1718081 1698461 1682673 1671322 1664625 1662229 1663337 
1641.686 1667025 1672885 1681281 1693424 1711043 1735923 1768952 1809242 
1645.543 1852281 1889585 1910975 1909946 1888990 1857644 1826345 1801398 
1649.401 1785693 1780249 1785659 1803059 1833785 1877852 1927996 1964797 
1653.258 1965116 1925817 1867349 1810154 1763051 1726520 1698633 1677273 
1657.115 1660928 1648798 1640748 1636843 1637184 1641578 1649417 1659444 
1660.973 1670007 1678933 1683920 1683351 1676908 1665961 1652869 1640125 
1664.830 1629653 1622701 1620121 1622611 1630599 1644104 1662274 1682762 
1668.688 1701414 1713417 1715027 1705580 1687681 1665785 1643993 1625009 
1672.545 1610227 1599617 1592038 1585222 1576357 1563024 1544789 1523902 
1676.402 1504013 1488251 1478120 1473855 1474757 1479731 1487490 1497081 
1680.260 1508294 1521850 1539200 1561911 1590512 1623045 1652174 1665093 
1684.117 1650673 1610698 1560033 1513015 1476207 1449521 1430440 1416098 
1687.975 1404163 1392908 1381315 1369044 1356216 1343326 1331093 1320432 
1691.832 1312330 1307768 1307751 1313130 1324541 1341884 1363781 1386610 
1695.690 1405241 1415824 1418183 1415235 1410347 1405840 1402157 1398177 
1699.547 1391413 1379717 1363405 1345623 1329921 1318416 1311740 1309810 
1703.404 1312313 1318358 1326078 1332159 1332733 1324965 1308629 1286158 
1707.262 1261357 1237874 1218034 1203005 1192811 1186811 1184219 1184587 
1711.119 1187979 1194926 1206047 1221615 1241226 1263888 1288077 1312310 
1714.977 1335689 1357696 1377354 1392118 1397089 1386860 1359480 1318997 
1718.834 1273669 1231483 1197215 1172001 1154933 1144059 1137205 1132385 
1722.692 1128155 1123918 1119732 1116118 1113640 1112709 1113620 1116615 
1726.549 1122051 1130243 1141375 1155048 1170271 1185421 1198819 1209471 
1730.406 1217680 1225061 1233995 1246824 1264611 1285943 1305576 1315875 
1734.264 1311115 1292958 1268643 1245563 1227665 1215928 1209976 1208746 
1738.121 1210773 1214241 1217329 1218470 1217032 1213413 1208688 1204031 
1741.979 1200308 1197896 1196707 1196288 1196193 1196312 1197153 1199834 
1745.836 1205662 1215785 1230538 1249085 1269203 1287684 1301240 1307031 
1749.693 1303401 1290009 1267715 1238512 1205213 1171071 1138953 1111199 
1753.551 1089378 1074156 1065659 1063194 1065181 1069008 1071809 1071361 
1757.408 1067096 1060104 1052411 1045918 1041672 1039788 1039452 1039069 
1761.266 1036683 1030745 1020842 1007893 993696 980195 969145 961665 958402 
1765.605 959473 964412 972089 980978 989706 997540 1004885 1013044 1023600 
1769.945 1037406 1054000 1070760 1083314 1086555 1077383 1056872 1029605 
1773.802 1000687 973553 950026 930720 915861 905687 900304 899510 902537 
1778.142 908106 914403 919499 921841 920613 916224 909997 903623 898315 
1782.482 894500 891896 889731 887141 883323 877923 871033 863262 855529 
1786.821 849038 845098 844919 849555 859540 874660 893732 914633 934098 
1791.161 948228 953772 949390 936617 918785 899574 881537 865999 853535 
1795.500 844325 838487 836008 836673 839943 845004 850889 856533 860855 
1799.840 863005 862298 858513 851900 843240 833616 824217 816063 809686 
1804.180 805125 801929 799485 797302 795344 794143 794676 797855 804018 
1808.519 812515 821678 829138 832394 829813 821145 807748 791899 776171 
1812.859 762481 751705 743982 738913 735961 734535 734165 734333 734539 
1817.198 734360 733525 732049 730323 728959 728676 730145 733838 740029 
1821.538 748796 759976 773169 787648 802148 815080 824849 830546 832492 
1825.878 832370 832471 834802 840615 849872 861234 871966 878755 878623 
1830.217 870445 855468 836433 816161 796566 778889 763847 752059 744201 
1834.557 740679 741458 745769 752319 759365 765290 769077 770497 770214 
1838.896 769411 769482 771600 776427 784088 794163 805581 816478 824599 
1843.236 827344 822971 811556 795388 778083 762940 752036 745735 743194 
1847.576 742894 743194 742809 741040 737939 734077 730185 726762 723999 
1851.915 721698 719407 716601 712815 707773 701405 693947 685894 678059 
1856.255 671476 667290 666436 669296 675612 684524 694822 705173 714401 
1860.594 721711 726647 729171 729525 728167 725677 722894 720910 720842 
1864.934 723932 731054 742472 757535 774609 790877 802665 806675 801058 
1869.274 786605 766204 743780 722709 705170 692267 684070 679957 678806 
1873.613 679422 680667 681683 682084 681808 681094 680209 679452 678977 
1877.953 678900 679247 680004 681061 682141 682939 683131 682585 681448 
1882.292 680277 679832 680953 684164 689584 696815 705166 713869 722402 
1886.632 730418 737683 743861 748341 750330 749015 744121 736038 726017 
1890.972 715772 706833 700492 697448 698001 702095 709464 719360 730633 
1895.311 741849 751479 758421 762410 764079 764848 766555 770986 779075 
1899.651 790708 804437 818055 828935 834717 833957 826132 811789 792156 
1903.990 769155 744940 721974 703109 691072 688251 695886 713519 738748 
1908.330 767479 795155 817430 831640 837497 836950 833167 829276 827500 
1912.670 828398 831252 834548 836828 837298 836153 834380 833360 834194 
1917.009 837051 840943 844125 844713 841673 835248 826649 817643 809871 
1921.349 804720 802928 804487 808595 813973 819375 823633 826021 826092 
1925.688 823569 818399 810904 801858 792311 783575 776808 772693 771485 
1930.028 773010 777027 783491 792699 804943 820192 837541 854914 869522 
1934.368 878788 880976 876009 865381 851839 838156 826534 817890 811823 
1938.707 807164 802763 798122 793752 790995 791349 796060 805503 818872 
1943.047 834582 850893 865935 877940 885375 886779 881294 869184 852167 
1947.386 833589 817359 807326 805615 811948 823427 835778 844379 845818 
1951.726 839027 825474 808504 791950 779045 771179 767637 765988 763091 
1956.066 756034 743177 724717 702530 679883 660141 646394 640119 641030 
1960.405 646770 653975 659300 660544 657113 650080 641534 633502 627514 
1964.745 624324 623931 626294 631773 640855 653911 670342 688029 703782 
1969.084 714432 717524 712451 700627 685171 670282 659754 656097 659841 
1973.424 669851 683733 698903 713472 726098 736375 744609 751105 755640 
1977.764 757464 755181 747481 733808 715129 693799 673536 658156 650907 
1982.103 653460 665319 683599 703796 721408 732770 735991 731075 719444 
1986.443 703351 685393 668582 655472 648280 648274 655250 667095 679688 
1990.782 687786 686436 673132 649162 619716 592070 572452 564576 568054 
1995.122 579127 592480 603945 611778 617783 626079 641511 667072 702536 
1999.462 743706 783869 816039 833745 833312 814166 778724 731236 677291 
2003.801 622643 572197 530525 501099 486065 486303 501143 529053 567654 
2008.141 614449 666304 719003 767904 807826 834430 845848 842808 828584 
2012.480 807981 786193 766936 751948 740946 732325 724710 717622 711505 
2016.820 707494 706291 707568 709848 711367 710885 708322 705119 703749 
2021.160 707302 718730 740228 772932 816708 869488 927044 983567 1031770 
2025.499 1065432 1081327 1080379 1067520 1050123 1035909 1029921 1033290 
2029.357 1042965 1053694 1059884 1058179 1048277 1032764 1015781 1001375 
2033.214 992781 991665 998374 1012583 1033188 1058020 1083470 1105244 
2037.071 1118723 1120827 1111216 1092660 1069972 1048640 1033191 1025340 
2040.929 1023997 1025897 1027468 1026246 1021700 1014736 1007289 1001236 
2044.786 997568 997167 1001006 1010338 1026948 1052371 1087030 1129964 
2048.644 1179129 1232083 1286974 1342766 1398301 1451536 1498734 1534106 
2052.501 1551365 1545469 1514154 1459389 1387181 1306310 1225174 1150611 
2056.358 1086089 1032061 987526 951642 924586 907737 902530 909358 926851 
2060.698 952231 982334 1014723 1048691 1084924 1124676 1168403 1214967 
2064.555 1261408 1304022 1339444 1366219 1385416 1400474 1415690 1435450 
2068.413 1462703 1498230 1540824 1587642 1635088 1679418 1717702 1748081 
2072.270 1769984 1784060 1791774 1795265 1796525 1797257 1798300 1799495 
2076.128 1799692 1797147 1790275 1777854 1759725 1736858 1711149 1684708 
2079.985 1659537 1636795 1616486 1597599 1578291 1556664 1531247 1501643 
2083.843 1468799 1434686 1401644 1371543 1345158 1321771 1299324 1275214 
2087.700 1247397 1215018 1178874 1141089 1104609 1072047 1045144 1024523 
2091.557 1009921 1000697 996357 996567 1001189 1009897 1022073 1036765 
2095.415 1053063 1070152 1087476 1104388 1119930 1132375 1139671 1139599 
2099.272 1130654 1112746 1087411 1057765 1027542 1000443 979253 965259 
2103.130 958589 958416 963690 973187 985845 1000741 1016795 1033188 1049129 
2107.469 1064162 1078089 1090795 1102080 1111522 1118447 1122146 1122242 
2111.327 1119012 1113511 1107474 1103052 1102179 1106192 1115476 1129338 
2115.184 1145954 1162678 1176641 1184968 1185738 1178574 1164900 1147495 
2119.042 1130144 1116329 1108021 1105033 1104952 1104157 1098814 1086602 
2122.899 1067412 1043477 1018484 996198 979582 969880 966739 968843 974743 
2127.239 983157 992957 1003043 1011793 1017399 1018308 1013906 1005013 
2131.096 993815 983269 975495 971029 968064 963297 953152 935696 911848 
2135.436 885629 862775 848751 846913 857317 876635 899205 919290 931844 
2139.775 934301 926844 912427 895745 882078 876513 882322 899942 926641 
2144.115 956824 983218 998724 998859 982883 954517 920088 887506 863089 
2148.454 849761 847021 851944 860639 870052 879035 887898 897602 908302 
2152.794 918464 924671 922752 908712 880594 839207 788629 735007 686059 
2157.134 649844 632658 638205 665820 710333 762825 813251 852917 875718 
2161.473 879427 865239 837288 801045 762373 726233 696132 674188 661719 
2165.813 659280 667048 684417 709902 740942 774218 806175 833765 855127 
2170.152 870255 880814 889268 898302 909635 923266 937917 951513 962271 
2174.492 969602 974512 978897 984744 992831 1001911 1009018 1010697 1003969 
2178.832 988072 964856 938523 914153 896198 886958 885835 890012 895160 
2183.171 897700 895400 887878 875837 860568 842771 822485 799198 772686 
2187.511 743446 713367 685127 661961 646606 640499 643653 654577 671052 
2191.850 690116 708750 724605 735995 742381 744727 745155 746298 750839 
2196.190 760684 776211 796451 819500 843078 865198 884591 900450 912014 
2200.530 918477 918690 911669 897351 876807 852609 828118 806742 790873 
2204.869 781106 776322 774430 773631 773165 773907 778063 788204 806040 
2209.209 831590 862751 895958 926566 950253 964070 966861 959727 945482 
2213.548 928310 912281 900798 895711 896932 902473 909030 913195 911990 
2217.888 903938 889318 869873 848220 827193 809308 796073 788187 785478 
2222.228 787280 792429 799566 807252 814334 820155 824771 828841 833491 
2226.567 839399 846585 854262 860794 864478 864428 860808 855171 849828 
2230.907 847278 849274 856354 867798 882153 897774 913249 927721 940626 
2235.246 951351 959039 962542 960699 952881 939377 921577 901762 882829 
2239.586 867409 857401 853745 856296 864178 875955 890225 905761 921611 
2243.926 937338 952655 967370 981192 993679 1004186 1012084 1017063 1019241 
2248.265 1019299 1018284 1017182 1016700 1016904 1017158 1016419 1013699 
2252.123 1008517 1001246 993079 985696 980880 979904 983103 989923 999056 
2256.462 1008761 1017372 1023695 1027071 1027630 1026141 1023861 1022111 
2260.320 1022101 1024567 1029520 1036374 1044098 1051539 1057772 1062271 
2264.177 1064875 1065666 1064627 1061629 1056339 1048589 1038560 1027057 
2268.034 1015371 1005142 997801 994133 994157 997140 1002053 1007916 1014106 
2272.374 1020459 1027013 1033711 1040155 1045673 1049502 1051152 1050768 
2276.231 1049078 1047265 1046505 1047394 1049753 1052666 1054822 1055008 
2280.089 1052775 1048487 1043352 1038947 1036744 1037671 1041774 1048358 
2283.946 1056217 1064097 1070920 1076055 1079346 1080997 1081361 1080922 
2287.804 1080127 1079435 1079373 1080399 1082882 1086962 1092477 1098909 
2291.661 1105438 1111213 1115472 1117784 1118165 1116968 1114792 1112260 
2295.519 1109935 1108147 1107141 1106991 1107736 1109388 1111845 1114884 
2299.376 1118117 1121072 1123248 1124309 1124146 1122952 1121222 1119651 
2303.233 1118974 1119970 1123309 1129355 1138171 1149363 1162001 1174656 
2307.091 1185830 1194041 1198475 1199218 1197341 1194640 1193083 1194272 
2310.948 1198884 1206555 1215955 1225494 1233729 1239906 1244175 1247264 
2314.806 1250119 1253382 1257182 1261125 1264454 1266490 1266927 1266037 
2318.663 1264600 1263652 1264253 1267145 1272662 1280637 1290579 1301738 
2322.521 1313249 1324131 1333447 1340285 1343948 1343972 1340333 1333441 
2326.378 1324196 1314011 1304395 1296982 1293070 1293238 1297416 1304804 
2330.235 1314021 1323523 1331988 1338522 1342793 1345035 1345804 1345903 
2334.093 1346074 1346993 1349116 1352595 1357224 1362468 1367416 1370993 
2337.950 1372234 1370466 1365559 1357962 1348699 1339123 1330571 1324292 
2341.808 1321118 1321313 1324497 1329648 1335053 1338487 1337920 1331958 
2345.665 1320520 1305067 1288206 1272840 1261391 1255442 1255439 1260906 
2349.522 1270639 1283142 1296887 1310715 1324165 1337421 1351146 1365758 
2353.380 1381082 1396053 1409053 1418405 1423188 1423530 1420798 1416947 
2357.237 1414020 1413565 1416248 1421993 1430156 1439865 1450025 1459564 
2361.095 1467339 1472179 1473098 1469578 1461678 1450097 1436145 1421339 
2364.952 1406972 1394068 1383117 1374187 1367057 1361357 1356674 1352599 
2368.810 1348805 1345018 1341057 1336793 1332197 1327185 1321788 1315927 
2372.667 1309663 1303094 1296460 1290036 1284121 1278978 1274703 1271332 
2376.524 1268793 1266954 1265672 1264768 1263915 1262758 1260889 1257993 
2380.382 1253931 1248901 1243329 1237803 1232846 1228745 1225422 1222539 
2384.239 1219571 1216058 1211805 1206882 1201636 1196472 1191834 1188030 
2388.097 1185336 1184032 1184407 1186783 1191353 1198063 1206477 1215853 
2391.954 1225354 1234216 1241989 1248618 1254323 1259375 1263932 1267954 
2395.812 1271229 1273604 1275153 1276218 1277385 1279224 1282012 1285677 
2399.669 1289811 1293920 1297641 1300970 1304251 1308123 1313112 1319516 
2403.526 1327260 1335935 1344939 1353737 1361908 1369215 1375562 1380880 
2407.384 1385088 1388119 1389870 1390339 1389624 1387951 1385676 1383319 
2411.241 1381554 1381116 1382679 1386678 1393107 1401346 1410238 1418391 
2415.099 1424448 1427516 1427393 1424547 1419898 1414369 1408715 1403290 
2418.956 1398177 1393397 1389138 1385895 1384403 1385368 1389285 1396227 
2422.813 1405857 1417539 1430464 1443934 1457237 1469739 1480879 1490041 
2426.671 1496862 1501159 1503097 1503032 1501461 1498803 1495270 1490970 
2430.528 1486043 1480790 1475888 1472210 1470602 1471538 1474966 1480156 
2434.386 1485984 1491419 1495744 1498830 1501094 1503234 1505913 1509443 
2438.243 1513790 1518642 1523693 1528758 1533927 1539509 1545878 1553271 
2442.101 1561685 1570857 1580229 1589065 1596585 1602110 1605190 1605802 
2445.958 1604368 1601814 1599194 1597558 1597531 1599091 1601601 1604080 
2449.815 1605606 1605713 1604602 1603058 1602220 1603048 1606029 1610994 
2453.673 1617273 1623894 1629990 1634988 1638732 1641392 1643302 1644878 
2457.530 1646488 1648392 1650763 1653616 1656779 1659905 1662577 1664463 
2461.388 1665475 1665971 1666625 1668302 1671663 1676928 1683734 1691298 
2465.245 1698571 1704736 1709416 1712773 1715320 1717784 1720739 1724469 
2469.103 1728979 1734123 1739727 1745642 1751852 1758220 1764566 1770571 
2472.960 1775814 1779863 1782393 1783228 1782400 1780135 1776894 1773290 
2476.817 1770095 1768096 1767886 1769687 1773173 1777567 1781782 1784806 
2480.675 1786083 1785718 1784430 1783266 1783201 1784692 1787565 1790973 
2484.532 1793897 1795365 1794847 1792399 1788538 1784105 1780008 1777098 
2488.390 1776083 1777498 1781644 1788487 1797534 1807798 1817952 1826566 
2492.247 1832455 1835133 1834902 1832797 1830219 1828643 1829047 1831694 
2496.104 1836070 1841120 1845497 1847959 1847762 1844788 1839727 1833772 
2499.962 1828480 1825280 1825021 1827786 1832738 1838531 1843513 1846586 
2503.819 1847367 1846472 1845110 1844681 1846154 1849615 1854248 1858650 
2507.677 1861358 1861383 1858616 1853809 1848380 1843893 1841559 1842005 
2511.534 1845131 1850158 1855929 1861300 1865222 1867065 1866702 1864443 
2515.392 1860978 1857146 1853868 1851779 1851254 1852364 1854943 1858692 
2519.249 1863233 1868227 1873243 1877838 1881588 1884225 1885817 1886775 
2523.106 1887879 1889932 1893465 1898418 1904033 1909004 1911861 1911601 
2526.964 1907949 1901475 1893431 1885329 1878419 1873482 1870811 1870286 
2530.821 1871783 1875191 1880453 1887405 1895549 1904019 1911653 1917439 
2534.679 1920781 1921796 1921294 1920515 1920833 1923105 1927618 1933909 
2538.536 1941105 1948039 1953681 1957386 1958921 1958540 1956817 1954554 
2542.394 1952457 1951061 1950582 1950853 1951452 1951878 1951837 1951341 
2546.251 1950717 1950471 1951113 1952842 1955549 1958859 1962419 1966083 
2550.108 1970029 1974613 1980210 1986848 1994098 2001109 2006848 2010516 
2553.966 2011710 2010589 2007702 2003805 1999527 1995340 1991572 1988506 
2557.823 1986515 1986040 1987358 1990490 1995062 2000290 2005322 2009486 
2561.681 2012571 2014893 2017055 2019669 2023074 2027122 2031243 2034694 
2565.538 2036941 2037785 2037483 2036629 2036011 2036309 2038032 2041494 
2569.396 2046769 2053738 2062041 2071079 2080004 2087822 2093747 2097200 
2573.253 2098184 2097200 2095235 2093389 2092700 2093910 2097325 2102830 
2577.110 2109957 2118059 2126322 2133926 2140229 2144744 2147299 2148103 
2580.968 2147706 2146794 2146070 2146098 2147118 2149134 2151975 2155397 
2584.825 2159200 2163260 2167586 2172243 2177374 2183175 2189952 2197975 
2588.683 2207397 2218111 2229697 2241373 2252169 2261369 2268549 2273912 
2592.540 2278154 2282247 2287056 2293043 2300131 2307866 2315523 2322527 
2596.397 2328588 2333721 2338151 2342106 2345753 2349062 2352042 2354777 
2600.255 2357481 2360518 2364216 2368771 2374143 2380058 2386190 2392261 
2604.112 2398157 2403935 2409710 2415584 2421560 2427608 2433708 2439999 
2607.970 2446754 2454308 2462850 2472358 2482475 2492534 2501904 2510055 
2611.827 2516799 2522246 2526712 2530562 2534028 2537228 2540274 2543327 
2615.685 2546742 2551085 2556841 2564316 2573411 2583628 2594109 2603951 
2619.542 2612558 2619684 2625681 2631197 2637063 2643880 2651937 2661064 
2623.399 2670777 2680384 2689252 2696916 2703164 2708073 2711906 2715028 
2627.257 2717867 2720816 2724206 2728288 2733182 2738846 2745075 2751471 
2631.114 2757579 2762932 2767197 2770284 2772392 2773939 2775419 2777263 
2634.972 2779711 2782699 2785939 2789112 2791945 2794348 2796444 2798451 
2638.829 2800532 2802709 2804791 2806495 2807534 2807764 2807340 2806548 
2642.687 2805848 2805629 2806191 2807679 2810181 2813798 2818684 2824992 
2646.544 2832740 2841699 2851326 2860760 2869031 2875315 2879117 2880434 
2650.401 2879684 2877605 2874922 2872267 2870015 2868299 2867109 2866430 
2654.259 2866345 2866996 2868642 2871506 2875736 2881365 2888238 2896055 
2658.116 2904393 2912719 2920405 2926912 2931768 2934742 2935901 2935607 
2661.974 2934476 2933204 2932488 2932821 2934416 2937206 2940886 2945109 
2665.831 2949506 2953886 2958213 2962637 2967340 2972488 2978095 2983986 
2669.688 2989761 2994887 2998905 3001401 3002292 3001795 3000453 2998905 
2673.546 2997918 2998092 2999789 3003116 3007949 3013972 3020802 3028042 
2677.403 3035418 3042631 3049541 3055999 3061915 3067238 3071989 3076235 
2681.261 3080130 3083865 3087654 3091628 3095872 3100331 3104854 3109257 
2685.118 3113411 3117280 3120990 3124778 3128923 3133695 3139201 3145421 
2688.976 3152243 3159522 3167156 3175133 3183482 3192179 3201135 3210078 
2692.833 3218666 3226617 3233809 3240377 3246650 3253074 3259964 3267411 
2696.690 3275232 3283118 3290784 3298197 3305627 3313640 3322867 3333760 
2700.548 3346434 3360594 3375633 3390795 3405450 3419156 3431694 3443077 
2704.405 3453379 3462762 3471483 3479932 3488664 3498262 3509292 3521997 
2708.263 3536214 3551328 3566440 3580618 3593159 3603807 3612797 3620759 
2712.120 3628363 3636202 3644576 3653394 3662322 3670943 3678894 3686042 
2715.978 3692478 3698520 3704636 3711305 3718849 3727404 3736832 3746670 
2719.835 3756239 3764874 3771986 3777306 3780982 3783592 3785881 3788686 
2723.692 3792638 3797954 3804449 3811578 3818632 3824888 3829864 3833381 
2727.550 3835589 3836867 3837714 3838633 3839936 3841782 3844179 3846996 
2731.407 3850167 3853737 3857908 3863033 3869483 3877525 3887207 3898289 
2735.265 3910335 3922664 3934691 3945895 3955998 3964898 3972707 3979636 
2739.122 3985933 3991926 3997949 4004339 4011411 4019417 4028454 4038474 
2742.979 4049367 4060858 4072775 4085000 4097517 4110376 4123655 4137367 
2746.837 4151463 4165804 4180219 4194505 4208458 4221884 4234575 4246411 
2750.694 4257370 4267557 4277293 4287031 4297203 4308200 4320166 4333022 
2754.552 4346460 4360148 4373789 4387265 4400661 4414128 4427837 4441814 
2758.409 4455987 4470216 4484439 4498780 4513575 4529338 4546656 4565902 
2762.267 4587196 4610259 4634535 4659279 4683738 4707380 4729967 4751608 
2766.124 4772672 4793717 4815231 4837596 4860940 4885149 4909895 4934782 
2769.981 4959497 4983880 5007998 5032193 5056919 5082694 5109879 5138628 
2773.839 5168748 5199725 5230738 5260929 5289539 5316138 5340884 5364508 
2777.696 5388238 5413400 5441247 5472539 5507397 5545298 5585403 5626759 
2781.554 5668589 5710433 5752136 5793575 5834657 5875098 5914578 5952894 
2785.411 5990155 6026851 6063806 6102025 6142426 6185719 6232332 6282472 
2789.269 6336113 6393072 6452904 6514805 6577572 6639840 6700245 6757970 
2793.126 6813054 6866548 6920197 6976195 7036540 7102553 7174658 7252501 
2796.983 7335171 7421522 7510442 7601152 7693104 7786048 7880065 7975516 
2800.841 8072905 8172817 8275665 8381474 8489870 8600120 8711526 8823746 
2804.698 8937018 9052160 9170356 9292596 9419338 9550393 9685058 9822378 
2808.556 9961633 10102531 10245084 10389441 10535546 10683043 10831450 
2811.931 10980332 11129610 11279537 11430449 11582380 11734762 11886451 
2815.306 12036072 12182696 12326353 12468161 12609799 12752931 12898143 
2818.681 13044445 13189137 13328762 13459750 13579440 13686809 13782451 
2822.057 13868234 13946538 14019759 14089647 14156884 14221196 14281364 
2825.432 14335586 14382035 14419591 14448248 14469321 14484920 14497377 
2828.807 14508101 14517024 14522533 14522232 14514053 14497085 14472133 
2832.182 14441229 14407064 14371936 14337941 14307562 14284314 14273980 
2835.558 14283840 14320894 14390387 14493713 14628874 14792797 14985423 
2838.933 15213558 15492918 15843943 16287047 16831846 17469118 18163044 
2842.308 18853804 19468936 19931710 20186132 20208270 20012056 19641490 
2845.683 19159838 18634146 18117326 17648468 17249102 16926860 16682099 
2849.059 16511759 16412431 16380690 16413073 16505164 16650870 16843468 
2852.434 17075572 17339828 17629912 17939728 18263592 18596556 18933780 
2855.809 19271260 19605928 19935372 20257868 20572012 20876574 21170662 
2859.184 21453964 21726900 21990558 22246258 22494844 22736032 22967986 
2862.560 23187540 23390748 23573470 23732474 23865700 23972556 24053750 
2865.935 24111294 24148176 24167902 24174600 24172364 24164660 24154166 
2869.310 24142228 24128904 24113316 24094204 24070358 24040880 24005186 
2872.685 23962436 23911056 23848488 23770986 23674556 23556256 23415398 
2876.061 23254694 23080532 22902580 22730834 22574056 22436866 22318062 
2879.436 22210320 22101740 21979592 21832560 21655334 21450076 21226898 
2882.811 21000956 20789402 20607840 20465272 20362860 20292610 20240144 
2886.186 20186392 20113430 20009956 19874254 19716502 19556462 19420680 
2889.562 19333086 19309736 19352974 19450044 19574242 19691360 19770928 
2892.937 19791282 19747540 19651104 19526740 19403132 19305350 19250520 
2896.312 19244058 19282238 19355762 19455310 19573786 19707910 19856990 
2899.687 20019926 20192746 20367716 20533214 20677408 20791558 20873190 
2903.063 20927952 20969564 21017494 21091136 21207304 21375132 21594076 
2906.438 21853614 22135782 22419710 22684362 22914902 23104512 23255432 
2909.813 23377102 23484128 23592722 23716142 23863770 24038808 24238520 
2913.188 24455308 24679680 24903810 25124392 25345206 25577080 25835812 
2916.563 26135928 26486554 26886058 27321612 27769918 28203884 28600684 
2919.939 28945268 29233974 29471164 29663646 29813814 29916352 29958722 
2923.314 29927736 29815822 29628256 29383710 29113164 28850982 28625410 
2926.689 28454944 28343344 28282532 28256916 28251228 28255048 28266350 
2930.064 28291180 28341320 28429666 28565248 28750936 28981596 29245410 
2933.440 29524830 29801574 30059102 30284366 30470098 30613572 30715600 
2936.815 30778980 30807844 30807436 30783886 30744896 30698260 30650282 
2940.190 30604344 30559402 30510464 30450246 30372804 30275998 30163452 
2943.565 30043524 29927924 29827986 29751494 29701998 29678292 29675754 
2946.941 29687252 29704874 29719896 29722840 29705120 29659354 29581174 
2950.316 29470160 29329420 29163900 28978158 28775420 28557786 28328550 
2953.691 28095532 27871600 27673832 27518616 27413722 27353216 27314660 
2957.066 27265728 27170336 27003918 26763192 26469622 26162886 25889004 
2960.442 25688696 25582924 25571206 25633534 25741464 25865648 25985584 
2963.817 26092786 26186424 26267078 26330114 26361686 26342202 26252494 
2967.192 26082432 25838398 25545660 25245178 24980652 24792322 24703488 
2970.567 24714204 24799832 24916268 25010986 25031418 24942814 24733492 
2973.943 24417194 24025580 23601074 23186556 22815842 22516122 22306638 
2977.318 22200366 22206008 22324056 22542428 22829464 23136064 23397528 
2980.693 23544026 23523360 23310644 22919922 22397350 21812428 21235686 
2984.068 20720066 20296076 19965482 19708412 19491750 19283448 19059906 
2987.444 18812314 18547118 18281972 18038322 17832320 17670572 17546108 
2990.819 17440874 17329250 17188248 17004340 16778282 16524185 16264185 
2994.194 16019113 15798831 15599401 15405016 15197663 14966094 14715156 
2997.569 14465785 14250532 14098957 14027113 14030266 14084940 14156444 
3000.945 14212830 14238752 14238775 14234231 14250025 14303245 14391924 
3004.320 14495318 14579958 14616208 14589527 14508064 14398159 14295655 
3007.695 14230865 14216127 14242749 14283501 14304323 14273295 14174120 
3011.070 14009848 13801759 13579980 13375571 13212042 13098478 13029799 
3014.446 12988186 12949829 12888382 12783203 12624291 12414248 12168281 
3017.821 11910589 11670796 11474676 11341165 11277763 11279318 11328673 
3021.196 11400244 11466897 11502520 11489546 11421923 11305626 11156505 
3024.571 10996104 10847457 10727762 10646725 10604817 10595314 10607148 
3027.947 10629176 10653564 10675636 10693510 10705604 10708394 10696223 
3031.322 10662534 10602635 10516626 10410562 10295436 10182859 10082487 
3034.697 9998015 9926580 9860211 9789737 9708835 9616737 9518918 9425668 
3038.554 9348951 9297755 9276105 9281242 9304733 9333614 9353952 9354343 
3042.412 9327132 9270633 9188694 9089868 8984273 8881804 8789758 8710963 
3046.269 8644143 8584714 8527099 8466296 8399964 8329089 8257745 8191582 
3050.127 8136265 8096207 8073108 8065803 8070296 8081050 8091448 8095412 
3053.984 8088922 8070320 8040939 8004450 7966093 7930729 7901785 7880414 
3057.842 7865610 7854791 7845045 7834269 7821588 7807459 7793203 7780443 
3061.699 7770516 7764172 7761561 7762294 7765479 7769640 7772921 7773186 
3065.556 7768328 7757068 7739096 7715431 7687998 7659317 7631686 7606706 
3069.414 7585271 7567590 7553520 7542836 7535371 7530827 7528648 7528096 
3073.271 7528195 7528120 7527505 7526437 7525472 7525212 7526177 7528545 
3077.129 7532167 7536786 7542135 7547988 7553942 7559470 7563670 7565693 
3080.986 7564991 7561809 7557215 7552929 7550812 7552089 7557065 7565026 
3084.844 7574801 7585188 7595619 7606272 7617797 7630797 7645430 7661195 
3088.701 7677308 7693036 7708161 7723097 7738589 7755306 7773495 7792708 
3092.558 7812202 7831364 7850010 7868553 7887713 7908128 7929898 7952542 
3096.416 7975177 7997140 8018221 8038845 8059700 8081390 8103993 8127047 
3100.273 8149726 8171553 8192607 8213807 8236455 8261680 8289979 8320933 
3104.131 8353392 8385959 8417629 8447930 8477028 8505388 8533411 8561254 
3107.988 8588788 8615863 8642559 8669295 8696784 8725668 8756441 8789145 
3111.845 8823656 8859621 8896767 8934852 8973561 9012399 9050671 9087621 
3115.703 9122832 9156387 9189070 9222037 9256521 9293281 9332360 9373099 
3119.560 9414584 9455960 9496803 9537180 9577438 9617890 9658612 9699373 
3123.418 9739889 9780028 9819952 9860061 9900686 9941833 9983147 10023925 
3127.275 10063534 10101720 10138801 10175638 10213169 10252137 10292811 
3130.650 10335033 10378373 10422397 10466933 10512017 10557676 10603836 
3134.026 10650202 10696384 10742132 10787490 10832806 10878574 10925060 
3137.401 10972120 11019196 11065546 11110743 11154898 11198773 11243495 
3140.776 11290158 11339250 11390487 11442948 11495464 11547059 11597221 
3144.151 11645982 11693695 11740779 11787519 11834131 11880832 11927994 
3147.527 11976140 12025752 12076992 12129566 12182766 12235689 12287696 
3150.902 12338690 12389159 12439969 12491886 12545328 12600099 12655635 
3154.277 12711224 12766436 12821196 12875727 12930337 12985152 13040100 
3157.652 13094975 13149700 13204411 13259475 13315263 13371861 13428935 
3161.028 13485736 13541484 13595638 13648197 13699698 13750969 13802734 
3164.403 13855322 13908657 13962410 14016405 14070727 14125796 14182125 
3167.778 14239930 14299050 14358799 14418355 14477113 14534885 14591877 
3171.153 14648494 14704923 14760958 14816056 14869611 14921424 14971931 
3174.529 15022177 15073417 15126684 15182371 15240145 15299155 15358466 
3177.904 15417428 15475780 15533604 15590979 15647826 15703915 15758985 
3181.279 15813126 15866870 15921129 15976869 16034630 16094260 16154918 
3184.654 16215450 16274755 16332388 16388528 16443937 16499437 16555589 
3188.030 16612519 16670001 16727635 16785156 16842452 16899536 16956314 
3191.405 17012542 17067788 17121736 17174384 17226254 17278156 17330984 
3194.780 17385276 17440942 17497280 17553280 17608068 17661246 17713022 
3198.155 17764038 17815194 17867116 17920154 17974362 18029590 18085632 
3201.531 18142234 18199038 18255526 18311038 18364960 18417012 18467366 
3204.906 18516728 18566102 18616282 18667700 18720182 18773172 18826036 
3208.281 18878484 18930678 18983120 19036374 19090540 19145270 19199776 
3211.656 19253230 19305148 19355602 19405160 19454592 19504440 19554824 
3215.031 19605452 19655860 19705788 19755286 19804720 19854472 19904602 
3218.407 19954762 20004148 20052010 20097942 20142126 20185270 20228376 
3221.782 20272302 20317424 20363682 20410640 20457826 20504852 20551548 
3225.157 20597842 20643698 20689010 20733718 20777950 20821974 20866268 
3228.532 20911204 20956768 21002474 21047466 21090952 21132574 21172706 
3231.908 21212404 21253004 21295456 21339958 21385712 21431384 21475432 
3235.283 21516846 21555474 21591954 21627260 21662460 21698230 21734802 
3238.658 21772202 21810450 21849636 21889860 21931004 21972632 22013820 
3242.033 22053624 22091382 22127018 22161086 22194628 22228642 22263634 
3245.409 22299418 22335220 22370120 22403316 22434514 22463820 22491614 
3248.784 22518356 22544372 22570044 22595800 22622312 22650318 22680356 
3252.159 22712508 22746138 22780240 22813586 22845368 22875528 22904720 
3255.534 22933940 22964072 22995458 23027806 23060408 23092558 23123908 
3258.910 23154578 23184862 23214936 23244474 23272624 23298468 23321250 
3262.285 23341020 23358606 23375436 23392946 23412122 23433248 23455920 
3265.660 23479310 23502554 23525046 23546400 23566434 23585032 23602136 
3269.035 23617846 23632496 23646728 23661236 23676618 23692972 23710002 
3272.411 23727076 23743648 23759626 23775462 23791910 23809616 23828618 
3275.786 23848296 23867418 23884758 23899652 23912212 23923312 23934052 
3279.161 23945312 23957376 23969882 23982198 23993864 24004858 24015528 
3282.536 24026298 24037246 24047836 24057208 24064456 24069246 24072080 
3285.912 24074200 24077078 24081766 24088540 24096814 24105478 24113416 
3289.287 24120064 24125496 24130254 24134906 24139732 24144498 24148690 
3292.662 24151732 24153296 24153448 24152514 24150888 24148894 24146820 
3296.037 24144990 24143906 24144160 24146240 24150166 24155326 24160502 
3299.413 24164162 24165038 24162538 24156960 24149250 24140662 24132288 
3302.788 24124702 24118044 24112238 24107202 24103002 24099756 24097376 
3306.163 24095422 24093144 24089714 24084552 24077696 24069692 24061430 
3309.538 24053552 24046286 24039308 24031972 24023760 24014506 24004494 
3312.914 23994224 23984038 23973838 23963184 23951520 23938582 23924654 
3316.289 23910392 23896634 23883782 23871632 23859400 23846184 23831438 
3319.664 23815296 23798492 23781906 23766082 23750800 23735180 23718032 
3323.039 23698700 23677308 23654968 23633170 23613306 23595958 23580714 
3326.415 23566384 23551654 23535498 23517588 23498080 23477458 23456074 
3329.790 23434048 23411428 23388344 23365276 23342922 23321960 23302564 
3333.165 23284388 23266496 23247846 23227590 23205542 23182054 23157718 
3336.540 23132970 23107786 23081668 23054036 23024560 22993430 22961300 
3339.916 22929024 22897202 22866052 22835350 22804832 22774422 22744432 
3343.291 22715388 22687740 22661472 22635994 22610266 22583382 22554902 
3346.666 22525092 22494704 22464662 22435480 22407072 22378782 22349832 
3350.041 22319724 22288454 22256420 22224108 22191752 22159078 22125598 
3353.417 22090788 22054608 22017524 21980416 21944036 21908798 21874448 
3356.792 21840336 21805734 21770258 21734044 21697592 21661436 21625888 
3360.167 21590852 21556064 21521332 21486848 21453092 21420580 21389436 
3363.542 21359120 21328436 21295876 21260326 21221320 21179296 21135250 
3366.917 21090338 21045346 21000628 20956268 20912396 20869500 20828304 
3370.293 20789464 20753150 20718678 20684764 20649792 20612710 20573408 
3373.668 20532798 20492406 20453730 20417490 20383388 20350192 20316256 
3377.043 20280172 20241104 20198964 20154240 20107748 20060374 20013032 
3380.418 19966690 19922272 19880460 19841490 19804812 19769048 19732438 
3383.794 19693320 19650676 19604600 19556158 19507032 19458714 19412174 
3387.169 19367576 19324486 19282188 19240080 19197796 19155096 19111752 
3390.544 19067372 19021518 18973922 18924678 18874442 18824124 18774630 
3393.919 18726488 18679684 18633888 18588706 18544046 18500186 18457572 
3397.295 18416424 18376448 18336754 18296118 18253458 18208328 18161102 
3400.670 18112814 18064532 18017066 17970506 17924330 17877682 17829904 
3404.045 17780876 17731040 17681144 17631932 17583872 17536976 17490984 
3407.420 17445438 17399904 17353860 17306832 17258296 17207856 17155556 
3410.796 17101924 17048136 16995602 16945600 16898704 16854612 16812158 
3414.171 16769856 16726544 16681728 16635777 16589491 16543706 16498695 
3417.546 16454090 16408944 16362354 16313739 16263193 16211258 16158821 
3420.921 16106521 16054642 16003117 15951864 15900940 15850681 15801582 
3424.297 15754043 15708144 15663543 15619607 15575700 15531373 15486518 
3427.672 15441251 15395758 15350099 15304211 15257947 15211239 15164088 
3431.047 15116622 15068837 15020570 14971426 14920938 14868873 14815342 
3434.422 14760901 14706290 14652216 14599055 14546750 14495063 14443794 
3437.798 14393073 14343335 14295112 14248669 14203681 14159212 14113890 
3441.173 14066458 14016272 13963553 13909250 13854711 13801181 13749382 
3444.548 13699453 13651159 13604079 13557798 13511936 13466093 13419695 
3447.923 13372141 13322949 13271941 13219382 13165924 13112323 13059109 
3451.299 13006400 12953824 12900871 12847057 12792370 12737304 12682724 
3454.674 12629515 12578328 12529351 12482411 12437159 12393197 12350190 
3458.049 12307737 12265228 12221871 12176701 12129023 12078729 12026456 
3461.424 11973503 11921313 11871032 11822954 11776506 11730490 11683799 
3464.800 11635698 11586187 11535838 11485440 11435562 11386266 11337160 
3468.175 11287671 11237473 11186734 11136024 11086139 11037730 10990910 
3471.550 10945318 10900152 10854672 10808338 10761133 10713406 10665888 
3474.925 10619184 10573722 10529643 10486822 10445013 10403951 10363488 
3478.301 10323491 10283880 10244514 10205062 10165115 10124112 10081492 
3481.676 10036882 9990286 9942182 9893474 9845369 9799128 9755599 9715092 
3485.533 9677199 9640774 9604090 9565356 9523109 9476550 9425870 9372108 
3489.391 9316951 9262168 9209321 9159439 9112806 9068962 9026925 8985499 
3493.248 8943543 8900313 8855615 8809770 8763418 8717252 8671831 8627328 
3497.105 8583664 8540574 8497828 8455309 8413004 8370938 8329154 8287637 
3500.963 8246373 8205429 8165043 8125489 8087025 8049656 8012996 7976316 
3504.820 7938788 7899622 7858312 7814709 7769046 7721724 7673465 7625253 
3508.678 7578198 7533531 7492260 7454765 7420570 7388251 7355807 7320925 
3512.535 7281854 7237807 7189344 7138186 7086853 7037974 6993404 6953950 
3516.393 6919197 6887898 6858290 6828783 6798359 6766604 6733812 6700593 
3520.250 6667766 6635914 6605358 6575964 6547219 6518262 6488184 6456387 
3524.107 6422699 6387414 6351106 6314296 6277127 6239275 6200025 6158715 
3527.965 6115065 6069522 6023239 5977910 5935284 5896764 5863230 5834971 
3531.822 5811583 5792118 5775110 5758661 5740517 5718593 5691353 5658491 
3535.680 5621283 5582588 5545987 5514255 5488587 5467860 5449112 5428419 
3539.537 5402476 5369524 5329944 5285991 5241201 5199108 5162179 5131419 
3543.395 5106230 5084814 5064551 5042910 5017902 4988340 4954130 4916207 
3547.252 4876333 4836552 4798923 4764910 4735140 4709366 4686598 4665425 
3551.109 4644365 4622397 4599195 4575082 4550640 4526275 4501864 4476927 
3554.967 4450866 4423335 4394534 4365204 4336397 4309074 4283944 4261186 
3558.824 4240511 4221310 4202888 4184623 4166154 4147482 4129113 4112085 
3562.682 4097852 4088306 4085248 4089893 4102120 4119818 4138081 4149224 
3566.539 4145331 4120816 4075817 4016121 3950260 3885909 3828007 3779309 
3570.396 3740772 3712514 3694231 3685173 3684008 3688686 3696615 3704644 
3574.254 3709595 3708941 3701021 3685527 3663458 3636941 3608545 3580787 
3578.111 3555661 3534065 3515619 3498844 3481835 3462723 3440659 3416130 
3581.969 3390999 3367959 3349631 3338075 3334025 3336833 3344516 3354205 
3585.826 3362170 3364332 3357273 3339249 3311222 3276586 3239899 3205248 
3589.684 3175407 3152093 3136010 3127061 3124462 3126787 3131822 3136893 
3593.541 3139497 3137602 3130362 3118245 3102794 3086049 3069937 3055918 
3597.398 3044618 3035805 3028333 3020479 3010165 2995572 2975877 2951510 
3601.256 2924293 2896759 2871732 2851411 2837197 2829822 2829444 2835796 
3605.113 2848152 2865223 2884750 2903444 2917655 2924034 2921238 2910731 
3608.971 2896805 2884648 2878703 2881691 2894096 2914441 2939581 2965553 
3612.828 2987961 3003546 3011230 3012260 3009305 3005193 3002193 3001433 
3616.686 3003063 3006504 3010765 3014785 3017662 3018802 3017708 3013638 
3620.543 3005879 2993861 2977953 2959834 2942875 2931477 2930733 2945322 
3624.400 2977964 3028777 3094901 3171779 3253170 3332315 3402063 3454265 
3628.258 3481817 3482635 3463404 3435818 3410173 3391390 3379601 3372901 
3632.115 3368933 3366026 3363670 3363079 3366910 3378749 3401454 3436198 
3635.973 3481910 3535538 3592544 3648161 3699238 3745254 3788961 3835227 
3639.830 3889899 3957533 4039980 4135891 4241052 4349507 4454798 4551983 
3643.688 4637540 4709344 4766370 4808242 4835748 4851603 4862170 4877327 
3647.545 4908760 4966948 5055665 5169550 5294686 5413925 5512682 5583809 
3651.402 5628257 5651683 5661556 5665007 5669401 5682134 5710834 5762282 
3655.260 5838667 5933836 6032101 6114893 6168132 6188588 6182968 6164260 
3659.117 6147159 6144235 6164584 6210873 6279237 6359878 6440769 6510231 
3662.975 6560053 6587705 6595853 6590948 6579920 6568436 6558531 6548440 
3666.832 6533414 6507752 6467191 6411832 6347976 6288094 6245659 6226549 
3670.689 6224829 6227272 6222534 6204971 6175664 6139949 6105968 6081210 
3674.547 6069381 6066935 6066527 6067316 6083603 6137999 6254322 6446527 
3678.404 6711682 7024098 7335285 7584750 7713756 7691087 7517907 7224826 
3682.262 6857052 6465606 6095440 5774970 5517117 5318415 5166143 5044975 
3686.119 4943974 4859324 4794146 4755978 4752410 4787098 4858858 4964233 
3689.977 5100827 5266637 5457813 5665343 5875936 6074685 6250457 6397955 
3693.834 6517175 6611828 6685769 6740541 6774732 6785170 6770131 6731924 
3697.691 6677982 6618835 6564701 6523636 6498773 6488531 6487815 6491524 
3701.549 6497480 6508141 6528415 6562474 6610238 6667198 6725568 6777284 
3705.406 6816369 6839894 6848691 6846193 6836965 6824580 6811210 6797785 
3709.264 6785054 6774736 6769217 6769411 6771661 6766785 6743087 6690874 
3713.121 6608008 6499651 6375923 6247657 6124910 6015444 5923771 5852624 
3716.979 5802338 5771027 5754345 5745868 5737575 5720173 5685193 5625726 
3720.836 5538255 5423993 5289666 5146084 5004310 4873049 4755767 4651217 
3724.693 4555148 4463356 4373799 4287674 4208699 4141194 4087822 4048396 
3728.551 4020515 4000343 3983790 3966586 3945024 3916293 3879014 3833711 
3732.408 3782501 3728040 3671945 3614173 3553374 3488746 3421418 3355049 
3736.266 3293954 3240298 3192946 3148570 3103128 3053628 2998880 2939879 
3740.123 2879174 2820388 2767045 2721507 2685484 2660003 2645774 2642323 
3743.980 2646732 2653251 2655146 2649239 2636267 2619117 2600616 2583094 
3747.838 2568109 2556359 2547796 2541525 2536171 2530094 2521687 2509325 
3751.695 2491004 2465312 2432005 2392817 2351353 2312685 2282491 2265645 
3755.553 2266092 2284782 2318756 2360126 2397922 2420611 2419374 2391834 
3759.410 2342735 2282781 2224085 2177120 2147640 2136512 2141573 2158834 
3763.268 2183363 2208757 2228016 2234472 2223998 2197201 2159353 2118107 
3767.125 2079966 2049239 2026990 2011464 1998819 1985027 1967553 1946382 
3770.982 1923621 1901890 1882993 1867363 1854476 1843596 1834345 1827112 
3774.840 1822823 1822495 1826714 1835209 1846821 1859615 1871493 1880377 
3778.697 1884723 1883965 1878599 1869957 1859584 1848899 1838835 1829787 
3782.555 1821711 1814072 1805964 1796290 1784285 1769936 1754204 1738720 
3786.412 1725382 1715827 1711029 1711322 1716368 1725355 1737030 1749941 
3790.270 1762499 1773114 1780584 1784475 1785376 1784944 1785538 1789585 
3794.127 1798670 1812956 1830613 1848100 1860992 1866263 1863700 1856064 
3797.984 1847440 1841784 1841788 1848253 1859868 1873005 1882436 1883028 
3801.842 1873205 1855946 1836630 1819841 1808455 1803778 1806030 1814521 
3805.699 1827254 1841003 1851662 1856233 1854532 1849096 1843374 1839935 
3809.557 1839803 1842351 1845929 1848581 1849120 1847582 1845386 1844612 
3813.414 1847271 1854141 1864122 1873686 1878128 1873984 1861642 1845379 
3817.271 1830958 1822969 1823528 1832973 1850296 1873340 1898349 1920556 
3821.129 1935693 1942054 1941015 1935336 1927404 1918388 1908582 1897702 
3824.986 1885215 1870555 1853439 1834221 1814041 1794636 1777854 1765353 
3828.844 1758086 1756371 1759701 1766957 1776404 1786170 1794964 1802345 
3832.701 1808842 1815519 1823518 1833637 1846254 1861317 1878557 1897473 
3836.559 1917214 1936653 1954322 1968826 1979322 1985911 1989487 1991041 
3840.416 1991000 1988728 1982634 1970546 1950763 1922880 1888516 1851129 
3844.273 1815336 1785386 1763772 1751289 1747122 1749644 1757065 1767996 
3848.131 1781603 1797634 1816407 1838504 1864672 1895604 1931339 1970459 
3851.988 2009042 2039323 2051907 2041793 2013404 1976991 1941382 1910573 
3855.846 1884699 1862444 1842586 1824579 1808897 1796601 1788925 1786871 
3859.703 1790838 1800421 1814421 1831245 1849183 1866806 1883322 1898300 
3863.561 1911300 1921626 1928481 1931616 1931834 1931086 1931706 1935700 
3867.418 1944334 1957549 1973496 1988100 1996242 1993862 1980979 1961400 
3871.275 1940180 1920660 1903746 1888561 1873347 1856444 1837245 1816663 
3875.133 1796639 1779310 1766043 1757548 1753970 1755150 1760591 1769449 
3878.990 1780408 1791404 1800390 1805988 1808323 1808900 1809888 1813180 
3882.848 1819672 1829317 1840961 1852575 1861459 1865512 1864454 1860359 
3886.705 1856472 1855638 1859556 1868629 1882440 1899976 1919871 1940197 
3890.563 1958665 1973160 1982107 1984999 1982266 1974973 1964392 1951896 
3894.420 1939019 1927241 1918104 1913080 1913187 1918960 1930164 1945741 
3898.277 1963629 1981299 1996203 2006456 2011391 2011450 2007799 2001491 
3902.135 1993092 1982401 1968763 1951404 1930199 1905996 1880436 1855414 
3905.992 1832541 1812949 1797126 1785155 1776777 1771468 1768486 1766951 
3909.850 1765970 1764814 1763013 1760581 1757948 1755829 1755129 1756585 
3913.707 1760687 1767520 1776832 1788072 1800441 1813198 1825730 1837705 
3917.564 1848934 1859225 1868117 1874852 1878706 1879235 1876689 1872032 
3921.422 1866709 1862047 1859000 1857637 1857136 1856026 1852886 1847046 
3925.279 1839039 1830340 1822820 1818000 1816625 1818556 1823093 1829282 
3929.137 1836229 1843371 1850490 1857405 1863658 1868314 1870057 1867733 
3932.994 1860878 1850175 1837169 1823991 1812742 1804866 1801222 1801868 
3936.852 1806254 1813381 1822195 1831729 1841324 1850663 1859650 1868286 
3940.709 1876544 1884215 1890918 1896182 1899574 1900966 1900602 1899159 
3944.566 1897390 1896033 1895538 1895923 1896836 1897549 1897338 1895600 
3948.424 1892243 1887623 1882332 1876942 1871659 1866363 1860798 1854763 
3952.281 1848453 1842434 1837577 1834712 1834335 1836367 1840139 1844730 
3956.139 1849068 1852443 1854604 1855739 1856306 1856779 1857544 1858733 
3959.996 1860321 1862188 1864201 1866194 1868103 1869891 1871673 1873655 
3963.854 1876160 1879495 1883827 1889011 1894559 1899765 1903801 1906096 
3967.711 1906515 1905435 1903489 1901399 1899661 1898314 1897092 1895569 
3971.568 1893437 1890717 1887751 1885007 1882882 1881457 1880471 1879402 
3975.426 1877793 1875378 1872230 1868743 1865447 1862856 1861303 1860902 
3979.283 1861569 1863136 1865311 1867833 1870427 1872849 1874932 1876658 
3983.141 1878097 1879398 1880737 1882135 1883498 1884682 1885526 1886118 
3986.998 1886730 1887789 1889665 1892530 1896147 1899983 1903275 1905452 
3990.855 1906273 1905961 1905065 1904248 1904012 1904570 1905885 1907751 
3994.713 1910005 1912623 1915667 1919168 1923088 1927144 1931030 1934443 
3998.570 1937263 1939619 1941812 1944043 1946327 
##END=
