##TITLE=lancol_3 26.08. 11:09:31 2026 (GMT+02:00)
##JCAMP-DX=5.01  $$ Nicolet v. 970
##DATATYPE=INFRARED SPECTRUM
##ORIGIN=Vojna akademija
##OWNER=Nicolet
##LONGDATE=2026/08/26
##TIME=11:10:03
##SPECTROMETER/DATA SYSTEM=Nicolet iS20
##DATA PROCESSING=
Ratio against background
%Transmittance->Absorbance
Truncated
ElementMultiply or ElementDivide
##COMMENTS=
Number of sample scans: 8
Collection length: 11,90 sec
Sample gain: 8,0
Background collected on: Wed Aug 26 11:06:29 2026 (GMT+02:00);
Number of background scans: 8
Background gain: 8,0
Sample spacing:  1,000
Number of scan points: 12415
Resolution points: 8286
Number of FFT points: 65536
Apodization: N-B strong;
Phase correction: Mertz;
Laser frequency: 15798,00 cm-1
Number of rejected sample scans: 0
Number of rejected background scans: 0
Bench serial number: BER2010005;
##RESOLUTION= 4,000
##XUNITS=1/CM
##YUNITS=ABSORBANCE
##FIRSTX=400.156891
##LASTX=4000.123047
##FIRSTY=0.001903
##MAXX=4000.123047
##MINX=400.156891
##MAXY=0.274175
##MINY=-0.000215
##XFACTOR=1.000000
##YFACTOR=1.000000E-009
##NPOINTS=7468
##DELTAX=0.482117
##ZPD=6100
##XYDATA=(X++(Y..Y))
400.157 1903275 1442298 1287640 1340848 1488743 1628306 1695360 1659570 
404.014 1533663 1362818 1210547 1136890 1181575 1354509 1645634 2045202 
407.871 2561577 3222281 4056801 5060105 6159756 7199668 7969884 8265513 
411.728 7934822 6950820 5441959 3687625 2016673 727503 -15473 -214556 3876 
416.067 454638 974703 1463741 1935158 2510185 3339731 4428032 5557392 
419.924 6409194 6786346 6667759 6169704 5457560 4700124 4025097 3495756 
423.781 3116877 2853980 2674948 2588842 2649444 2926628 3462322 4233527 
427.638 5137348 6013924 6707565 7101378 7166217 6954725 6572078 6122386 
431.494 5668560 5221110 4752646 4235535 3676999 3128625 2680115 2419948 
435.351 2389861 2555411 2805455 3006695 3057912 2945809 2741497 2569476 
439.208 2545179 2736762 3129125 3627112 4076033 4321131 4275921 3959220 
443.065 3495522 3053107 2778810 2723058 2829200 2957485 2954383 2700719 
446.922 2175520 1466401 753690 237039 57822 273839 848828 1681955 2635209 
451.261 3582977 4432384 5140868 5713109 6177131 6553308 6837236 7003615 
455.118 7026446 6905942 6692120 6490578 6435524 6634584 7088175 7664203 
458.975 8144158 8338565 8136562 7543219 6665101 5697296 4873493 4397372 
462.832 4393188 4845012 5617302 6493403 7263276 7755537 7866358 7575923 
466.689 6939002 6071041 5108782 4193111 3435303 2904379 2637576 2633443 
470.546 2851912 3205691 3575193 3823551 3848723 3634630 3266980 2901877 
474.403 2694385 2757369 3122384 3743635 4511992 5295563 5972469 6464547 
478.260 6760633 6902945 6959068 6984759 7013953 7055912 7111684 7188315 
482.117 7302192 7469626 7683022 7899255 8039444 8013217 7767579 7318434 
485.974 6759254 6221530 5833181 5660705 5688131 5824585 5945830 5947342 
489.831 5790131 5523799 5272354 5186972 5370633 5838622 6494042 7168508 
493.688 7668486 7853099 7668958 7149712 6394802 5540210 4735730 4103392 
497.544 3727493 3642415 3831574 4236137 4766984 5324744 5801985 6115228 
501.401 6226471 6154815 5967194 5747992 5562057 5428404 5323872 5205147 
505.258 5041132 4831811 4619410 4471115 4455147 4603536 4894670 5256859 
509.115 5602534 5855313 5972200 5954295 5834391 5663021 5483364 5326052 
512.972 5202029 5111297 5053702 5033422 5061278 5147440 5293685 5488464 
516.829 5706495 5915566 6080886 6169535 6154782 6015100 5742049 5347520 
520.686 4872488 4384385 3967579 3712053 3684150 3913179 4379431 5021255 
524.543 5740572 6432767 7017219 7447783 7721301 7861297 7898411 7854010 
528.400 7738200 7559874 7337507 7105925 6913988 6804722 6802232 6894698 
532.257 7038434 7167329 7219410 7156381 6973041 6696494 6376443 6067748 
536.114 5811387 5631702 5533766 5511483 5552459 5641873 5764411 5902433 
539.971 6038013 6155387 6242975 6296862 6320059 6321773 6312192 6302207 
543.828 6300526 6312561 6340029 6377485 6408488 6403074 6324228 6139222 
547.685 5833047 5423271 4964175 4544034 4255376 4176484 4339905 4721427 
551.542 5246731 5818171 6346283 6762653 7037289 7170394 7181207 7093093 
555.398 6926781 6700532 6434549 6160764 5921713 5760885 5713276 5790198 
559.255 5976500 6234505 6519470 6790519 7017354 7183801 7279920 7295992 
563.112 7222004 7051702 6792303 6472315 6146044 5879258 5731843 5739531 
566.969 5896824 6157538 6444671 6679030 6795938 6765379 6594247 6319722 
570.826 5992692 5661040 5364461 5127121 4958612 4857811 4816030 4820755 
574.683 4860291 4928047 5025545 5161891 5348896 5593337 5890107 6218236 
578.540 6540963 6814517 6997386 7057865 6985870 6794491 6516005 6189365 
582.397 5853902 5542659 5280806 5089338 4982240 4963907 5022461 5130005 
586.254 5246295 5326086 5335713 5260347 5109520 4911526 4707426 4536835 
590.111 4426995 4391648 4429940 4530440 4674434 4841394 5008786 5153710 
593.968 5255551 5298213 5273427 5183988 5043680 4873124 4691650 4513331 
597.825 4342783 4178223 4018308 3867076 3736850 3644820 3604359 3618893 
601.682 3678302 3764490 3856178 3939392 4011352 4080447 4161330 4266920 
605.539 4403530 4568778 4752915 4943698 5130843 5305323 5458601 5581355 
609.396 5659463 5678328 5626902 5503598 5320417 5102077 4881568 4687798 
613.253 4539447 4438543 4372202 4316178 4244134 4137144 3989081 3809579 
617.109 3621566 3456377 3342702 3299865 3333053 3433132 3580171 3750787 
620.966 3928124 4103426 4278899 4460972 4653267 4847793 5023367 5146769 
624.823 5186905 5126551 4974766 4767185 4561311 4418660 4382879 4470646 
628.680 4665693 4926472 5194785 5416024 5549908 5576120 5496585 5329340 
632.537 5103452 4849301 4600154 4386293 4231386 4151528 4149287 4214356 
636.394 4322436 4442627 4542493 4593089 4577584 4493344 4352656 4181402 
640.251 4016201 3898267 3861660 3929629 4103627 4362462 4662109 4946748 
644.108 5161790 5263332 5232344 5076833 4827924 4528029 4224426 3958718 
647.965 3759844 3647327 3628849 3701660 3851564 4055631 4281208 4490599 
651.822 4650153 4734759 4735630 4661808 4536433 4390142 4249220 4133497 
655.679 4050246 3997674 3967345 3949322 3934075 3913613 3882220 3837324 
659.536 3780299 3716865 3657986 3616153 3601319 3618391 3662730 3723282 
663.393 3784043 3831908 3858518 3862496 3847118 3817869 3779397 3734310 
667.250 3684851 3633961 3587921 3552342 3529293 3514729 3503271 3490445 
671.107 3474513 3456377 3438743 3425751 3421243 3427321 3446157 3481026 
674.963 3536341 3619026 3733809 3879311 4045162 4213085 4360454 4467834 
678.820 4526657 4540250 4524715 4500174 4485142 4488825 4510720 4542996 
682.677 4578489 4614051 4651895 4696205 4747856 4799815 4839048 4849803 
686.534 4821425 4755829 4667602 4580598 4519056 4500910 4532214 4610870 
690.391 4730404 4887868 5083203 5317466 5586893 5878083 6169199 6435558 
694.248 6657295 6829225 6963681 7088782 7236120 7431570 7685585 7991010 
698.105 8326710 8666658 8988909 9279817 9535322 9757190 9948286 10109418 
701.962 10238379 10333005 10392967 10421237 10424224 10410274 10388928 
705.337 10372537 10376372 10420999 10528021 10715313 10990593 11348345 
708.712 11769575 12226860 12696022 13161114 13621202 14088382 14584402 
712.086 15132140 15748868 16446717 17232282 18109112 19078764 20139076 
715.461 21280620 22482328 23714488 24939558 26120866 27232364 28259328 
718.836 29198808 30050660 30806390 31442452 31922296 32205932 32267742 
722.211 32107346 31752508 31246790 30638890 29968502 29257746 28520624 
725.586 27768890 27021240 26308352 25664120 25117406 24682370 24354398 
728.961 24112234 23925866 23768172 23617392 23460684 23290294 23097780 
732.335 22873916 22610236 22304228 21964802 21612200 21277524 20991372 
735.710 20780200 20660302 20635006 20695538 20821390 20983686 21143572 
739.085 21257656 21284832 21190748 20960910 20606550 20165420 19690342 
742.460 19238988 18857792 18570082 18378024 18265904 18211342 18192098 
745.835 18192132 18201322 18210686 18209132 18182594 18114502 17992572 
749.209 17811264 17574306 17291652 16977998 16647873 16314110 15990298 
752.584 15690155 15426061 15208107 15040202 14917043 14825081 14746166 
755.959 14662397 14561239 14439037 14301254 14158723 14023938 13908387 
759.334 13820094 13763317 13739035 13744678 13773919 13816195 13858851 
762.709 13888818 13895866 13875682 13829501 13762701 13680628 13586227 
766.083 13478825 13357713 13226148 13095032 12983962 12916576 12910943 
769.458 12973311 13091106 13235917 13366665 13442528 13434189 13330618 
772.833 13141750 12897052 12637924 12405443 12233676 12141532 12126199 
776.208 12163476 12212411 12228530 12171313 12021167 11784044 11493156 
779.583 11196784 10945873 10779303 10710389 10727778 10800159 10889675 
782.958 10958752 10980432 10940470 10834196 10663695 10436611 10166737 
786.332 9874658 9588839 9342105 9161393 9063166 9046555 9096391 9186978 
790.189 9293357 9398815 9497085 9591143 9686339 9784843 9882658 9969781 
794.046 10034982 10070825 10076454 10056074 10017621 9969577 9920793 9880624 
797.903 9861202 9873065 9923099 10006567 10106365 10195433 10246080 10245029 
801.760 10202183 10152796 10145233 10227082 10421644 10717759 11071073 
805.135 11421748 11714155 11916569 12032136 12093729 12148211 12233949 
808.510 12371213 12555722 12767093 12978466 13170404 13334308 13470314 
811.885 13581269 13666061 13717662 13728024 13691911 13613543 13505963 
815.259 13388227 13277833 13183657 13105039 13031419 12947367 12838449 
818.634 12696090 12520185 12320625 12114342 11924402 11773014 11675181 
822.009 11633419 11633862 11650403 11649416 11603709 11501254 11350251 
825.384 11174651 11006055 10869119 10771048 10701966 10640095 10565908 
828.759 10470688 10362900 10260431 10181458 10130276 10092800 10039933 
832.133 9943133 9786402 9579422 9353988 9156419 9027948 8988841 9032886 
835.990 9131141 9243735 9332186 9374505 9365398 9314786 9238218 9152628 
839.847 9072707 9010389 8977645 8984715 9037081 9131006 9250470 9370442 
843.704 9461628 9503519 9491260 9439380 9374674 9328293 9322030 9360590 
847.561 9431490 9511242 9577085 9614347 9622477 9612991 9603439 9608419 
851.418 9635283 9682646 9742212 9803889 9859744 9905640 9940591 9965712 
855.275 9980291 9982596 9969306 9936523 9882726 9810023 9725304 9640161 
859.132 9568482 9524619 9518082 9551072 9617023 9702568 9791621 9869879 
862.989 9930828 9975986 10014265 10055803 10108028 10171011 10238651 
866.364 10300873 10350073 10384482 10409155 10433218 10465223 10509011 
869.739 10562309 10618431 10669909 10713378 10750737 10787997 10831445 
873.113 10884034 10943291 11001944 11050475 11080488 11086436 11066280 
876.488 11018969 10944106 10840820 10709167 10552667 10379087 10199979 
879.863 10030066 9883912 9772778 9706295 9689083 9722492 9801991 9917505 
883.720 10052140 10183019 10289099 10353025 10369992 10350005 10316345 
887.095 10297276 10316514 10385976 10500967 10643456 10787794 10912132 
890.470 11002283 11054927 11075151 11071310 11050339 11016897 10973567 
893.844 10922699 10867353 10810009 10749820 10681421 10595819 10485487 
897.219 10349938 10199639 10053937 9937337 9868286 9850898 9873200 9909607 
901.076 9931471 9915098 9852016 9749362 9626373 9503858 9399357 9321590 
904.933 9270948 9242652 9230332 9227895 9229147 9226676 9212597 9179600 
908.790 9125829 9058362 8992021 8944361 8930122 8953629 9006364 9069898 
912.647 9124679 9158990 9174963 9186808 9214594 9274334 9368445 9484249 
916.504 9597952 9686440 9734893 9744043 9727269 9704839 9692607 9696131 
920.361 9709447 9719510 9713784 9686508 9641550 9590804 9547820 9522790 
924.218 9519234 9534306 9562858 9600390 9645751 9700468 9765797 9840221 
928.075 9917675 9988971 10045155 10081338 10098464 10103381 10106061 
931.450 10116201 10139874 10178744 10229932 10288556 10349021 10407356 
934.824 10461015 10508298 10549307 10584309 10615274 10644645 10675240 
938.199 10708929 10744385 10776449 10796524 10793976 10759432 10688790 
941.574 10585361 10460744 10331750 10218670 10138823 10101685 10107892 
944.949 10148693 10210495 10277598 10338807 10388792 10428974 10464816 
948.324 10502595 10544995 10589537 10627599 10648244 10642336 10606242 
951.698 10545232 10473200 10410377 10377085 10389403 10453683 10564515 
955.073 10704650 10849245 10973091 11054859 11083377 11059108 10993889 
958.448 10906084 10815036 10737967 10684104 10655783 10649297 10659280 
961.823 10680674 10711103 10750500 10800023 10859573 10926675 10995928 
965.198 11060060 11111624 11143510 11151738 11134502 11094288 11036676 
968.573 10971460 10910910 10866775 10848566 10858044 10888519 10923651 
971.947 10943460 10929495 10870920 10769452 10638940 10501747 10379155 
975.322 10286827 10229627 10201505 10189870 10180644 10163955 10134515 
978.697 10091003 10033693 9962186 9874353 9769593 9650392 9524077 9402709 
982.554 9299451 9224037 9180006 9163187 9163897 9169820 9171377 9163017 
986.411 9144439 9118791 9091417 9067192 9050242 9043374 9048009 9063132 
990.268 9084616 9105188 9116185 9109383 9081233 9035221 8981535 8933809 
994.125 8904553 8899649 8916728 8945207 8972132 8987928 8990263 8985459 
997.982 8984715 8999024 9032615 9080793 9130363 9165623 9172494 9144135 
1001.839 9082485 8996655 8898262 8798708 8707526 8630998 8574388 8543264 
1005.695 8542757 8577531 8648743 8752895 8880406 9017359 9148196 9258425 
1009.552 9337805 9381784 9391603 9373354 9335910 9289465 9241975 9198721 
1013.409 9160073 9122851 9081774 9032717 8976122 8918792 8872289 8850173 
1017.266 8863430 8916019 9002441 9108774 9218012 9313194 9383680 9426716 
1021.123 9446728 9452485 9452350 9453501 9459867 9472803 9492784 9520013 
1024.980 9554323 9593954 9636096 9676344 9710734 9737774 9759698 9781827 
1028.838 9809549 9846085 9889369 9932353 9965069 9979918 9975748 9960322 
1032.695 9947507 9954898 9995819 10074691 10184375 10308914 10429280 
1036.070 10528632 10599587 10643864 10672049 10696364 10726589 10765138 
1039.446 10806952 10840888 10854444 10838985 10790919 10713174 10611879 
1042.821 10494245 10365309 10228406 10085204 9939642 9799686 9677462 9587112 
1046.678 9541994 9549174 9607978 9709582 9840221 9984020 10126002 10254799 
1050.536 10362289 10443433 10495434 10517803 10511998 10481414 10432132 
1053.911 10370060 10300160 10224233 10141298 10050106 9951405 9851305 
1057.286 9761427 9696808 9669161 9683290 9732420 9800060 9863168 9898894 
1061.144 9891979 9836628 9737096 9605167 9456040 9303783 9161123 9039281 
1065.001 8946830 8890620 8872627 8888827 8928397 8976833 9020844 9051460 
1068.859 9069797 9084785 9110467 9158957 9235443 9335368 9446999 9554153 
1072.716 9642160 9703314 9735503 9741399 9725135 9690031 9638128 9571801 
1076.573 9496712 9421467 9357069 9313871 9297081 9305104 9329782 9358660 
1080.431 9376909 9372169 9335368 9262351 9153983 9018407 8871410 8734334 
1084.288 8634007 8595139 8631167 8740115 8901070 9079541 9233885 9330730 
1088.146 9353345 9307168 9215880 9113850 9032886 8991007 8988638 9009781 
1092.003 9030214 9024632 8976731 8883990 8757493 8617715 8490653 8400887 
1095.860 8364810 8388084 8463218 8572597 8689982 8789578 8852202 8868976 
1099.718 8844864 8795766 8743868 8709352 8704754 8732103 8783019 8842193 
1103.575 8891600 8916560 8908003 8863091 8787009 8690624 8588920 8498390 
1107.433 8434534 8407001 8417271 8456562 8509001 8554247 8573172 8554112 
1111.290 8493423 8396631 8274833 8142605 8014028 7903001 7824220 7792474 
1115.148 7821756 7921188 8090717 8316239 8569961 8816223 9015802 9139127 
1119.005 9174422 9131378 9038029 8933369 8857477 8836748 8880169 8975378 
1122.862 9094902 9202105 9263874 9260964 9191783 9073621 8936852 8818150 
1126.720 8746505 8737242 8786704 8875975 8976495 9060662 9112124 9128705 
1130.577 9122208 9111414 9116218 9148669 9210533 9294746 9389537 9483098 
1134.435 9566720 9636909 9693217 9736622 9768305 9789079 9800466 9805651 
1138.292 9809989 9819547 9839442 9872828 9920183 9980258 10052038 10134583 
1142.150 10227320 10328051 10432029 10531314 10616768 10682338 10727472 
1145.525 10759228 10790206 10834944 10902721 10994807 11101766 11209092 
1148.900 11300053 11363549 11396746 11405931 11402529 11397971 11401304 
1152.275 11415455 11440254 11472947 11511597 11555388 11604356 11657891 
1155.651 11713951 11769712 11822416 11870630 11915139 11958187 12001241 
1159.026 12043753 12082453 12111412 12125689 12122008 12101054 12067053 
1162.401 12026072 11984346 11945995 11913436 11887350 11867464 11852379 
1165.776 11839985 11825922 11803723 11766001 11705883 11619636 11508432 
1169.151 11378651 11240169 11103704 10979140 10873434 10790307 10731310 
1172.527 10696024 10682507 10686515 10701288 10717080 10722548 10707740 
1175.902 10665630 10596158 10505481 10405693 10311051 10234478 10185155 
1179.277 10165753 10173012 10198961 10233868 10267895 10293883 10307590 
1182.652 10307590 10294325 10269082 10233494 10188479 10135295 10075844 
1186.028 10012942 9951134 9895539 9850660 9819344 9801110 9793078 9791214 
1189.885 9792299 9795383 9802567 9817072 9841340 9874421 9911573 9943710 
1193.743 9961339 9957033 9928794 9880725 9821445 9762409 9713681 9682442 
1197.600 9672651 9685594 9720899 9777523 9853270 9943439 10039967 10132718 
1201.457 10209714 10261347 10282110 10272508 10239058 10191532 10141333 
1204.833 10097276 10065399 10048410 10045019 10052886 10067739 10085543 
1208.208 10102296 10115523 10124612 10132208 10142282 10159411 10186614 
1211.583 10222435 10261856 10295885 10316039 10317328 10300601 10271423 
1214.958 10240313 10216668 10206221 10208799 10219450 10230000 10233426 
1218.334 10226167 10209409 10188309 10169688 10158936 10158969 10169010 
1221.709 10184680 10200318 10210156 10209884 10197978 10175725 10147268 
1225.084 10118066 10093071 10075776 10065908 10061500 10059092 10057091 
1228.459 10057599 10065874 10089578 10135125 10203947 10290558 10382141 
1231.835 10463323 10518991 10538850 10521503 10472317 10402638 10324522 
1235.210 10249643 10185529 10137974 10110334 10104805 10121932 10159275 
1238.585 10211919 10270541 10325234 10367277 10392254 10400772 10398396 
1241.960 10392424 10389199 10391406 10397785 10404913 10409052 10408680 
1245.336 10405388 10402978 10406168 10417910 10439768 10471027 10510301 
1248.711 10555824 10605970 10659450 10714397 10768603 10820302 10868406 
1252.086 10913287 10957528 11003541 11052922 11104248 11152893 11192160 
1255.461 11214770 11216470 11196682 11160610 11116179 11073826 11043168 
1258.837 11031749 11043474 11078924 11135012 11205862 11284545 11363821 
1262.212 11438757 11507276 11569203 11626613 11679844 11727260 11763924 
1265.587 11783363 11780367 11754801 11712793 11667557 11634067 11625354 
1268.962 11647816 11699076 11768349 11841040 11904581 11951649 11982234 
1272.338 12002943 12022803 12049067 12084837 12128243 12173937 12214966 
1275.713 12245025 12260635 12260465 12246831 12223964 12199869 12183751 
1279.088 12184433 12208866 12258761 12329351 12410250 12488129 12551083 
1282.463 12591500 12608691 12608521 12600642 12594366 12596787 12611659 
1285.839 12639290 12679202 12730413 12792345 12863091 12939242 13015269 
1289.214 13084959 13143731 13190692 13229803 13267789 13312578 13369672 
1292.589 13439692 13519089 13601748 13681687 13755349 13822557 13886048 
1295.964 13949341 14015075 14084240 14155779 14227911 14297591 14362178 
1299.339 14418143 14462057 14490935 14504159 14504639 14498266 14493368 
1302.715 14497889 14514848 14541880 14571209 14593653 14601603 14593482 
1306.090 14573813 14552056 14537152 14534377 14542531 14555551 14565350 
1309.465 14565453 14553872 14532835 14505563 14473943 14435612 14385227 
1312.840 14316048 14225138 14114497 13992866 13872192 13763556 13674780 
1316.216 13608688 13562673 13530300 13503092 13472468 13430670 13372372 
1319.591 13296588 13206951 13112142 13024590 12957847 12921560 12919512 
1322.966 12946990 12992873 13041901 13081203 13104902 13115761 13123855 
1326.341 13141750 13179524 13239606 13316712 13399470 13476603 13540829 
1329.717 13592175 13638604 13692698 13767524 13872501 14011447 14181899 
1333.092 14376836 14586320 14799986 15008406 15203612 15381225 15540986 
1336.467 15687270 15828174 15973419 16130371 16299799 16473250 16635306 
1339.842 16768562 16861556 16914296 16938032 16949918 16966180 17000360 
1343.218 17059560 17144654 17252070 17375136 17506792 17640728 17773260 
1346.593 17902962 18030564 18158098 18288956 18425934 18570532 18721194 
1349.968 18872670 19016690 19143546 19245326 19318690 19366360 19396156 
1353.343 19420548 19452842 19503784 19581974 19692734 19839522 20026398 
1356.719 20257512 20536686 20865818 21244188 21669072 22138126 22655822 
1360.094 23235900 23905142 24696820 25640180 26740794 27965534 29241194 
1363.469 30477070 31596332 32552424 33332880 33945356 34407852 34743724 
1366.844 34986900 35187812 35409952 35729908 36216708 36915036 37843624 
1370.220 38999204 40374168 41971284 43814592 45941536 48377960 51104828 
1373.595 54013168 56897856 59513740 61642868 63166076 64060532 64347476 
1376.970 64047164 63160092 61682584 59642504 57129348 54296288 51312404 
1380.345 48335556 45472960 42775048 40261132 37933436 35789992 33825172 
1383.721 32020766 30341282 28733680 27140722 25514822 23840240 22147120 
1387.096 20504970 18993844 17668956 16542155 15591230 14781336 14080646 
1390.471 13467580 12928694 12454712 12035679 11662316 11327327 11029268 
1393.846 10772034 10562309 10402231 10283671 10191294 10110537 10032778 
1397.222 9957711 9889674 9831849 9781623 9729404 9665028 9585215 9496509 
1401.079 9413036 9349045 9314751 9311502 9331678 9360895 9385170 9396783 
1404.936 9398307 9399492 9409955 9433081 9464947 9498541 9530445 9563468 
1408.794 9606115 9667298 9750278 9848016 9945134 10024674 10077098 10106908 
1412.651 10130547 10169552 10239058 10344339 10478971 10630825 10788065 
1416.026 10947300 11113051 11294884 11497579 11713406 11918613 12086439 
1419.402 12206140 12293833 12379634 12492221 12645361 12840259 13070719 
1422.777 13330686 13617851 13934971 14286530 14672576 15086752 15519042 
1426.152 15963966 16426792 16927146 17496822 18170570 18973628 19908650 
1429.527 20952772 22066202 23210278 24360322 25508428 26654856 27800256 
1432.903 28941390 30076972 31217772 32393530 33658900 35082976 36717800 
1436.278 38541644 40439548 42252652 43869280 45274408 46527216 47711008 
1439.653 48906380 50170240 51532508 52994848 54539504 56138280 57760564 
1443.028 59383872 60990208 62565452 64100964 65593140 67049852 68491728 
1446.404 69950312 71455136 73019088 74632048 76263704 77886168 79496736 
1449.779 81119040 82795184 84562264 86432784 88379296 90339456 92243232 
1453.154 94029304 95674344 97190584 98606800 99945528 101194512 102287272 
1456.529 103113184 103596440 103776320 103776952 103716240 103634592 
1459.422 103519056 103343816 103096336 102779176 102399128 101952064 
1462.316 101409320 100711000 99775184 98519448 96901192 94947448 92733736 
1465.691 90329136 87754560 84975416 81951720 78674816 75190104 71568024 
1469.066 67890832 64211512 60508396 56703904 52688592 48408520 43970680 
1472.441 39688048 35944588 32956562 30683766 28915924 27413732 26018938 
1475.817 24663956 23359308 22150608 21079534 20154938 19354442 18640634 
1479.192 17978690 17345928 16733162 16140619 15571998 15030460 14518445 
1482.567 14039543 13600824 13209854 12873330 12590204 12349805 12132434 
1485.942 11916603 11686651 11439505 11185938 10944004 10727540 10537866 
1489.318 10361508 10181627 9993006 9805786 9637891 9501725 9398104 9317189 
1493.175 9244547 9165590 9069763 8952817 8816865 8668821 8516164 8364236 
1497.032 8214758 8069889 7935529 7820879 7733478 7673916 7633246 7595681 
1500.890 7546219 7475693 7385598 7284469 7186193 7104072 7045640 7012033 
1504.747 6995803 6981762 6945062 6860866 6718165 6534976 6344097 6165738 
1508.605 6002838 5854372 5723180 5615859 5537894 5491081 5469036 5459708 
1512.462 5448669 5427095 5393244 5352452 5311160 5273293 5234725 5184390 
1516.319 5108246 5000976 4873158 4746617 4641981 4570017 4529837 4510352 
1520.177 4493444 4458294 4393489 4304331 4211010 4131557 4071685 4026735 
1524.034 3988980 3952733 3916823 3883056 3853670 3827229 3797981 3758908 
1527.892 3706974 3645622 3584380 3534437 3506311 3504574 3529059 3574157 
1531.749 3631455 3691100 3742498 3777759 3794003 3794872 3786683 3776088 
1535.607 3768100 3766395 3773982 3793100 3823384 3858150 3882688 3875166 
1539.464 3818638 3720909 3621298 3563500 3562331 3602655 3655212 3694442 
1543.321 3702095 3672588 3611509 3532399 3449831 3374124 3309714 3256398 
1547.179 3213135 3180824 3161566 3157995 3169810 3191639 3214069 3229124 
1551.036 3234833 3236168 3242210 3262307 3302536 3363238 3438376 3520374 
1554.894 3605461 3698218 3811719 3962229 4162601 4411129 4667736 4824340 
1558.751 4748359 4428802 4026535 3691668 3465061 3321367 3224685 3148683 
1562.609 3079835 3016437 2965792 2940038 2948912 2993950 3065820 3149083 
1566.466 3228891 3296960 3351451 3394427 3429692 3459350 3482763 3497493 
1570.323 3503706 3504808 3506278 3513526 3529527 3555516 3591630 3637002 
1574.181 3690098 3747846 3804064 3847887 3867009 3855609 3819106 3771241 
1578.038 3727125 3697182 3685954 3692036 3709446 3728696 3739724 3735982 
1581.896 3717768 3692771 3672955 3670182 3691668 3737385 3799986 3867911 
1585.753 3930331 3979182 4011887 4029478 4035163 4032186 4022387 4007707 
1589.610 3989816 3971157 3955274 3945711 3945611 3956243 3976909 4005299 
1593.468 4036835 4067571 4093124 4111387 4122793 4131658 4144570 4169224 
1597.325 4211746 4274850 4356037 4448151 4542025 4627949 4699420 4755159 
1601.183 4798241 4833419 4864278 4890850 4911292 4922451 4924663 4921647 
1605.040 4920406 4927176 4944133 4966823 4984318 4983782 4954623 4894670 
1608.898 4811642 4720556 4636891 4572729 4532750 4514470 4511055 4514168 
1612.755 4517784 4518119 4512226 4497060 4467064 4414810 4333312 4222988 
1616.612 4095398 3971692 3870385 3799251 3754864 3729064 3713557 3702730 
1620.470 3693607 3686355 3683281 3687692 3702663 3728495 3761482 3794805 
1624.327 3820877 3834649 3832209 3813323 3779330 3735213 3688895 3648763 
1628.185 3622100 3609972 3607132 3604927 3595839 3575928 3546797 3514361 
1632.042 3487272 3474513 3483130 3517134 3576195 3653508 3733709 3796577 
1635.900 3825323 3816265 3778996 3726557 3668043 3608401 3550171 3495656 
1639.757 3446190 3402508 3363705 3327477 3291585 3255162 3220712 3193608 
1643.614 3181892 3193541 3234365 3304339 3391889 3472643 3516165 3501501 
1647.472 3433934 3339664 3246984 3171979 3120215 3091448 3084274 3098690 
1651.329 3136935 3202153 3289615 3376127 3422145 3406749 3347911 3274392 
1655.187 3202754 3137402 3077800 3023511 2974833 2935235 2908415 2897974 
1659.044 2905479 2928163 2960388 2993716 3020174 3033821 3034388 3027214 
1662.901 3021208 3024145 3038626 3062483 3091915 3124520 3159964 3200784 
1666.759 3249955 3309113 3376661 3444387 3498629 3525184 3516766 3478688 
1670.616 3424917 3371118 3327410 3297294 3279767 3271154 3266947 3261405 
1674.474 3248553 3223316 3184229 3134932 3082572 3034421 2995518 2968595 
1678.331 2954349 2951414 2955784 2961756 2963323 2956518 2940705 2918656 
1682.189 2895606 2877628 2870857 2877628 2892537 2903912 2903945 2893171 
1686.046 2876227 2857649 2840806 2828200 2821029 2819962 2823997 2830801 
1689.903 2836971 2839506 2837771 2834203 2834269 2844742 2873258 2925827 
1693.761 3005160 3107133 3217541 3309915 3356226 3346008 3296460 3239005 
1697.618 3199983 3195744 3230193 3297361 3377930 3443853 3473644 3470238 
1701.476 3453171 3442149 3446758 3467766 3500666 3537878 3569146 3582476 
1705.333 3568779 3525451 3457847 3376895 3295124 3223850 3171011 3142909 
1709.191 3142108 3167073 3212434 3269651 3329747 3385511 3433032 3472576 
1713.048 3507113 3542053 3583211 3636233 3704367 3786482 3874230 3950760 
1716.905 3989849 3966576 3872959 3725855 3559224 3404879 3281903 3194476 
1720.763 3139204 3107366 3088745 3072094 3048169 3011900 2963557 2907914 
1724.620 2851846 2801553 2760870 2730593 2710221 2698685 2695585 2700986 
1728.478 2715156 2737962 2768339 2803921 2842073 2880563 2918555 2955350 
1732.335 2989512 3016704 3029216 3019774 2988712 2947277 2908882 2881897 
1736.193 2867088 2860284 2854714 2842174 2812825 2757969 2674147 2565977 
1740.050 2446504 2330628 2232001 2159736 2118314 2108991 2129502 2173855 
1743.907 2232235 2294386 2350982 2395859 2427311 2446770 2458500 2467697 
1747.765 2479460 2497288 2520983 2546046 2564044 2565044 2540513 2488857 
1751.622 2416549 2337424 2265807 2213984 2189140 2192903 2222377 2270870 
1755.480 2327463 2378301 2410785 2418182 2402622 2372770 2338423 2306777 
1759.337 2279663 2254982 2228404 2195867 2155440 2109324 2062580 2021233 
1763.194 1989377 1968541 1958156 1957624 1966344 1983220 2007419 2037146 
1767.052 2069271 2100434 2127903 2151212 2171724 2191605 2211686 2229870 
1770.909 2240128 2234000 2203527 2148048 2075231 1998132 1927969 1870828 
1774.767 1828934 1802549 1791736 1796128 1814594 1844440 1881144 1918850 
1778.624 1950068 1966976 1963648 1937687 1892292 1835057 1776165 1723968 
1782.482 1683319 1656045 1641011 1634658 1631765 1627142 1616067 1596545 
1786.339 1569742 1539149 1509024 1483223 1463408 1450044 1441699 1437910 
1790.196 1440104 1453036 1484853 1540812 1619093 1707169 1785947 1837419 
1794.054 1851295 1826173 1768047 1687643 1598574 1514012 1443628 1392135 
1797.911 1360026 1344438 1341679 1347695 1359594 1373754 1385952 1392235 
1801.769 1389044 1375482 1353379 1326656 1299703 1276407 1258729 1246301 
1805.626 1237694 1229985 1220017 1204533 1179714 1142804 1091513 1026777 
1809.484 953151 880302 819913 783464 776726 797340 835316 877944 914799 
1813.823 940334 955243 964309 973209 984799 997817 1006684 1005854 992869 
1818.163 972013 952520 946012 960457 996721 1047104 1098788 1137954 1154332 
1822.502 1144232 1111145 1063910 1012762 967098 931899 907096 889631 876085 
1826.842 865727 859784 862041 877015 909520 961885 1031958 1112607 1193403 
1831.182 1263481 1314492 1340649 1338954 1308976 1254375 1183734 1108986 
1835.039 1043151 997119 974969 974703 988750 1008411 1027242 1043483 1060356 
1839.379 1083807 1118653 1165827 1221213 1275909 1318348 1337059 1325892 
1843.236 1288271 1239555 1200281 1188951 1211411 1259559 1317417 1369300 
1847.093 1404002 1416268 1406861 1379205 1338156 1287308 1227992 1161375 
1850.951 1090417 1022127 966600 935021 935220 966434 1018507 1074141 1115663 
1855.290 1131177 1117556 1081448 1036143 996289 971515 965471 975467 995725 
1859.630 1021198 1048764 1076632 1101777 1119217 1121808 1102276 1058363 
1863.487 993035 916061 839134 773705 725080 691759 667633 647955 634118 
1867.827 637303 673441 753790 874226 1014123 1143668 1237129 1281359 1276441 
1872.167 1234704 1175428 1119118 1080485 1065471 1070952 1087660 1104833 
1876.024 1113603 1109252 1090915 1059260 1016349 965206 910350 859784 824096 
1880.364 812709 831399 879173 947639 1022360 1086431 1126160 1132306 1103173 
1884.703 1043915 964110 874458 785788 708917 654359 632857 653264 719206 
1889.043 824992 955310 1088690 1203537 1286443 1335131 1357367 1365809 
1892.900 1373953 1391936 1423349 1464439 1505932 1536921 1548992 1539881 
1896.758 1513480 1478868 1446021 1423615 1417332 1428003 1452670 1484753 
1900.615 1517935 1545899 1565485 1575728 1577956 1574464 1567015 1555775 
1904.473 1538617 1511318 1468229 1404468 1317716 1210913 1092443 978356 
1908.330 889166 844745 860381 939238 1069856 1226563 1379570 1501510 1575794 
1912.670 1599638 1583310 1545766 1506231 1480564 1475477 1489142 1514810 
1916.527 1545201 1576226 1607919 1642907 1681989 1721606 1755073 1773570 
1920.384 1770243 1742697 1692965 1628173 1558402 1494494 1444991 1415205 
1924.242 1408157 1425277 1467232 1531601 1611311 1694994 1767914 1818021 
1928.099 1839249 1834757 1815026 1793699 1779958 1773936 1766085 1742531 
1931.957 1691968 1613107 1516472 1422219 1352016 1317616 1317218 1336328 
1935.814 1355340 1358796 1343673 1320940 1311169 1331609 1388711 1470324 
1939.672 1549424 1589628 1556839 1433688 1228822 978323 733311 545330 444024 
1944.011 432316 489831 587001 694215 792427 877480 956804 1043649 1148784 
1948.351 1274513 1412146 1546864 1662264 1749351 1809270 1852926 1896053 
1952.208 1952232 2026560 2113486 2198032 2261577 2288623 2270836 2207923 
1956.066 2107693 1981955 1841013 1693364 1543705 1394429 1248029 1108321 
1959.923 981378 875853 802385 772876 800560 894744 1057301 1276640 1527378 
1964.263 1772339 1973301 2107060 2172224 2195301 2217681 2282428 2409652 
1968.120 2586042 2767206 2901377 2949479 2901210 2777876 2623442 2485358 
1971.977 2389561 2329862 2271036 2167828 1990010 1742863 1470922 1249856 
1975.835 1150212 1211777 1423416 1730588 2053092 2315804 2475161 2526715 
1979.692 2501287 2446904 2414283 2437674 2531748 2690184 2889602 3093517 
1983.550 3259703 3353821 3354189 3259369 3087644 2875426 2664813 2491090 
1987.407 2370505 2293120 2228937 2139624 1999463 1806542 1587965 1390041 
1991.265 1264278 1243044 1327055 1484919 1669748 1842111 1981522 2095007 
1995.122 2209455 2358611 2564544 2829767 3131128 3431229 3684751 3857381 
1998.979 3939057 3944140 3904519 3856880 3830972 3836956 3863164 3877740 
2002.837 3843274 3723215 3495990 3160531 2738796 2272435 1813396 1417532 
2006.694 1128585 970884 948934 1049329 1245802 1501144 1775134 2023064 
2010.552 2206291 2300914 2301314 2228138 2119379 2031886 2019502 2119046 
2014.409 2341322 2662846 3033687 3386646 3658754 3802192 3800421 3669747 
2018.266 3454306 3207527 2975901 2795717 2687183 2657879 2709521 2838738 
2022.124 3041428 3310549 3635899 4001152 4382075 4750737 5078040 5340040 
2025.981 5522792 5621062 5633716 5558600 5389923 5123836 4765209 4337060 
2029.839 3880181 3450933 3108167 2894305 2825098 2878962 3002191 3120882 
2033.696 3170844 3114308 2948044 2698652 2407853 2115950 1844773 1601334 
2037.554 1381133 1182173 1013858 896305 852314 894180 1014389 1182771 
2041.411 1359262 1513280 1634592 1740036 1860512 2026227 2247755 2506753 
2045.268 2756368 2941172 3013067 2944675 2739029 2425479 2051294 1663428 
2049.126 1302196 994994 756379 594599 511592 504792 563611 671781 810485 
2053.465 961486 1115231 1269927 1428734 1592189 1750748 1881743 1954761 
2057.323 1938919 1816024 1590393 1292791 972379 687412 490461 413378 466147 
2061.662 636971 900588 1223140 1566882 1895554 2172690 2367206 2456800 
2065.520 2431476 2297384 2078627 1813196 1542774 1307713 1136492 1040561 
2069.377 1014223 1038169 1086099 1130080 1151076 1141242 1105066 1055341 
2073.235 1006584 971382 954181 952454 959394 968692 978655 993765 1020666 
2077.574 1065206 1125895 1193071 1250089 1281359 1277604 1241250 1185263 
2081.432 1130944 1098389 1100017 1137522 1201776 1277770 1348194 1398384 
2085.289 1417365 1398451 1339685 1245802 1130379 1015186 929907 903809 
2089.146 955177 1083475 1264544 1457125 1611478 1690005 1676600 1581248 
2093.004 1434585 1275012 1136857 1035213 969357 926919 896504 875222 871968 
2097.344 899858 968128 1073643 1198985 1318082 1408490 1458588 1474479 
2101.201 1474745 1484919 1523920 1598009 1696458 1797126 1872692 1897750 
2105.058 1857251 1749983 1588497 1397154 1209252 1059758 975832 972677 
2108.916 1044679 1168053 1303525 1411614 1464572 1455064 1398684 1327554 
2112.773 1278302 1274912 1322569 1404866 1492699 1553547 1564554 1518633 
2116.631 1424612 1300867 1168983 1049761 957468 902447 890428 922502 994164 
2120.970 1093606 1204733 1309241 1395027 1459253 1510753 1564388 1632863 
2124.828 1717648 1805044 1866236 1867401 1783485 1606589 1353312 1060157 
2128.685 776560 549577 412416 381341 453775 610824 821340 1050159 1259094 
2133.025 1414041 1494129 1495159 1433355 1341347 1262749 1233109 1271057 
2136.882 1369798 1502840 1631798 1720774 1748985 1712891 1623484 1497553 
2140.740 1352381 1200347 1052219 924262 839267 825689 910084 1104069 1396789 
2145.079 1753110 2124640 2457000 2706387 2850978 2892304 2854080 2770974 
2148.937 2685149 2633676 2646077 2740330 2918189 3163168 3441047 3713189 
2152.794 3938689 4091552 4167184 4179729 4155475 4117475 4076501 4025565 
2156.651 3948386 3835418 3697416 3570683 3501601 3518203 3609371 3719372 
2160.509 3772779 3698786 3468167 3104063 2680448 2290855 2024662 1939318 
2164.366 2046334 2320401 2710421 3161232 3619594 4041751 4392083 4636020 
2168.224 4741726 4683478 4450761 4055631 3537276 2958786 2387796 1891494 
2172.081 1523056 1312166 1270359 1387382 1634559 1964380 2321700 2649278 
2175.938 2896740 3036190 3064752 3006161 2900409 2795851 2732527 2733194 
2179.796 2800519 2922492 3080336 3254795 3431162 3600049 3751790 3876002 
2183.653 3958284 3982927 3938455 3821880 3640610 3414029 3168475 2934434 
2187.511 2740463 2612009 2563211 2595009 2690284 2816127 2927962 2980238 
2191.368 2942106 2804288 2585942 2327597 2082189 1894023 1784915 1750748 
2195.226 1763157 1782986 1774701 1720276 1623916 1511219 1415736 1370430 
2199.083 1396889 1498451 1662597 1865737 2079726 2278897 2447737 2580709 
2202.940 2682749 2765705 2843174 2925927 3016804 3109302 3189936 3241576 
2206.798 3248853 3203522 3108835 2978003 2831501 2691417 2575909 2493956 
2210.655 2446804 2426911 2423579 2423246 2414883 2390694 2345186 2276266 
2214.513 2183646 2068373 1932096 1779093 1615834 1453269 1305951 1191808 
2218.370 1126825 1122805 1181708 1293090 1436480 1587034 1721939 1826905 
2222.228 1898582 1943678 1973600 1998465 2023198 2048398 2071369 2090546 
2226.085 2107859 2127603 2153409 2184911 2216582 2240494 2252318 2255549 
2229.942 2264641 2298283 2371704 2487091 2626776 2755001 2830501 2819895 
2233.800 2708688 2509385 2257047 1996834 1767582 1592854 1475710 1404501 
2237.657 1360923 1330877 1308444 1295017 1294984 1309541 1335896 1366973 
2241.515 1396323 1420557 1440303 1458887 1478469 1497686 1513180 1522889 
2245.372 1530737 1549424 1596113 1687743 1831896 2020734 2230736 2427511 
2249.229 2578176 2657745 2658445 2588909 2470996 2330262 2188741 2061714 
2253.087 1955726 1870629 1802715 1747022 1698653 1653616 1610413 1570872 
2256.944 1541410 1530703 1548127 1598640 1678729 1775766 1871261 1946041 
2260.802 1987613 1995402 1981522 1966710 1971436 2010515 2086118 2189107 
2264.659 2300848 2401423 2474328 2508686 2500621 2451902 2367073 2253650 
2268.517 2122742 1988878 1869131 1782287 1742032 1754940 1817422 1917352 
2272.374 2036846 2155973 2259179 2335525 2379533 2390195 2368473 2317503 
2276.231 2241627 2148415 2048564 1953729 1876053 1823977 1800519 1803680 
2280.089 1828169 1866369 1912427 1963348 2017605 2073932 2129701 2178417 
2283.946 2210920 2217115 2188841 2123342 2025128 1906969 1785980 1682388 
2287.804 1613373 1589429 1611644 1671079 1751713 1833892 1899780 1938386 
2291.661 1946673 1930132 1899847 1868099 1844141 1832262 1831131 1835689 
2295.519 1840647 1842344 1840148 1836488 1834658 1836587 1842943 1852060 
2299.376 1861444 1869763 1876985 1884705 1895521 1910563 1929833 1951266 
2303.233 1971370 1987147 1997166 2001161 2000994 1998664 1996001 1993671 
2307.091 1992207 1991142 1990842 1991974 1995402 2001294 2008784 2015508 
2310.948 2018337 2015008 2004290 1987680 1969140 1953829 1946340 1949868 
2314.806 1963914 1985583 2009349 2028823 2039476 2039276 2030055 2017405 
2318.663 2009216 2013011 2034316 2073766 2127037 2185877 2240028 2280796 
2322.521 2303180 2306711 2295352 2275799 2254050 2234966 2221111 2212818 
2326.378 2210054 2212685 2220978 2235698 2256714 2283427 2313539 2344786 
2330.235 2375036 2403355 2430277 2456234 2480259 2499388 2506653 2494222 
2334.093 2454801 2384031 2283127 2159470 2026626 1900912 1798723 1735245 
2337.950 1718945 1752877 1833027 1949735 2087949 2229937 2358445 2458166 
2341.808 2519383 2539180 2520883 2471662 2401089 2318236 2230802 2145817 
2345.665 2070836 2012878 1979458 1976030 2004922 2064711 2150446 2253783 
2349.522 2363409 2468596 2558811 2627576 2673881 2703020 2724958 2748866 
2353.380 2781411 2822330 2865454 2900609 2918289 2911951 2880963 2829567 
2357.237 2766872 2704220 2653445 2626142 2630843 2671114 2743797 2839172 
2361.095 2942707 3037024 3107333 3144277 3145913 3116877 3066321 3004192 
2364.952 2937836 2870857 2803821 2735462 2665346 2594209 2525449 2463231 
2368.810 2412284 2376535 2358878 2360044 2378567 2410085 2447970 2483692 
2372.667 2507519 2512718 2494756 2455034 2398857 2335059 2272769 2219546 
2376.524 2179550 2152577 2134862 2120678 2104063 2080325 2046866 2003857 
2380.382 1953729 1900379 1848167 1801617 1763723 1735844 1717781 1707834 
2384.239 1704009 1704841 1709897 1719710 1735079 1755073 1776698 1794963 
2388.097 1803048 1795263 1768879 1725631 1672575 1619060 1575894 1550787 
2391.954 1546564 1560763 1587001 1617431 1645069 1665856 1679361 1687510 
2395.812 1693132 1698653 1705672 1714521 1725798 1740468 1760129 1786479 
2399.669 1820450 1860546 1902576 1940549 1967243 1976762 1965878 1935391 
2403.526 1889930 1836188 1782453 1735811 1700683 1678895 1669682 1670813 
2407.384 1679760 1694762 1714687 1738705 1765286 1791902 1814960 1830731 
2411.241 1836554 1832229 1820250 1805710 1793932 1789706 1794897 1808039 
2415.099 1825274 1841346 1852393 1856054 1853092 1845705 1837053 1830099 
2418.956 1826206 1825773 1827969 1831596 1835756 1838950 1840880 1841346 
2422.813 1840580 1839882 1840913 1845073 1852892 1863574 1874056 1880612 
2426.671 1879980 1870895 1855554 1838617 1826605 1825308 1836953 1860379 
2430.528 1890629 1921679 1947938 1966444 1977328 1982421 1983053 1978959 
2434.386 1967409 1944943 1908699 1859448 1802316 1746556 1702778 1680492 
2438.243 1684816 1716084 1768879 1834658 1904406 1970138 2026793 2072035 
2442.101 2106228 2130733 2146983 2156373 2159370 2156573 2148215 2134829 
2445.958 2117182 2096339 2073433 2049796 2026959 2006620 1990709 1981389 
2449.815 1980190 1988013 2004490 2027292 2052626 2075763 2091844 2097371 
2453.673 2090746 2073500 2049496 2023697 2002326 1990409 1990909 2004789 
2457.530 2030754 2065243 2102898 2138192 2165031 2179150 2178750 2164898 
2461.388 2142354 2117115 2095440 2081190 2074199 2069704 2061082 2041407 
2465.245 2007386 1959987 1905837 1854323 1813529 1789507 1782420 1788642 
2469.103 1801518 1814594 1823677 1827104 1825208 1818653 1807839 1792069 
2472.960 1771374 1747554 1724999 1710795 1712259 1734081 1776598 1834225 
2476.817 1897151 1953363 1992806 2010248 2006121 1986315 1960220 1937521 
2480.675 1924541 1923576 1931996 1943279 1949702 1944876 1925872 1894223 
2484.532 1855488 1817488 1787178 1768114 1759331 1755871 1751812 1743096 
2488.390 1730721 1721240 1725299 1752877 1808904 1889830 1983952 2073766 
2492.247 2140823 2173822 2169593 2135928 2086317 2037578 2002093 1985483 
2496.104 1985017 1992540 1996933 1988678 1962583 1919149 1863940 1805943 
2499.962 1755405 1721573 1709963 1721606 1752345 1793932 1835523 1867035 
2503.819 1881943 1878915 1862043 1839815 1821914 1816324 1827371 1855321 
2507.677 1897085 1947772 2002892 2058285 2110689 2156473 2191638 2211853 
2511.534 2213584 2196001 2161501 2115650 2066575 2021899 1987280 1964846 
2515.392 1953696 1950701 1952398 1956292 1961784 1969639 1981422 1997998 
2519.249 2019403 2043970 2068905 2090779 2106261 2112853 2110123 2099802 
2523.106 2085984 2074898 2072867 2085219 2113919 2156539 2206324 2253917 
2526.964 2289623 2306011 2301048 2277864 2243858 2208955 2182680 2170758 
2530.821 2174388 2189706 2209288 2224008 2225407 2208555 2172423 2121211 
2534.679 2062746 2008018 1967742 1950501 1961451 1999763 2059484 2130567 
2538.536 2201695 2261144 2300948 2318103 2314972 2299116 2280563 2269971 
2542.394 2274833 2297850 2335825 2381099 2423446 2453901 2467697 2465264 
2546.251 2453002 2439273 2432742 2438440 2456134 2481293 2506619 2525449 
2550.108 2533814 2531981 2524216 2516451 2513918 2520317 2536280 2559844 
2553.966 2587475 2614875 2637843 2652011 2653911 2640610 2610975 2566343 
2557.823 2511485 2454601 2405221 2373703 2368173 2391827 2443072 2515317 
2561.681 2598142 2679048 2746899 2793050 2813659 2809657 2787014 2755435 
2565.538 2724859 2704920 2701286 2714756 2741563 2774642 2805889 2828300 
2569.396 2838972 2839105 2834203 2831901 2840573 2866321 2911150 2972398 
2573.253 3042563 3111604 3168074 3203021 3212434 3197881 3166272 3128024 
2577.110 3093450 3068924 3056243 3052006 3050504 3046600 3039360 3032686 
2580.968 3034955 3054275 3096020 3158996 3235734 3314021 3380802 3427388 
2584.825 3450232 3452803 3442183 3427655 3416467 3413061 3418471 3431963 
2588.683 3451601 3475248 3501267 3527890 3552777 3574024 3590327 3601719 
2592.540 3609872 3617456 3626778 3638873 3652439 3664201 3669948 3665972 
2596.397 3650868 3625842 3594670 3561562 3531998 3509251 3495422 3491280 
2600.255 3495656 3507580 3524950 3546697 3571050 3597577 3625542 3654043 
2604.112 3681643 3706005 3723984 3731737 3726657 3708310 3678502 3643317 
2607.970 3610172 3587320 3581707 3597443 3635097 3691334 3760546 3834750 
2611.827 3905422 3964637 4006168 4026267 4024327 4004028 3971859 3934610 
2615.685 3899571 3871188 3850495 3835752 3824187 3814159 3805969 3802259 
2619.542 3806638 3821613 3847152 3880214 3915486 3948352 3975638 3996838 
2623.399 4013592 4028006 4040949 4051350 4056935 4056199 4049878 4041383 
2627.257 4035966 4038407 4050380 4069578 4089645 4102556 4102757 4087572 
2631.114 4059711 4024963 3990151 3960055 3936550 3918562 3903583 3889876 
2634.972 3877205 3867711 3864468 3870151 3886031 3911841 3945945 3986205 
2638.829 4030414 4076267 4120820 4160192 4190301 4207363 4209338 4196791 
2642.687 4173540 4145272 4117876 4096268 4082755 4077069 4077270 4081384 
2646.544 4088107 4097573 4111320 4131223 4158754 4194684 4238178 4287165 
2650.401 4338332 4387397 4430275 4463114 4483669 4492172 4491670 4487385 
2654.259 4485242 4490197 4504459 4527025 4553877 4579661 4599987 4612611 
2658.116 4618539 4621051 4624634 4633006 4648110 4670013 4697277 4728260 
2661.974 4760820 4793952 4826484 4857141 4884416 4906533 4922317 4931801 
2665.831 4936358 4938671 4941787 4948255 4959449 4975000 4993233 5011735 
2669.688 5027389 5037814 5041065 5036238 5023367 5003758 4980162 4955360 
2673.546 4933108 4915983 4905427 4901238 4901808 4905092 4908745 4911559 
2677.403 4912934 4912766 4910990 4907170 4900468 4890415 4876944 4861196 
2681.261 4845146 4831308 4821559 4816667 4815863 4817639 4820252 4822296 
2685.118 4823301 4823602 4823703 4823804 4823301 4821391 4816902 4809129 
2688.976 4798073 4783667 4766448 4746115 4722599 4695870 4666932 4638599 
2692.833 4615223 4601862 4603034 4621084 4654942 4699689 4747890 4791641 
2696.690 4823535 4839651 4839550 4826484 4805175 4781222 4758509 4738779 
2700.548 4721327 4704177 4685051 4662980 4638699 4614989 4596035 4585755 
2704.405 4586893 4600489 4625505 4658626 4696306 4735060 4772143 4806348 
2708.263 4837272 4865719 4893230 4921378 4952076 4986731 5025746 5068352 
2712.120 5112604 5155151 5192405 5222015 5243209 5257865 5270207 5285467 
2715.978 5308241 5340845 5382811 5430484 5478666 5522054 5557023 5583000 
2719.835 5601628 5616698 5632776 5653420 5680511 5714183 5752760 5793623 
2723.692 5833282 5868814 5897496 5917380 5927524 5928330 5921511 5909520 
2727.550 5895884 5883591 5875094 5870829 5869385 5867235 5859242 5839730 
2731.407 5804235 5750141 5678194 5592297 5499638 5407972 5325381 5257060 
2735.265 5205013 5167457 5140399 5118975 5098893 5078342 5057759 5038819 
2739.122 5023031 5010763 5000306 4988340 4971112 4946245 4913503 4875604 
2742.979 4836535 4801323 4773751 4755762 4747052 4745846 4749866 4756968 
2746.837 4766180 4776599 4788123 4800050 4811273 4820487 4826484 4829131 
2750.694 4829231 4828628 4829834 4834759 4844275 4857677 4873057 4888069 
2754.552 4900300 4908912 4914508 4918865 4924696 4934213 4948825 4968130 
2758.409 4990652 5013746 5035668 5054842 5071670 5087058 5102748 5119981 
2762.267 5139359 5160650 5183049 5205348 5227146 5248475 5269637 5291303 
2766.124 5313809 5336719 5359093 5379758 5398175 5414414 5429981 5447059 
2769.981 5468130 5495444 5529873 5571152 5617604 5666478 5715526 5762698 
2773.839 5807492 5850880 5894507 5940724 5991180 6046681 6106727 6170140 
2777.696 6235412 6301265 6367062 6432632 6498414 6564778 6631321 6698008 
2781.554 6764201 6829562 6893990 6958058 7022236 7086997 7152710 7219780 
2785.411 7289085 7361703 7439896 7525687 7620465 7723966 7833935 7946700 
2789.269 8057535 8162423 8259062 8347516 8429568 8508393 8586791 8666725 
2793.126 8749109 8833705 8920685 9010762 9104985 9205219 9312958 9429154 
2796.983 9553612 9685255 9822495 9963542 10106603 10249982 10391949 10531178 
2800.841 10666819 10799037 10929393 11060604 11195900 11338040 11488801 
2804.216 11648021 11813971 11984346 12157070 12331431 12508044 12689165 
2807.591 12877187 13074134 13280668 13495641 13716567 13939762 14161598 
2810.967 14379233 14591906 14800946 15010841 15227804 15458678 15709909 
2814.342 15984936 16283631 16602395 16935656 17277448 17624096 17975512 
2817.717 18334574 18706078 19094342 19501670 19926966 20366986 20817602 
2821.092 21276758 21744902 22226382 22727706 23256280 23818328 24417588 
2824.468 25055904 25733126 26449188 27204918 28002394 28845028 29737698 
2827.843 30685400 31693872 32769434 33918452 35148072 36466116 37880396 
2831.218 39399380 41031180 42784120 44666468 46686236 48851272 51169312 
2834.593 53647552 56292864 59111920 62109500 65288276 68647240 72180296 
2837.969 75876080 79719088 83690976 87772728 91948272 96204008 100529960 
2841.344 104920064 109369456 113874760 118433040 123040208 127691776 
2844.237 132380008 137092912 141814176 146520784 151183344 155768464 
2847.130 160237376 164545840 168647312 172485712 176000928 179128976 
2850.023 181802544 183961456 185556608 186554736 186942816 186728480 
2852.916 185937808 184609168 182793216 180546288 177925632 174993568 
2855.809 171812432 168443168 164950048 161393200 157829024 154310816 
2858.702 150881168 147576816 144426800 141451808 138668144 136087472 
2861.595 133716896 131561088 129621608 127896648 126381664 125068992 
2864.488 123947264 123000096 122208168 121546984 120988320 120503296 
2867.381 120059888 119626440 119173024 118668216 118083176 117390944 
2870.274 116566624 115592024 114455440 113155616 111701432 110113648 
2873.167 108423104 106666088 104885520 103123976 101420784 99813336 98331632 
2876.543 96999152 95834080 94848472 94049632 93442288 93027584 92804792 
2879.918 92770080 92917664 93238128 93720672 94354008 95127296 96032304 
2883.293 97063664 98217712 99491816 100882384 102383096 103985872 105678936 
2886.668 107449832 109286432 111177400 113113696 115088336 117095288 
2889.562 119129776 121186328 123258560 125340056 127423064 129500480 
2892.455 131565664 133613496 135640480 137644960 139627136 141588400 
2895.348 143530864 145456800 147368432 149267824 151156912 153038160 
2898.241 154914736 156791440 158673696 160567952 162480080 164414400 
2901.134 166374208 168360608 170374864 172418576 174494784 176608768 
2904.027 178767200 180977072 183244832 185575600 187973200 190440960 
2906.920 192982704 195602672 198305552 201094640 203971056 206933312 
2909.813 209977872 213101360 216301952 219580240 222938736 226378928 
2912.706 229898016 233485216 237121488 240781120 244432304 248043104 
2915.599 251582032 255015136 258308080 261420016 264303232 266907936 
2918.492 269181472 271075392 272550688 273574496 274121920 274174496 
2921.385 273717664 272743424 271252736 269258048 266783392 263864432 
2924.278 260544448 256868784 252885552 248642368 244184608 239560160 
2927.171 234814032 229988016 225120496 220241856 215375904 210540432 
2930.064 205747200 201004048 196316048 191685184 187113248 182603120 
2932.958 178160640 173797376 169529280 165374992 161354192 157481696 
2935.851 153767712 150217024 146830944 143611232 140562288 137691680 
2938.744 135009792 132526640 130248520 128178224 126313536 124649680 
2941.637 123181424 121905576 120821072 119928288 119227432 118716984 
2944.530 118390656 118239376 118248904 118402624 118682632 119068360 
2947.423 119539816 120075840 120653800 121251728 121846000 122411000 
2950.316 122920752 123345624 123655128 123820600 123815704 123622968 
2953.209 123234664 122653784 121891096 120961432 119879552 118655544 
2956.102 117295392 115802032 114178840 112432808 110575656 108622192 
2958.995 106588280 104487296 102326776 100109640 97834112 95497160 93096512 
2962.370 90633128 88112024 85541408 82932528 80298320 77653336 75011272 
2965.746 72386256 69791056 67237000 64734632 62292652 59918592 57618924 
2969.121 55398328 53259400 51202380 49224968 47322316 45488304 43717036 
2972.496 42004096 40347732 38749320 37212964 35743904 34346776 33023696 
2975.871 31773650 30592244 29473046 28409074 27394250 26424750 25498412 
2979.247 24614968 23773806 22973782 22212712 21488172 20797546 20139388 
2982.622 19513348 18919426 18357560 17826144 17322272 16842266 16382782 
2985.997 15941693 15519146 15116702 14736910 14381699 14051419 13744233 
2989.372 13456951 13185022 12924632 12672380 12425967 12184569 11947935 
2992.748 11716913 11492917 11278050 11074914 10885325 10710525 10550325 
2996.123 10403148 10266470 10137670 10014943 9897166 9784030 9675192 9569566 
2999.980 9464879 9358288 9247424 9130972 9009984 8887745 8769056 8658917 
3003.838 8561174 8477002 8404603 8340018 8277873 8212328 8139296 8056422 
3007.695 7963505 7862579 7757325 7651624 7549523 7454053 7367197 7289152 
3011.552 7219544 7156954 7099626 7045842 6994120 6943379 6892981 6842824 
3015.410 6793178 6744884 6698446 6653560 6608881 6561751 6508706 6447160 
3019.267 6375602 6295618 6210875 6126822 6048597 5979288 5919496 5866798 
3023.125 5817868 5769582 5720528 5671984 5626097 5585148 5549338 5516618 
3026.982 5483498 5445918 5401933 5351982 5299051 5247737 5201358 5161422 
3030.840 5126820 5094467 5060642 5022864 4980329 4934213 4886192 4838445 
3034.697 4792244 4748593 4708966 4674602 4647139 4627882 4616228 4609062 
3038.554 4601460 4587931 4564057 4528331 4482866 4433321 4386360 4347435 
3042.412 4319323 4301119 4288470 4275787 4258254 4233159 4200505 4163370 
3046.269 4126472 4095164 4073290 4063356 4065397 4077103 4094562 4112792 
3050.127 4126673 4132159 4126774 4109881 4083023 4048875 4011218 3973631 
3053.984 3939325 3910771 3889408 3875935 3869750 3868948 3871188 3873127 
3057.842 3871488 3864435 3851330 3833346 3813089 3793602 3777157 3764624 
3061.699 3754731 3745272 3732974 3715796 3692938 3665537 3636066 3607500 
3065.556 3582075 3560093 3540249 3520006 3496691 3468267 3434602 3397165 
3069.414 3359064 3323170 3291719 3265278 3242911 3222682 3202520 3182326 
3073.271 3162934 3147081 3137335 3135466 3140673 3149818 3157627 3158328 
3077.129 3147882 3124386 3089012 3044999 2996419 2947010 2899475 2855114 
3080.986 2814726 2778943 2748432 2723692 2704153 2688517 2674247 2658412 
3084.844 2639010 2615342 2588909 2562110 2537713 2516684 2499021 2482359 
3088.701 2464997 2445837 2425745 2407520 2394226 2388595 2390961 2399290 
3092.558 2409519 2417149 2418348 2411151 2395492 2373037 2346218 2317337 
3096.416 2289123 2263975 2243858 2231202 2227272 2232501 2245557 2263809 
3100.273 2283660 2301880 2316504 2327597 2336058 2344320 2353914 2365274 
3104.131 2377068 2386830 2391660 2388962 2377068 2356313 2328330 2295918 
3107.988 2262710 2232235 2207124 2189007 2177352 2170659 2166130 2161335 
3111.845 2154741 2146883 2139324 2134862 2135329 2141389 2151278 2161434 
3115.703 2167828 2166896 2157139 2139491 2117182 2094141 2074565 2061082 
3119.560 2054823 2055589 2061381 2070537 2080524 2089580 2096705 2101366 
3123.418 2104463 2107160 2111022 2116549 2123475 2128936 2129402 2121311 
3127.275 2102099 2072068 2034183 1994570 1959387 1934625 1923076 1925240 
3131.133 1938586 1959454 1984451 2010947 2038277 2066275 2095074 2123908 
3134.990 2151045 2174355 2191838 2202062 2204826 2200763 2190439 2174388 
3138.847 2152777 2125772 2093908 2059018 2024296 1993605 1971070 1959654 
3142.705 1960819 1973633 1995968 2024296 2055522 2087250 2117948 2146783 
3146.562 2173256 2196900 2216448 2230736 2238163 2237264 2227938 2210021 
3150.420 2184878 2154375 2121044 2087882 2057852 2034116 2019303 2014709 
3154.277 2020934 2036347 2057852 2080990 2100934 2113186 2115018 2106061 
3158.135 2088948 2068273 2049496 2038211 2037678 2048298 2066874 2088049 
3161.992 2104596 2109624 2099136 2072301 2032518 1986382 1942812 1910030 
3165.849 1893956 1896951 1916720 1947738 1981988 2012279 2033018 2041606 
3169.707 2039309 2029755 2017039 2004789 1995169 1987846 1981256 1972901 
3173.564 1961318 1946307 1929200 1913026 1901045 1896619 1901411 1915755 
3177.422 1937754 1963781 1989144 2009383 2020368 2020335 2009549 1990243 
3181.279 1966377 1942114 1921812 1908267 1902908 1905771 1916187 1932894 
3185.136 1954595 1979824 2007053 2033950 2057753 2075664 2085851 2087283 
3188.994 2081224 2070071 2056654 2043804 2032518 2022665 2012179 1999097 
3192.851 1981489 1959255 1933693 1907568 1884139 1865637 1853990 1849498 
3196.709 1851461 1858682 1869264 1881311 1892492 1900779 1904373 1902276 
3200.566 1895021 1884239 1873124 1864672 1861145 1862509 1866802 1869863 
3204.424 1867401 1856320 1835989 1808305 1777895 1749916 1728592 1715585 
3208.281 1709864 1708333 1706570 1700683 1688309 1669116 1644137 1615202 
3212.138 1584573 1554212 1526148 1502906 1487080 1480929 1486182 1502541 
3215.996 1527777 1557504 1586502 1609682 1623617 1627109 1621555 1609549 
3219.853 1593985 1576725 1557937 1536123 1509456 1476773 1438907 1398783 
3223.711 1361522 1332805 1317384 1317683 1332772 1358896 1389875 1419127 
3227.568 1441167 1452803 1453767 1446088 1433887 1420989 1410783 1405299 
3231.426 1405565 1411747 1423482 1440270 1460915 1482725 1502341 1514909 
3235.283 1515807 1502009 1473316 1432890 1387149 1343906 1309873 1289468 
3239.140 1283054 1288138 1299371 1311634 1321306 1326856 1328983 1329747 
3242.998 1331775 1337059 1346565 1360691 1378008 1396922 1414706 1428535 
3246.855 1435882 1435882 1429532 1420623 1414340 1415903 1428834 1452836 
3250.713 1483090 1511252 1528741 1527977 1505600 1463010 1406030 1342277 
3254.570 1279132 1222310 1175129 1138817 1113969 1101379 1101512 1114500 
3258.427 1139249 1172671 1210514 1248294 1282821 1312033 1336095 1355473 
3262.285 1370529 1380401 1383227 1377443 1362253 1339020 1311435 1284682 
3266.142 1263580 1251285 1249125 1256236 1269961 1287440 1306084 1324031 
3270.000 1339552 1351650 1359228 1362120 1360624 1356636 1351982 1348858 
3273.857 1348925 1352415 1358431 1365078 1371061 1375150 1377410 1378341 
3277.715 1378972 1379670 1380767 1381565 1381332 1379072 1373355 1362718 
3281.572 1345368 1320176 1286344 1245403 1200347 1156192 1118752 1093672 
3285.429 1084438 1092410 1116095 1152505 1196725 1243875 1288803 1327221 
3289.287 1354642 1368901 1368901 1356536 1336095 1313695 1296014 1288404 
3293.144 1293456 1309574 1332506 1355938 1374186 1382562 1379836 1366906 
3297.002 1346665 1322834 1298607 1276873 1258562 1244373 1234205 1227427 
3300.859 1223639 1222177 1222144 1223240 1224602 1225566 1225101 1222675 
3304.717 1217691 1210547 1202540 1196127 1193602 1196958 1205929 1218389 
3308.574 1230484 1237728 1237163 1228490 1214734 1200580 1191675 1191708 
3312.431 1201178 1217259 1235103 1249192 1254907 1250654 1236598 1215465 
3316.289 1190512 1166059 1146192 1134499 1134598 1148086 1175129 1212076 
3320.146 1253279 1291262 1318181 1329216 1322569 1300966 1269495 1235103 
3324.004 1203337 1178020 1160279 1149182 1143302 1140811 1140644 1142272 
3327.861 1145694 1151176 1159182 1170445 1185628 1205231 1228822 1254940 
3331.719 1280894 1303691 1320574 1330678 1334699 1334699 1332805 1330778 
3335.576 1328518 1324961 1318348 1307646 1292924 1275577 1257499 1240087 
3339.433 1224436 1210481 1198187 1188652 1183668 1185628 1196227 1215465 
3343.291 1240685 1267468 1290465 1305752 1311800 1309308 1300966 1290099 
3347.148 1279166 1269063 1260224 1251950 1244672 1238625 1234637 1232976 
3351.006 1232511 1231780 1229620 1225666 1221080 1218289 1219220 1224204 
3354.863 1230849 1234936 1231414 1217060 1191443 1158352 1124400 1096097 
3358.720 1079289 1076233 1086065 1105265 1129515 1154863 1178452 1198652 
3362.578 1214535 1225633 1231979 1233242 1230417 1224868 1218024 1211744 
3366.435 1206461 1202075 1197423 1191443 1183502 1173834 1163667 1155229 
3370.293 1150345 1150578 1156956 1169016 1184665 1201078 1214103 1218987 
3374.150 1211710 1190346 1155760 1111677 1064575 1021397 988186 968925 
3378.008 965006 975832 999212 1032689 1073643 1118453 1162837 1201111 
3381.865 1227394 1237927 1232145 1214236 1191675 1173834 1168319 1177555 
3385.722 1198420 1223606 1243775 1251717 1244606 1224204 1195396 1163767 
3389.580 1133303 1105166 1079190 1054378 1031261 1012662 1002798 1004957 
3393.437 1020334 1046041 1076665 1104767 1124001 1129848 1121211 1099618 
3397.295 1068162 1030929 991440 952421 916459 885249 860083 842354 832694 
3401.634 832063 841292 861079 892321 935220 987987 1046506 1104933 1156059 
3405.974 1192971 1211877 1211777 1195729 1169481 1139814 1112939 1092410 
3409.831 1079655 1073510 1071251 1068992 1062980 1049960 1027674 995891 
3413.689 956572 914035 873529 841192 821705 817556 828245 851417 883257 
3418.028 919780 958232 996422 1032556 1065571 1093539 1115397 1129914 
3421.886 1137455 1138917 1135562 1128452 1117955 1103937 1086398 1066402 
3425.743 1046473 1029799 1019404 1016614 1020135 1026578 1031527 1031128 
3429.601 1024419 1013027 1000175 988817 980681 974437 967431 957169 943521 
3433.940 929177 919481 919713 933062 958763 991341 1022592 1044912 1052783 
3438.280 1045277 1025117 997584 968493 941728 919248 901451 888137 879505 
3442.619 875919 878343 887540 902846 922702 944352 964973 981577 991540 
3446.959 993798 988584 977360 962947 949200 940168 939039 948170 967829 
3451.299 996488 1031194 1068461 1105265 1139548 1170212 1195961 1214634 
3455.156 1223307 1218322 1195961 1155262 1097459 1027043 950495 875554 
3459.013 808460 754321 715821 693452 686483 692987 710245 734838 763250 
3463.353 792161 818983 843085 865229 886876 909819 934323 959129 981245 
3467.693 997584 1005754 1005655 999843 991839 985795 984699 988917 996455 
3472.032 1004193 1008378 1007116 1000241 989780 978954 971050 968095 970785 
3476.372 977891 986692 994197 997086 993035 980548 960324 933560 904274 
3480.711 876749 856265 846338 848396 860879 879638 898795 912973 918186 
3485.051 913670 901518 886278 873960 870142 878144 898729 929276 965206 
3489.391 1001536 1033984 1059792 1077794 1087926 1091314 1088357 1080419 
3493.248 1068560 1054278 1039232 1025017 1012363 1000972 988219 971382 
3497.105 947373 914235 872699 825556 777423 734042 700985 682301 680675 
3501.445 696107 726175 766137 808692 846172 871404 879804 870507 846770 
3505.785 814900 782767 758238 746521 749143 763051 781539 796244 800327 
3510.124 790999 770287 743799 718376 700322 693020 697401 711705 733411 
3514.464 759731 787979 816626 844047 868980 889665 904705 912707 913205 
3518.803 906764 894645 878509 860680 842952 826851 813539 803149 794750 
3523.143 786551 776527 763250 746720 728797 713033 703640 704072 715754 
3527.483 737792 766469 796211 822568 841823 852447 854937 850189 839499 
3531.822 823896 804543 782336 758902 736431 716451 700853 690631 685653 
3536.162 685686 690465 699625 713464 731818 754022 778485 803049 825656 
3540.501 844977 860680 873628 885182 895940 905369 911711 912774 906697 
3544.841 893815 877015 860979 850986 850322 860116 878907 903444 930007 
3549.181 955376 976463 989979 993101 983404 960224 925757 885514 846338 
3553.520 814867 794983 786618 786153 788576 788975 784394 774967 763416 
3557.860 753989 750371 754222 764577 778618 793290 806667 819614 834785 
3562.199 855202 882991 917422 954778 989149 1013559 1021895 1011931 986592 
3566.539 954181 926188 911047 910317 918950 928479 931866 925159 908059 
3570.879 884319 859518 839964 830901 834353 848629 868117 885282 892985 
3575.218 886544 865361 832727 795016 759001 730125 711473 703309 703441 
3579.558 708320 714593 719770 722857 724317 725943 730225 740049 758636 
3583.897 788775 832395 889631 958631 1033619 1105066 1161242 1191808 1192971 
3588.237 1169947 1133170 1093240 1056902 1026910 1002765 982142 962682 
3592.094 943090 923233 905004 891457 886344 892420 910682 940267 978588 
3596.434 1022260 1067830 1111743 1150976 1182073 1201809 1207524 1198021 
3600.292 1173634 1137555 1094868 1050724 1010271 975998 948569 926686 908457 
3604.631 892918 880069 871869 871769 883622 909752 949067 996422 1044314 
3608.971 1085302 1115729 1136392 1150810 1163368 1176824 1190811 1201975 
3612.828 1204135 1192340 1165328 1126858 1084438 1045974 1018474 1006120 
3616.686 1010271 1029168 1058696 1092244 1122705 1144598 1155495 1156923 
3620.543 1151907 1144465 1137821 1134067 1134598 1139980 1150644 1167089 
3624.400 1189848 1220117 1259792 1311701 1378640 1461713 1557704 1652818 
3628.258 1722571 1740069 1693830 1598740 1483456 1373754 1282954 1215498 
3632.115 1169481 1139249 1116527 1091546 1056503 1006717 942924 870507 
3635.973 798535 736630 694613 679845 695476 739186 803813 879007 952886 
3640.312 1014588 1056437 1073908 1066966 1040162 1001304 959560 923698 
3644.170 901518 898729 920510 970519 1051887 1164963 1305852 1464738 1624182 
3648.509 1761859 1854024 1881178 1837153 1731020 1585937 1428601 1281691 
3652.367 1159382 1067830 1009773 984898 991075 1023323 1072779 1126891 
3656.224 1171674 1198885 1207158 1201277 1187323 1169448 1148917 1123935 
3660.082 1092144 1051588 1003031 949698 897002 850754 816162 795049 786983 
3664.421 788676 796344 807033 818884 832860 851617 878542 916659 966932 
3668.761 1026246 1086763 1137223 1169747 1183834 1186691 1187422 1194433 
3672.618 1212873 1244706 1289268 1341446 1390440 1421787 1425975 1406994 
3676.476 1379670 1356669 1344172 1339751 1337292 1328152 1304223 1260855 
3680.333 1197490 1118486 1030364 941330 858356 787713 734141 700355 686947 
3684.673 692755 715588 752861 802618 863701 934589 1012762 1093008 1167388 
3689.012 1226197 1260589 1264909 1238226 1184366 1111477 1030829 955210 
3692.870 895608 860049 852081 870574 909321 957667 1003795 1036210 1047768 
3697.209 1037837 1011234 976197 940799 911512 890959 878343 869578 859850 
3701.549 845043 824228 799929 776726 759300 751102 753823 768029 793290 
3705.888 829075 874624 929044 991739 1061519 1137023 1215066 1290033 1353113 
3710.228 1392634 1397487 1361754 1288238 1190246 1086464 993732 923665 
3714.085 880966 864664 871570 897035 936681 986625 1043849 1105232 1167754 
3718.425 1227859 1281392 1324230 1352614 1363649 1356968 1335165 1303824 
3722.282 1271489 1245636 1231381 1229188 1234936 1241350 1240585 1226530 
3726.140 1197556 1157156 1112972 1073510 1045078 1031261 1032921 1049993 
3729.997 1082345 1130545 1195662 1278401 1377842 1489673 1605857 1715652 
3733.855 1804512 1856686 1858516 1805477 1708034 1588664 1472318 1374518 
3737.712 1299471 1244772 1206029 1180711 1169780 1176857 1207657 1267402 
3741.570 1359062 1481362 1625246 1770576 1880645 1912892 1845305 1699951 
3745.427 1527877 1376246 1270525 1216728 1213305 1256535 1341214 1459352 
3749.284 1597377 1735445 1849531 1917785 1927170 1876818 1777396 1647397 
3753.142 1506231 1369233 1247563 1147853 1073277 1025947 1005920 1010404 
3756.999 1032988 1063977 1092377 1107425 1103604 1081548 1048133 1013492 
3760.857 987024 974271 976031 989381 1009374 1031294 1049827 1061519 1064741 
3765.196 1061751 1057334 1058098 1069956 1096429 1137455 1188685 1241117 
3769.054 1280561 1291960 1265641 1202340 1113005 1015020 925790 857360 
3772.911 816527 803979 815630 843151 877380 910416 937378 957136 972046 
3777.251 985562 1000673 1018109 1036110 1050890 1058828 1058164 1050425 
3781.108 1038269 1025083 1013360 1004359 998946 996356 995891 995559 993500 
3785.448 987854 977592 963412 947971 934523 927251 929476 942060 963446 
3789.787 989149 1013824 1031759 1040228 1039033 1031161 1020998 1013360 
3793.645 1011400 1016083 1026113 1038169 1048100 1052518 1050359 1043550 
3797.502 1036907 1035379 1043948 1066269 1103505 1152770 1204068 1240818 
3801.360 1243842 1204633 1131044 1041989 956107 885747 837640 813738 813074 
3805.699 831797 863270 898131 928413 950628 965604 977426 989647 1004227 
3810.039 1021696 1042387 1066402 1094370 1127456 1166392 1211345 1259925 
3813.896 1307613 1346931 1367937 1361987 1327321 1271788 1209185 1153235 
3817.754 1112872 1091912 1092510 1115729 1160843 1222077 1285446 1332672 
3821.611 1349623 1335397 1300268 1257898 1218655 1189183 1171442 1163734 
3825.469 1160279 1154132 1138186 1108786 1067331 1018507 969091 924661 
3829.326 889233 865727 855767 860215 878509 909221 949001 994031 1040328 
3833.666 1084770 1126193 1164598 1201510 1239489 1280295 1324596 1369831 
3837.523 1412213 1446021 1467764 1476508 1474878 1466534 1454598 1439638 
3841.380 1420091 1392102 1352016 1297610 1229288 1151209 1070354 994662 
3845.238 930571 882493 852081 838536 839698 852513 873894 901684 935452 
3849.577 977327 1032224 1106395 1206494 1334766 1483090 1624415 1715652 
3853.435 1722039 1645568 1522357 1393265 1283286 1199616 1140246 1099087 
3857.292 1070487 1050491 1037937 1033154 1037605 1051986 1075469 1104601 
3861.150 1134233 1157920 1170445 1168618 1152405 1124400 1089287 1052518 
3865.007 1019404 993500 976264 968028 967530 973508 984965 1001005 1020733 
3869.347 1044214 1071849 1104867 1143967 1189283 1239256 1290199 1336361 
3873.204 1369765 1382861 1371128 1336262 1286377 1231315 1179282 1135329 
3877.062 1102043 1079987 1069092 1068295 1075768 1087992 1100615 1110248 
3880.919 1115862 1119882 1126791 1141475 1166890 1203570 1249325 1298008 
3884.776 1340150 1366109 1371394 1359262 1338854 1319777 1308344 1306317 
3888.634 1311900 1321073 1329348 1331741 1325560 1310803 1290730 1269794 
3892.491 1251484 1237362 1226895 1219353 1214867 1213804 1217891 1229055 
3896.349 1248427 1276042 1310272 1347595 1383260 1413243 1435250 1450276 
3900.206 1461746 1474180 1490405 1510055 1528475 1537786 1529772 1497686 
3904.063 1441400 1366807 1284649 1206328 1139349 1087660 1050691 1025947 
3907.921 1009507 997950 988352 979319 970419 962416 956638 954347 956240 
3912.260 962848 973275 986393 1001769 1018541 1036940 1057467 1080751 
3916.118 1107092 1136060 1166126 1195097 1220981 1242313 1258363 1269894 
3919.975 1278102 1284782 1291594 1299205 1307547 1314792 1318614 1316221 
3923.833 1305353 1285247 1257765 1226463 1195297 1167322 1144531 1126891 
3927.690 1113902 1104667 1098555 1096064 1098057 1105431 1119051 1137954 
3931.548 1160112 1181442 1198320 1207690 1209119 1204002 1195131 1185263 
3935.405 1176624 1170079 1165262 1161707 1158651 1156325 1155528 1157289 
3939.262 1161674 1167953 1173435 1175096 1169714 1155893 1134964 1111012 
3943.120 1089055 1072812 1063445 1059061 1056171 1051455 1043483 1033420 
3946.977 1025415 1024386 1034649 1056736 1087294 1119051 1143568 1155029 
3950.835 1151076 1133668 1108853 1084405 1066933 1061320 1068627 1086564 
3954.692 1109816 1132040 1147355 1151574 1143269 1123802 1096894 1067531 
3958.550 1040195 1018873 1005588 1000839 1003695 1012131 1023921 1036508 
3962.407 1048034 1056769 1062117 1063744 1062449 1059260 1055374 1051455 
3966.264 1047635 1042786 1034881 1022426 1004193 980714 954181 928081 906299 
3970.604 891856 886477 890262 902016 920012 942426 967464 993334 1017876 
3974.944 1038634 1053282 1060821 1061585 1058264 1054278 1054045 1059991 
3978.801 1072347 1089420 1107425 1122739 1132804 1137156 1137223 1135296 
3982.658 1133303 1132206 1131409 1130213 1127755 1124998 1123204 1124300 
3986.516 1129482 1138319 1149083 1159415 1166857 1170677 1171674 1171973 
3990.373 1173800 1178485 1185628 1193735 1200812 1204832 1204965 1201377 
3994.231 1194898 1186459 1177322 1167820 1159083 1152073 1148319 1148784 
3998.088 1154431 1164365 1177389 1191310 1204234 1214701 
##END=
