##TITLE=lancol_1 24 09:41:34 2026
##JCAMP-DX=5.01  $$ Nicolet v. 970
##DATATYPE=INFRARED SPECTRUM
##ORIGIN=Vojna akademija
##OWNER=Nicolet
##LONGDATE=2026/08/24
##TIME=09:42:05
##SPECTROMETER/DATA SYSTEM=Nicolet iS20
##DATA PROCESSING=
Ratio against background
%Transmittance->Absorbance
Truncated
ElementMultiply or ElementDivide
##COMMENTS=
Number of sample scans: 8
Collection length: 11,90 sec
Sample gain: 8,0
Background collected on: Mon Aug 24 09:40:43 2026 (GMT+02:00);
Number of background scans: 8
Background gain: 8,0
Sample spacing:  1,000
Number of scan points: 12415
Resolution points: 8286
Number of FFT points: 65536
Apodization: N-B strong;
Phase correction: Mertz;
Laser frequency: 15798,00 cm-1
Number of rejected sample scans: 0
Number of rejected background scans: 0
Bench serial number: BER2010005;
##RESOLUTION= 4,000
##XUNITS=1/CM
##YUNITS=ABSORBANCE
##FIRSTX=400.156891
##LASTX=4000.123047
##FIRSTY=0.012563
##MAXX=4000.123047
##MINX=400.156891
##MAXY=0.234815
##MINY=-0.003258
##XFACTOR=1.000000
##YFACTOR=1.000000E-009
##NPOINTS=7468
##DELTAX=0.482117
##ZPD=6100
##XYDATA=(X++(Y..Y))
400.157 12563020 10668381 8192169 5507390 2972898 870740 -637163 -1451427 
404.014 -1520672 -801832 750172 3129092 6223581 9768136 13383853 16604632 
407.871 18948500 20041284 19660456 17849310 14920575 11411374 7901178 
411.246 4852149 2558278 1099585 392617 245692 443559 792792 1171076 1544536 
415.585 1939285 2416682 3034321 3798616 4605813 5208702 5255618 4536232 
419.442 3196212 1687244 453410 -230154 -286250 224441 1168285 2360744 
423.298 3610206 4734223 5623176 6259715 6698748 7009811 7229753 7339495 
427.155 7282447 6993884 6442385 5651943 4711378 3755031 2930264 2389062 
431.012 2245956 2561544 3325073 4448050 5772906 7092015 8202906 8925420 
434.869 9165826 8953189 8457609 7932695 7600874 7567493 7762385 7980244 
438.726 7953854 7477008 6459906 4981000 3258768 1612309 351064 -337107 
442.583 -436255 -107871 399150 838039 1073277 1093108 982540 863004 848463 
446.922 1002001 1321704 1753010 2218480 2653811 3020007 3311784 3551039 
450.779 3777491 4035163 4362730 4778508 5271582 5802186 6316159 6766455 
454.636 7123911 7386575 7576732 7732972 7894430 8082886 8291449 8484503 
458.493 8614843 8650568 8585034 8435007 8232081 8013556 7826445 7723460 
462.350 7752266 7944708 8295569 8753301 9219129 9574307 9694572 9488415 
466.207 8937461 8119209 7205025 6402670 5908345 5834223 6188659 6883319 
470.064 7771358 8678860 9429086 9894894 10016774 9830799 9454788 9058463 
473.921 8793636 8739169 8893392 9175505 9459731 9599814 9487941 9090842 
477.778 8479165 7801987 7245789 6959371 6995736 7302125 7731859 8103140 
481.635 8241502 8050919 7535194 6788668 5948114 5150726 4500308 4046132 
485.492 3798549 3748080 3882554 4192408 4660602 5247636 5877882 6450287 
489.348 6859217 7019744 6902104 6534370 5997059 5388514 4803266 4302691 
493.205 3905389 3596340 3348813 3148049 3002458 2944842 3020608 3269451 
497.062 3701493 4288035 4956098 5611428 6146851 6465253 6501206 6229194 
500.919 5682021 4947083 4158988 3448495 2910783 2581409 2439806 2431510 
504.776 2497222 2593809 2698119 2803354 2908115 3005294 3078801 3110904 
508.633 3093684 3039827 2984642 2980938 3076532 3302703 3657518 4106838 
512.490 4593390 5059669 5467425 5800272 6062406 6261766 6396416 6446891 
516.347 6376678 6149640 5754304 5221009 4627782 4078039 3681543 3514962 
520.204 3599715 3901678 4346164 4845682 5319244 5718682 6028438 6260253 
524.061 6438820 6587115 6710324 6793515 6808054 6728159 6547421 6282373 
527.918 5966859 5638348 5328702 5055077 4826718 4649918 4534859 4500910 
531.775 4570318 4758844 5063324 5454172 5875967 6253530 6517384 6622304 
535.632 6564173 6381453 6146313 5942438 5835667 5865019 6030454 6301030 
539.489 6624828 6948799 7231538 7445659 7580643 7635707 7615273 7525148 
543.346 7371275 7162175 6910453 6635156 6361413 6115430 5919395 5784322 
547.203 5707032 5671984 5659160 5651440 5639960 5627171 5624385 5644592 
551.059 5695248 5775559 5876135 5985839 6096007 6205531 6318613 6439728 
554.916 6564509 6674858 6740240 6730447 6627822 6445041 6226606 6046077 
558.773 5979825 6078971 6351696 6753297 7197681 7578249 7810894 7853267 
562.630 7721841 7478053 7210752 7001426 6898030 6907995 7000113 7120307 
566.487 7207753 7218433 7131085 6949910 6699690 6416525 6138920 5896791 
570.344 5708005 5574878 5488028 5428605 5379993 5334573 5300124 5299856 
574.201 5365132 5523095 5778278 6102795 6435625 6705445 6849489 6843564 
578.058 6708709 6505410 6307687 6177299 6142784 6187079 6254774 6278339 
581.915 6213766 6057332 5850376 5657281 5544304 5545881 5652178 5810078 
585.772 5949727 6012816 5975895 5857697 5710456 5597331 5563232 5623713 
589.629 5759945 5931219 6088917 6195448 6234135 6207346 6129375 6016880 
593.486 5884767 5745709 5615221 5515779 5472391 5505343 5618712 5793926 
597.343 5988829 6152900 6243143 6237496 6144532 6002267 5865388 5782811 
601.200 5785128 5873314 6022558 6189197 6323992 6384949 6342551 6188894 
605.057 5940255 5638684 5342187 5118405 5028629 5105966 5344066 5689709 
608.913 6058441 6348502 6475544 6397189 6121814 5705219 5230566 4785376 
612.770 4428200 4182974 4038374 3963700 3923944 3895526 3871321 3858484 
616.627 3870419 3917592 4003660 4124365 4269697 4427363 4585186 4729265 
620.484 4844912 4918429 4937464 4895776 4795661 4648646 4473458 4293255 
624.341 4133430 4017438 3966007 3993327 4102623 4282982 4506736 4736501 
628.198 4930628 5057289 5106268 5094702 5061915 5056753 5120986 5269469 
632.055 5486082 5726068 5937466 6074670 6116505 6069664 5962290 5826432 
635.912 5683196 5537256 5378550 5195288 4985759 4765477 4565296 4423379 
639.769 4367550 4409555 4538409 4726016 4934180 5126283 5274265 5358725 
643.626 5370835 5308979 5180434 5000574 4794087 4593356 4430342 4331873 
647.483 4311761 4367817 4481995 4627681 4778843 4915648 5031311 5130474 
651.340 5224932 5327193 5445414 5578838 5716600 5837816 5914760 5920067 
655.197 5829857 5633011 5335210 4961494 4549458 4145205 3794471 3531464 
659.054 3377396 3336559 3397031 3534170 3713925 3900908 4059543 4162902 
662.911 4198230 4169759 4096937 4007841 3931835 3887636 3884293 3919163 
666.767 3982459 4062788 4158586 4278766 4433689 4613181 4783936 4901004 
670.624 4925567 4829667 4607555 4282848 3912076 3573289 3337660 3250255 
674.481 3309147 3472409 3671519 3841502 3939091 3948754 3881351 3761081 
678.338 3611241 3447894 3283239 3130060 3006261 2934200 2930931 3000022 
682.195 3125655 3277864 3420742 3525852 3584681 3610273 3631322 3677132 
686.052 3768534 3908531 4084394 4274048 4456318 4618237 4757236 4878452 
689.909 4990317 5101407 5218863 5351512 5511551 5711766 5962626 6265565 
693.766 6609688 6970516 7317828 7624680 7875164 8071375 8230426 8377308 
697.623 8533127 8708405 8898465 9087425 9251046 9366582 9418860 9402438 
701.480 9323418 9199940 9061643 8943887 8885309 8918893 9062557 9316850 
705.337 9663469 10072385 10507178 10936427 11340353 11712316 12057038 
708.712 12386112 12712842 13049617 13407876 13799503 14235170 14723748 
712.086 15268300 15863914 16498374 17156616 17827698 18510224 19214884 
715.461 19961240 20770572 21654966 22612888 23628098 24675916 25727852 
718.836 26759470 27751546 28684688 29535176 30270758 30852030 31243834 
722.211 31423002 31385924 31147212 30734688 30182200 29522304 28790078 
725.586 28024130 27265420 26559284 25941760 25434046 25034844 24722352 
728.961 24461228 24212172 23947400 23653114 23329940 22985238 22628282 
732.335 22265756 21903952 21555822 21241718 20989912 20827924 20770018 
735.710 20808286 20908650 21021662 21090770 21072614 20950340 20734392 
739.085 20456134 20154034 19862796 19602148 19376546 19179144 18999208 
742.460 18828896 18666540 18516760 18387356 18284878 18210720 18158962 
745.835 18115884 18062064 17974478 17835638 17636312 17382722 17095368 
749.209 16805654 16546354 16337918 16181957 16058473 15934268 15770996 
752.584 15544249 15252615 14920369 14588754 14303274 14098581 13984927 
755.959 13945338 13939966 13921320 13844894 13685859 13445091 13149980 
759.334 12844627 12579733 12401454 12336714 12391192 12548730 12780777 
762.709 13052042 13329832 13589304 13812603 13986638 14102140 14150302 
766.083 14125485 14027942 13868463 13665684 13445331 13231374 13037258 
769.458 12864012 12703289 12545763 12392453 12260363 12180139 12187738 
772.833 12305763 12531814 12830942 13146292 13408218 13556929 13562057 
776.208 13425031 13178055 12866948 12538806 12226724 11946539 11699586 
779.583 11479819 11279648 11095341 10926811 10775872 10644407 10532977 
782.958 10441567 10370264 10319025 10288014 10274340 10272305 10271695 
786.332 10260262 10224810 10153610 10039492 9880760 9683255 9460205 9234359 
790.189 9034375 8888286 8817440 8825623 8895320 8988064 9058023 9063302 
794.046 8982854 8824609 8625658 8440109 8316172 8285167 8348834 8482172 
797.903 8643065 8791370 8899852 8960529 8982820 8984444 8983497 8991074 
801.760 9012623 9050546 9108538 9193171 9313567 9477341 9687185 9938930 
805.617 10221384 10516955 10805491 11065193 11274786 11418109 11487372 
808.992 11488562 11443962 11393039 11380828 11447466 11616506 11885580 
812.367 12227712 12597265 12947878 13239846 13450149 13572826 13611970 
815.742 13573646 13462316 13280088 13031590 12728571 12391465 12043344 
819.116 11705985 11393889 11112915 10865518 10657378 10500117 10412854 
822.491 10413533 10507144 10679452 10894804 11102242 11246630 11288558 
825.866 11210690 11022606 10752537 10438410 10116472 9814124 9550767 9338482 
829.723 9185082 9095274 9069290 9101365 9177874 9281239 9392145 9493868 
833.580 9576882 9636874 9672008 9680782 9660014 9606251 9521232 9414289 
837.437 9302294 9205997 9143289 9120042 9128197 9146571 9149821 9116286 
841.294 9038604 8925996 8803982 8704078 8654421 8673182 8760773 8901712 
845.151 9068139 9229960 9360590 9444391 9480016 9479068 9461831 9448997 
849.008 9456616 9489837 9542062 9599746 9649917 9685288 9709548 9734012 
852.865 9772541 9833375 9913437 9997583 10065298 10099888 10095411 10060618 
856.721 10016061 9985682 9986190 10023148 10088527 10168264 10247132 
860.096 10315530 10371044 10416112 10452835 10480396 10494924 10492989 
863.471 10474083 10443637 10409562 10378307 10351227 10322792 10284892 
866.846 10233121 10172707 10119694 10094970 10115319 10185019 10291339 
870.221 10406983 10499235 10544248 10532909 10474626 10388487 10296496 
873.596 10212665 10139501 10070825 9998498 9917979 9831206 9744415 9663842 
877.452 9591482 9526312 9466640 9416726 9388827 9402302 9476257 9618615 
881.309 9821309 10059126 10297107 10500728 10650655 10745676 10800974 
884.684 10837525 10872177 10909652 10942577 10957698 10946519 10912812 
888.059 10874453 10855122 10875337 10939688 11031986 11116213 11146128 
891.434 11083751 10909007 10630383 10283128 9923505 9610113 9387879 9277550 
895.291 9268512 9324874 9395971 9436298 9415304 9328970 9195574 9050749 
899.148 8930258 8856057 8831541 8841922 8861265 8865492 8843105 8798505 
903.005 8749007 8714761 8709521 8732914 8771422 8802157 8803847 8766013 
906.862 8691300 8594666 8496972 8417879 8369134 8353663 8366837 8401597 
910.719 8451528 8513089 8586014 8671559 8770577 8882604 9007040 9142342 
914.575 9288076 9443105 9605438 9770915 9932760 10083644 10216160 10324624 
918.432 10405625 10457077 10478257 10469568 10434269 10378307 10311323 
921.807 10246114 10193466 10159851 10144114 10136889 10123628 10090664 
925.182 10031591 9951643 9867303 9800873 9775523 9804363 9886997 10007958 
929.039 10145064 10273798 10378103 10455584 10516208 10578096 10658329 
932.414 10766531 10898882 11039837 11164621 11250745 11283389 11260877 
935.789 11194744 11106627 11019989 10951344 10906968 10881316 10860830 
939.163 10828896 10773358 10689775 10583019 10463696 10345933 10242450 
942.538 10162598 10111317 10090698 10100668 10140587 10209138 10304299 
945.913 10422934 10559864 10708317 10860083 11006497 11138309 11246630 
949.288 11323722 11364161 11367426 11338415 11289544 11237551 11198722 
952.663 11186584 11204400 11245100 11291347 11322770 11320219 11272984 
956.037 11182709 11062813 10934456 10820744 10742110 10710932 10730699 
959.412 10796218 10897488 11022334 11158196 11295053 11423823 11536911 
962.787 11627634 11690702 11722972 11725695 11704965 11672832 11645366 
966.162 11640941 11675010 11756094 11882447 12041947 12212922 12368657 
969.537 12485060 12543068 12533349 12457235 12323795 12146098 11939183 
972.912 11717593 11494108 11281077 11089937 10929359 10804642 10715891 
976.286 10656801 10615885 10578944 10532095 10464952 10373691 10260363 
979.661 10133193 10003414 9884014 9786774 9720763 9690641 9696774 9734724 
983.518 9796162 9871235 9950355 10024606 10088425 10137635 10168636 10176946 
987.375 10157070 10102398 10009687 9881709 9730523 9575865 9444256 9359845 
991.232 9339194 9385746 9488720 9625051 9765594 9885539 9969103 10012908 
995.089 10024809 10019893 10012806 10013315 10024131 10041289 10057702 
998.464 10067197 10067672 10061737 10055633 10055429 10064992 10083881 
1001.839 10108231 10132208 10151711 10166194 10179728 10199944 10234546 
1005.213 10289609 10366294 10460845 10564686 10668076 10760009 10830663 
1008.588 10872958 10880331 10848294 10774954 10661997 10517227 10355808 
1011.963 10200793 10077200 10009076 10012670 10090867 10232307 10413125 
1015.338 10604273 10774207 10899119 10965854 10972514 10926301 10839937 
1018.713 10728321 10605054 10483654 10376915 10298091 10260872 10277632 
1022.087 10355129 10491394 10672864 10873910 11059312 11194200 11250846 
1025.463 11217116 11099692 10925112 10732464 10560747 10443094 10394800 
1028.838 10412209 10475881 10559661 10639518 10700337 10740446 10769485 
1032.213 10804133 10860184 10948184 11070087 11218986 11379569 11532147 
1035.588 11656597 11733286 11749149 11699313 11589178 11433518 11255573 
1038.964 11080454 10927694 10807700 10718506 10650350 10590556 10531382 
1042.339 10474558 10430061 10410309 10422764 10462305 10511659 10543365 
1045.714 10530193 10457586 10329103 10168907 10013823 9907437 9883369 
1049.089 9959271 10133464 10386282 10685904 10994772 11280192 11515407 
1052.464 11684201 11780708 11809341 11782989 11719873 11640941 11563690 
1055.840 11499246 11450187 11412224 11376372 11334877 11284205 11227215 
1059.215 11171149 11124065 11090549 11068795 11050747 11023286 10975335 
1062.590 10900920 10803963 10696601 10598603 10530193 10505854 10530805 
1065.965 10597788 10690896 10789968 10878293 10948591 11004798 11059108 
1069.341 11128043 11224222 11351339 11501933 11659626 11805766 11923857 
1072.716 12004646 12046443 12054313 12034623 11993781 11938229 11875091 
1076.091 11815571 11775057 11767498 11801068 11870256 11955054 12022632 
1079.466 12039187 11981519 11847544 11658844 11454644 11280805 11171353 
1082.842 11140451 11179240 11264312 11365862 11461516 11542866 11613136 
1086.217 11681512 11754971 11832017 11904445 11962309 12001888 12030978 
1089.592 12069473 12142044 12267520 12450995 12677975 12920024 13139018 
1092.967 13301953 13390550 13403501 13355013 13266833 13162413 13055490 
1096.343 12950609 12842033 12719222 12572298 12397192 12199018 11992827 
1099.718 11799229 11640226 11535550 11495537 11520307 11599319 11713610 
1103.093 11838044 11947357 12022087 12051621 12038711 11997868 11953454 
1106.468 11931350 11950286 12016603 12119045 12230643 12315477 12342646 
1109.844 12293458 12170495 11996676 11810089 11651424 11550352 11519286 
1113.219 11550589 11622495 11706121 11778018 11824050 11841414 11836239 
1116.594 11818330 11797152 11778802 11767567 11765592 11774444 11793237 
1119.969 11817954 11840836 11850336 11836784 11795450 11731890 11661022 
1123.345 11605717 11588702 11624809 11716946 11854013 12014525 12170870 
1126.720 12299116 12382362 12414989 12401317 12354203 12292197 12233779 
1130.095 12197178 12195406 12233847 12309887 12413864 12530928 12644884 
1133.470 12744232 12823366 12885174 12937774 12992258 13057983 13139837 
1136.846 13238752 13352484 13478551 13614808 13759521 13910030 14059975 
1140.221 14199461 14315842 14396221 14432940 14425952 14384987 14327246 
1143.596 14275813 14254515 14282797 14374198 14532184 14749182 15006451 
1146.971 15278732 15536212 15751034 15904503 15989129 16010683 15984489 
1150.347 15932273 15873674 15822882 15788073 15772851 15779242 15811404 
1153.722 15874533 15973935 16110633 16279297 16466470 16653450 16820740 
1157.097 16950780 17032750 17062490 17042296 16979582 16885428 16774967 
1160.472 16664950 16573858 16517991 16506668 16540743 16612103 16707335 
1163.848 16810028 16908094 16994332 17066314 17123664 17164612 17184364 
1167.223 17177848 17142346 17081720 17005632 16927558 16857318 16795770 
1170.598 16733093 16653106 16541569 16394963 16225396 16059607 15930142 
1173.973 15860649 15858896 15910551 15986551 16050702 16074874 16048089 
1177.349 15977476 15882712 15787110 15708912 15653571 15615444 15580446 
1180.724 15534014 15463863 15364405 15235148 15080886 14909602 14732146 
1184.099 14562918 14417149 14308753 14247016 14232841 14256706 14300227 
1187.474 14342554 14363787 14351835 14305227 14231712 14144517 14058298 
1190.849 13985680 13934834 13910337 13913314 13942943 13996185 14066649 
1194.225 14144688 14216476 14266361 14281427 14253419 14183166 14080407 
1197.600 13962960 13850299 13760615 13705522 13686646 13696494 13720910 
1200.975 13744746 13754870 13743994 13712019 13664214 13607868 13549716 
1204.350 13493316 13439008 13385493 13332360 13281147 13236294 13202750 
1207.726 13183623 13177680 13179217 13179456 13169414 13144653 13106541 
1211.101 13062900 13024147 13000827 12998745 13017694 13051598 13091789 
1214.476 13129968 13161114 13184442 13202101 13217881 13234551 13252929 
1217.851 13271444 13288560 13301850 13310255 13313432 13311348 13303182 
1221.227 13287160 13261469 13223927 13174708 13116820 13056105 13001784 
1224.602 12964264 12952521 12972525 13023600 13099984 13189360 13278277 
1227.977 13354672 13411532 13448612 13471784 13490753 13513688 13544213 
1231.352 13579219 13610808 13628347 13624654 13599081 13559254 13518303 
1234.728 13490684 13488566 13517277 13574672 13652110 13739240 13824507 
1238.103 13898090 13953037 13983285 13984174 13953174 13890734 13803334 
1241.478 13702512 13605645 13531360 13495162 13506271 13563869 13657718 
1244.853 13771286 13887108 13989718 14070755 14128873 14168343 14195558 
1248.229 14215996 14232294 14243387 14245886 14235923 14211752 14174778 
1251.604 14129763 14082769 14039920 14004979 13978084 13957519 13939625 
1254.979 13922791 13907567 13896961 13895250 13906232 13930797 13967065 
1258.354 14010523 14056483 14100806 14141094 14175976 14203671 14221577 
1261.730 14225447 14211786 14180461 14136541 14089956 14053232 14037490 
1265.105 14048476 14084549 14136815 14193709 14244243 14281427 14303411 
1268.480 14312692 14312623 14305466 14291050 14267217 14232876 14189225 
1271.855 14140888 14094850 14058537 14036532 14030064 14036873 14052753 
1275.231 14073870 14097418 14122302 14148556 14176113 14204083 14231369 
1278.606 14257391 14282113 14306631 14332006 14358307 14382795 14401359 
1281.981 14408038 14398002 14368890 14321869 14261774 14194771 14128429 
1285.356 14070379 14027360 14006211 14012576 14049878 14117680 14210656 
1288.732 14318239 14426329 14521563 14593551 14638031 14658216 14663151 
1292.107 14664488 14672919 14696636 14739001 14799472 14874797 14959841 
1295.482 15049293 15137150 15218264 15287897 15343089 15383800 15413496 
1298.857 15437769 15463863 15497581 15541844 15595695 15654808 15713688 
1302.233 15767731 15814943 15857350 15899930 15948568 16007967 16079858 
1305.608 16160669 16242731 16313870 16361794 16375557 16348926 16282735 
1308.983 16184915 16068546 15947605 15835080 15738493 15658999 15593119 
1312.358 15534839 15479211 15424585 15373399 15329736 15297163 15275404 
1315.734 15258999 15239404 15206906 15154133 15079170 14986421 14885975 
1319.109 14789838 14708392 14647729 14608422 14586766 14577069 14574396 
1322.484 14576521 14584059 14600678 14631280 14679499 14746405 14828647 
1325.859 14919889 15011630 15096014 15168304 15228113 15279968 15330731 
1329.234 15387885 15456309 15536727 15626298 15720079 15813775 15905842 
1332.610 15998377 16096672 16207304 16335199 16482646 16648803 16830556 
1335.985 17023378 17223044 17425868 17627616 17822588 18003072 18159930 
1339.360 18285914 18378508 18443254 18489792 18529934 18572640 18622130 
1342.735 18678612 18740602 18806754 18877828 18956286 19045908 19148878 
1346.111 19265278 19391062 19520938 19649780 19774496 19894948 20013456 
1349.486 20132308 20252096 20370248 20481418 20579868 20661554 20725598 
1352.861 20774778 20815064 20854312 20900826 20962928 21049068 21166568 
1356.236 21321998 21519054 21757826 22034792 22344412 22682040 23048650 
1359.612 23454950 23924116 24490010 25188118 26043564 27051882 28168668 
1362.987 29313784 30399736 31360886 32166644 32818708 33334456 33736424 
1366.362 34047944 34298260 34528664 34791248 35149260 35659256 36356764 
1369.737 37253864 38342904 39612468 41060204 42704124 44575736 46699776 
1373.113 49064124 51581500 54080600 56353296 58210684 59546232 60333004 
1376.488 60581568 60301668 59488852 58138256 56277212 53990728 51421160 
1379.863 48722928 46037232 43457500 41025864 38757104 36653404 34715296 
1383.238 32940298 31313416 29801536 28353788 26913532 25433694 23899504 
1386.614 22341900 20833522 19458906 18276616 17300446 16507151 15858104 
1389.989 15314805 14847848 14435988 14061925 13711335 13372713 13041252 
1393.364 12722190 12432105 12192543 12017897 11904581 11831710 11772707 
1396.739 11705508 11622155 11526704 11431376 11348924 11286960 11244760 
1400.115 11217082 11198246 11186346 11182369 11187774 11201340 11218884 
1403.490 11234797 11246052 11256763 11278050 11321512 11393923 11490536 
1406.865 11598570 11701730 11787687 11852821 11901619 11943645 11987309 
1410.240 12035577 12083986 12123678 12147870 12156422 12157036 12161363 
1413.616 12178401 12212376 12260907 12319023 12383759 12458633 12553437 
1416.991 12681386 12851316 13057744 13276671 13474450 13626740 13734418 
1420.366 13818726 13906027 14015314 14156087 14332931 14549795 14812020 
1423.741 15124558 15485460 15882952 16296152 16705614 17100848 17487024 
1427.117 17886114 18335094 18875856 19542324 20347054 21273140 22281346 
1430.492 23326372 24375216 25410648 26429010 27432754 28424674 29410248 
1433.867 30403182 31430698 32536280 33772628 35176028 36722956 38319632 
1437.242 39845056 41219716 42442812 43568768 44666360 45797324 47000800 
1440.618 48290452 49654440 51066516 52494972 53911752 55300540 56652900 
1443.993 57964800 59236236 60469664 61675368 62874428 64097008 65372692 
1447.368 66717960 68128064 69578312 71042664 72514472 74010664 75564104 
1450.743 77204416 78940072 80742856 82552400 84301560 85930480 87414608 
1454.119 88763528 90002456 91153560 92210000 93119176 93788560 94152592 
1457.494 94241784 94161232 94014416 93842840 93644616 93407456 93128120 
1460.869 92812048 92464384 92075968 91613496 91013232 90192168 89066336 
1464.244 87591568 85791224 83737944 81501984 79109272 76534840 73747296 
1467.620 70742528 67564064 64276008 60950172 57628912 54285660 50841288 
1470.995 47189584 43279372 39215332 35299136 31897974 29217484 27217548 
1474.370 25697690 24429998 23262396 22124214 21015334 19969706 19021086 
1477.745 18179348 17430696 16750930 16117958 15518733 14949381 14409990 
1481.120 13900382 13417410 12959178 12528336 12134138 11788539 11500845 
1484.496 11271351 11088000 10927694 10764255 10578333 10365683 10136957 
1487.871 9911302 9702839 9510530 9318644 9110129 8885479 8664799 8475922 
1491.728 8335761 8245386 8191224 8152767 8108778 8043426 7948286 7824860 
1495.586 7682516 7534116 7389440 7250439 7112459 6972402 6832087 6697503 
1499.443 6574164 6463303 6361211 6262371 6162511 6061600 5962458 5869351 
1503.301 5783180 5699310 5605320 5481786 5308845 5080990 4830873 4639536 
1507.158 4582071 4650789 4770200 4872722 4932370 4951540 4945206 4928282 
1511.016 4910621 4893028 4869472 4831912 4776364 4705349 4627112 4550563 
1514.873 4482095 4421973 4363533 4298107 4223490 4148685 4090247 4061684 
1518.730 4065965 4093057 4121556 4119482 4055363 3919030 3737552 3564001 
1522.588 3439311 3374224 3356092 3365408 3386011 3409621 3434702 3462122 
1526.445 3491080 3515998 3528558 3523681 3502002 3472275 3446291 3436538 
1530.303 3449831 3487072 3540784 3598445 3643350 3659422 3639842 3592398 
1534.160 3536575 3489142 3458581 3444521 3443251 3451000 3464627 3479657 
1538.017 3487339 3472943 3417269 3310449 3167674 3031352 2940939 2903178 
1541.875 2895506 2886200 2851946 2784546 2694218 2605508 2547446 2537580 
1545.732 2575076 2644444 2726192 2803888 2868689 2919223 2958253 2990580 
1549.590 3018673 3041362 3055443 3059213 3054542 3046867 3042096 3043630 
1553.447 3048569 3045566 3018072 2952248 2841440 2688417 2502254 2299449 
1557.305 2105329 1965412 1947738 2095040 2348317 2580509 2724925 2787880 
1561.162 2797285 2774442 2730860 2672347 2603075 2529448 2460566 2406920 
1565.019 2377501 2375369 2397125 2435708 2483725 2534614 2583076 2623842 
1568.877 2652278 2665979 2667113 2662446 2659012 2660812 2667813 2677248 
1572.734 2684516 2685783 2679081 2666546 2655778 2659145 2689883 2752801 
1576.592 2837905 2926128 3002958 3063918 3112339 3154657 3195544 3236936 
1580.449 3277730 3315323 3347878 3376127 3403443 3433466 3467666 3503639 
1584.307 3535005 3554213 3555349 3538813 3510319 3479790 3456878 3448762 
1588.164 3457346 3479557 3509551 3541118 3570182 3595104 3615785 3631957 
1592.021 3643016 3647694 3645890 3639541 3632424 3630286 3638138 3658387 
1595.879 3690399 3730968 3776355 3824153 3874063 3927689 3986840 4052721 
1599.736 4123797 4197092 4268192 4332107 4384686 4422911 4445372 4452000 
1603.594 4445071 4428869 4407882 4386293 4365408 4343754 4316881 4280238 
1607.451 4231353 4173172 4112959 4060881 4025130 4008175 4006068 4009178 
1611.308 4007774 3994531 3967947 3931233 3890979 3852868 3820075 3792031 
1615.166 3765225 3734544 3697884 3658086 3622701 3598579 3586986 3585750 
1619.023 3591196 3601352 3616888 3639842 3672688 3714860 3761382 3801423 
1622.881 3821145 3811919 3775519 3723449 3669079 3622668 3588489 3566707 
1626.738 3554547 3550137 3553612 3566574 3591028 3626811 3670416 3716531 
1630.596 3759176 3793970 3818872 3833245 3836187 3825357 3794939 3736316 
1634.453 3642949 3520741 3395896 3309480 3290784 3336292 3418672 3507246 
1638.310 3581440 3631355 3657518 3667108 3670783 3677968 3693272 3715896 
1642.168 3740794 3762719 3778762 3790527 3803763 3824822 3857314 3896897 
1646.025 3929127 3936015 3909066 3860490 3814961 3793836 3804666 3844076 
1649.883 3902614 3967947 4023625 4047470 4010817 3884694 3674860 3456511 
1653.740 3330382 3323604 3396764 3502369 3611976 3710483 3789691 3846918 
1657.598 3881484 3896295 3897331 3892718 3889107 3891380 3899772 3910738 
1661.455 3918361 3917625 3907696 3893687 3883892 3884025 3895292 3914282 
1665.312 3936449 3957815 3977310 3996972 4021150 4054828 4100081 4151528 
1669.170 4195955 4216999 4204821 4162266 4102724 4042420 3994798 3968415 
1673.027 3967278 3991154 4035129 4089879 4140656 4173038 4180398 4166348 
1676.885 4140823 4113661 4092388 4080347 4077605 4079745 4080347 4071484 
1680.742 4046667 4002222 3937586 3855509 3763153 3678001 3629517 3645188 
1684.599 3725387 3839697 3955174 4052620 4125770 4172971 4192944 4186386 
1688.457 4157884 4117842 4080748 4061818 4070781 4108009 4166582 4235267 
1692.314 4303796 4364671 4415212 4455649 4488590 4516378 4540150 4558934 
1696.172 4571457 4578287 4582976 4588970 4599417 4615458 4637226 4664219 
1700.029 4696674 4737204 4789028 4852886 4926774 5006976 5088801 5166317 
1703.887 5234121 5289257 5333029 5372747 5418842 5479236 5554707 5639154 
1707.744 5722878 5796814 5854406 5892155 5910763 5913618 5906229 5894540 
1711.601 5885001 5882987 5894943 5926684 5983555 6068723 6181534 6316966 
1715.459 6466195 6617258 6756292 6868104 6939170 6964152 6952132 6920788 
1719.316 6889277 6872446 6877966 6909611 6968260 7051029 7151329 7258862 
1723.174 7361535 7448053 7512067 7553704 7577912 7591804 7602897 7616722 
1727.031 7636551 7662955 7694421 7728047 7760597 7790113 7817168 7845440 
1730.889 7880698 7929590 7998908 8094903 8222458 8380179 8555937 8726795 
1734.746 8871512 8981569 9059004 9106880 9124746 9108200 9053084 8961273 
1738.603 8846318 8732576 8649318 8615011 8627652 8667672 8708912 8729939 
1742.461 8718310 8673452 8603994 8523699 8444636 8374066 8314112 8263824 
1746.318 8220533 8181128 8141592 8094127 8027461 7928174 7783839 7588938 
1750.176 7348560 7079284 6803881 6543351 6310276 6105785 5923460 5753398 
1754.033 5586457 5415152 5235597 5047434 4856236 4672759 4510184 4379030 
1757.891 4282748 4217233 4172670 4137210 4096636 4036902 3947517 3824287 
1761.748 3674259 3513092 3358229 3220312 3101226 2995585 2895406 2793483 
1765.605 2686383 2575143 2466564 2371038 2298383 2254383 2237031 2238130 
1769.463 2246789 2254183 2254483 2245790 2229404 2208189 2185077 2161468 
1773.320 2137360 2113220 2089447 2068839 2053924 2046367 2046267 2051194 
1777.178 2056288 2055921 2045335 2021200 1982986 1933061 1876419 1818553 
1781.035 1763390 1710629 1657076 1597809 1528741 1448914 1362286 1277404 
1784.892 1205630 1157255 1137555 1145495 1174432 1214933 1257532 1293854 
1788.750 1318348 1328817 1325759 1310770 1286743 1255771 1218655 1175960 
1792.607 1129183 1081548 1037638 1002101 977559 965471 964043 969655 978024 
1796.947 985463 989880 991739 991241 987854 977659 954745 912740 850422 
1801.286 774104 698563 641086 616332 631695 684326 762951 851617 935884 
1805.626 1004824 1055308 1090317 1116560 1140711 1165428 1188120 1203005 
1809.484 1203603 1186060 1151940 1108255 1063777 1025515 995824 971681 
1813.341 947274 915364 870408 809489 732548 642413 544766 447838 360515 
1817.681 293070 254079 248510 277420 335810 414373 500148 580399 645201 
1822.020 687777 706395 702147 678983 641385 594035 540885 484126 424986 
1826.360 363367 298872 232000 165072 103092 53945 25646 22796 41916 73132 
1831.182 103688 124668 133782 133583 130136 129473 135937 150023 168950 
1835.521 187976 203888 217082 232364 257395 299204 360449 437987 523369 
1839.861 606013 676859 729893 763582 780278 785655 785655 786518 791597 
1844.200 800825 811780 820610 823797 817821 798468 761391 702346 619484 
1848.540 516070 402102 291445 200573 141604 120160 133152 170309 216684 
1852.880 255538 275331 272148 251427 224773 205214 202794 220264 253118 
1857.219 291511 324768 344697 348444 337601 315616 284681 245460 196197 
1861.559 137163 71575 7422 -45457 -77029 -82197 -63148 -29554 4174 24586 
1866.380 22796 -1722 -40156 -76002 -93063 -78520 -29919 46787 141505 244266 
1871.202 345858 436826 506417 544634 544402 506052 438253 357630 282095 
1875.542 225834 193612 179225 169182 150123 115454 68261 20046 -16036 -31277 
1880.364 -26506 -12855 -5235 -16268 -50592 -103167 -162988 -216973 -256448 
1884.703 -279892 -290753 -292938 -286812 -268203 -229326 -164876 -76300 
1888.561 25911 122546 193114 225204 218341 182573 132987 82975 39232 3081 
1893.382 -27864 -56026 -81899 -102869 -114959 -114131 -97635 -64341 -13518 
1897.722 54111 135340 221756 299668 349704 353120 298341 186153 33764 
1902.062 -130329 -269660 -352734 -363791 -305388 -197003 -68946 44898 118138 
1906.401 132589 82843 -25843 -177529 -348397 -511553 -639314 -710342 -718215 
1910.741 -673126 -599577 -528431 -487360 -489908 -531641 -591437 -639645 
1914.598 -645832 -591668 -476107 -317241 -148183 -8581 62197 42314 -65534 
1918.938 -234360 -427318 -604573 -732737 -789164 -760158 -647585 -471340 
1922.795 -268832 -82926 53713 128844 152377 147736 142632 154100 184695 
1927.135 220728 240719 223314 159138 55801 -62486 -165539 -227107 -234558 
1931.474 -191969 -118338 -38997 25248 61368 70017 61070 49538 46986 56994 
1936.296 72039 76513 48842 -32105 -178522 -390607 -653970 -943228 -1222282 
1940.636 -1451394 -1596079 -1634041 -1566135 -1413811 -1216038 -1010538 
1944.011 -826470 -681628 -584587 -538557 -546070 -606558 -713816 -851107 
1947.869 -995100 -1114060 -1181211 -1181442 -1114820 -996554 -849586 -694861 
1951.726 -544514 -398883 -250487 -93162 70879 224740 341182 387111 339624 
1956.066 195932 -18422 -254792 -450786 -545441 -497984 -299494 21670 407342 
1960.405 775963 1051123 1184665 1166325 1028737 832727 653298 550970 557075 
1964.745 661394 820444 967331 1035412 983869 806302 533951 221789 -73915 
1969.084 -318864 -505066 -644442 -756288 -851438 -924845 -957247 -920250 
1972.942 -794126 -579161 -302540 -18024 208827 312466 254842 38271 -291547 
1977.281 -665748 -1009215 -1265894 -1416090 -1475368 -1481510 -1475930 
1980.657 -1485176 -1510766 -1534638 -1530313 -1480057 -1391221 -1298501 
1984.032 -1251589 -1303060 -1483888 -1791700 -2187952 -2602750 -2959794 
1987.407 -3190359 -3258176 -3164867 -2943899 -2642403 -2310805 -1991652 
1990.782 -1709561 -1472528 -1272865 -1094329 -918299 -737599 -556295 -392858 
1994.640 -273336 -218927 -240221 -328466 -452143 -565395 -622771 -590014 
1998.497 -463562 -270521 -66461 84201 127750 34990 -188094 -500764 -831166 
2002.837 -1103088 -1242668 -1197898 -950436 -517940 45263 658906 1221911 
2006.694 1643306 1860612 1848966 1623883 1228590 722292 160829 -406530 
2010.552 -942303 -1417081 -1803876 -2074496 -2205788 -2188678 -2037001 
2013.927 -1789786 -1507926 -1249540 -1058336 -951758 -920051 -934268 -965611 
2017.784 -997315 -1027198 -1062500 -1103352 -1134947 -1128205 -1048981 
2021.160 -874321 -609172 -283932 50764 348511 579270 737659 837607 905336 
2025.499 959726 1007946 1048465 1078924 1104535 1142438 1207690 1303957 
2029.357 1406263 1466833 1424479 1235767 897666 466048 44269 -246944 -302706 
2033.696 -82197 381706 990278 1620823 2149547 2489590 2611209 2531648 
2037.554 2303479 1987480 1640446 1306117 1017411 803481 688773 692158 817456 
2041.893 1048100 1344704 1646964 1892059 2017971 1985416 1787577 1450243 
2045.751 1023091 567459 145051 -199652 -442048 -580716 -629653 -610793 
2049.608 -542893 -439366 -308500 -160571 -13982 102860 157382 122116 -13419 
2053.948 -234260 -498083 -742098 -906726 -947130 -850909 -641034 -368029 
2057.805 -93858 127419 257163 285410 225568 110350 -23855 -143943 -226080 
2062.145 -259295 -241910 -179516 -81733 39133 170176 298905 411023 493480 
2066.484 533454 519156 444952 310974 127584 -86040 -301415 -487260 -615790 
2070.824 -668693 -643086 -551066 -416924 -268667 -131422 -24849 41187 65146 
2075.163 51460 7256 -56688 -127845 -191737 -231346 -231478 -182265 -81999 
2079.503 59579 222518 378754 500247 559696 540719 439447 267241 48809 
2083.843 -183391 -393023 -549677 -636469 -651787 -610066 -537168 -460120 
2087.700 -395605 -347238 -301117 -237141 -135629 9145 184065 356834 489168 
2092.040 546989 512123 389897 207402 6494 -171434 -294229 -348132 -337637 
2096.379 -280356 -198228 -109626 -26141 49372 120624 194009 274701 364859 
2100.719 461769 557937 642181 701815 726640 710178 652933 562250 452183 
2105.058 338032 235149 154564 101136 73663 66637 72039 78402 74524 49008 
2109.880 -7554 -98761 -219987 -356442 -485308 -579392 -613804 -575157 
2113.738 -465813 -303732 -117344 58949 196595 277884 297778 263097 188739 
2118.077 91790 -11894 -110256 -194618 -258931 -299130 -313831 -304362 
2121.935 -275852 -237307 -199421 -173289 -166036 -177959 -201673 -222404 
2125.792 -221543 -181205 -91738 46158 217678 399084 561156 680244 744165 
2130.132 756877 734606 701516 680841 684425 709913 741244 755350 730457 
2134.471 653862 526487 362405 182341 9145 -136656 -240817 -295984 -301812 
2138.811 -267905 -216079 -179880 -196274 -299362 -502683 -791116 -1115944 
2142.668 -1404993 -1580926 -1580364 -1378109 -991893 -479350 87880 633620 
2146.526 1096396 1439871 1644004 1699319 1602299 1353212 962815 465816 
2150.383 -70238 -557685 -897203 -1009612 -865426 -493218 22531 569284 
2154.240 1028238 1318281 1412313 1346033 1195396 1050624 985463 1026744 
2158.098 1149016 1288172 1374917 1362386 1249325 1070188 880899 730490 
2161.955 638265 591679 550705 460409 273110 -32370 -448072 -936285 -1445945 
2166.295 -1923406 -2328866 -2642106 -2857304 -2973978 -2989675 -2895551 
2169.670 -2679615 -2335918 -1872239 -1312508 -695456 -69642 522407 1043184 
2173.528 1467764 1786912 2002825 2125839 2174721 2171091 2135295 2085452 
2177.385 2029755 1962716 1865737 1709464 1469260 1134465 721064 271949 
2181.242 -146494 -471009 -659694 -708192 -650033 -545970 -457902 -426854 
2185.100 -460054 -531211 -594977 -604275 -531376 -376305 -164611 67399 
2188.957 285112 468934 618091 743833 859917 969821 1062648 1117058 1112009 
2193.297 1035147 891823 703176 496963 296518 112869 -57781 -225816 -398353 
2197.636 -567811 -709019 -781921 -748846 -591437 -322473 11199 340817 593272 
2201.976 720201 711241 597784 437788 301922 244896 288395 421337 605880 
2206.316 798004 962682 1087261 1179781 1262916 1356436 1467930 1585371 
2210.173 1680957 1717581 1662530 1499681 1233541 891955 517265 162917 
2214.031 -123340 -305024 -363328 -302242 -146858 61037 277453 459414 579105 
2218.370 627382 610492 546293 455168 355076 257030 167591 92188 38768 19350 
2223.192 44799 119862 236740 372619 496532 572602 574360 491921 333721 
2227.531 122778 -109494 -334127 -532667 -696845 -827760 -928582 -1000025 
2231.389 -1037511 -1034041 -981942 -879281 -733597 -561523 -384747 -225981 
2235.246 -101676 -18223 30285 58850 84798 124635 186949 269728 361841 447473 
2240.068 510929 541250 536705 504261 457955 413709 386846 387310 418021 
2244.408 474373 545330 615669 666273 679779 642347 546591 395701 202927 
2248.747 -9774 -216775 -392527 -518337 -585712 -596202 -559538 -488353 
2252.605 -396433 -294163 -190081 -91771 -6891 57889 97259 111477 107367 
2256.944 97458 96563 118370 169248 246719 339922 434704 516435 575820 609431 
2261.766 620214 613943 596125 570512 539425 502569 460376 412416 358160 
2266.106 295921 223679 140080 47052 -47876 -131489 -186968 -198957 -158351 
2270.445 -65600 67399 220563 371790 501441 595694 649448 663253 641086 
2274.785 587001 504924 399448 277254 149625 30351 -65997 -127812 -150932 
2279.125 -139306 -104359 -60167 -19614 9343 26739 38337 53647 80556 123706 
2283.946 181281 247051 310908 363433 397425 410625 405451 388239 368507 
2288.286 355209 356171 376167 415699 470857 535146 599676 655089 694149 
2292.625 712734 709747 687545 650045 601965 547553 490362 434206 384359 
2296.965 347980 333257 348345 398155 481804 590618 708751 818651 902248 
2301.305 949001 958498 940201 910549 886577 881862 900223 935751 974139 
2305.644 999577 999245 968427 912209 844147 782203 741841 733809 759366 
2309.984 811912 878044 943289 994064 1022559 1026744 1010869 983404 953218 
2314.323 927251 909055 896670 885182 867818 839466 797771 744530 685421 
2318.663 627713 577213 537269 507047 483694 463394 444521 428170 417159 
2323.003 414439 421072 433841 447042 454339 450790 436694 417159 401803 
2327.342 401637 426478 480278 560326 656019 752993 835881 892387 916725 
2331.682 911246 883921 845740 807331 776328 754553 740148 728100 712568 
2336.021 689470 658806 623698 590850 566563 555316 557805 571042 588129 
2340.361 602562 608734 604553 591414 572933 554354 539923 532956 534980 
2344.701 546392 566198 592874 624296 658342 693120 727968 762652 797904 
2349.040 834984 874359 915828 957335 995094 1024552 1040926 1040627 1022758 
2353.380 987356 934456 863436 773274 664812 544236 425815 329046 276492 
2357.719 285543 360250 487542 638232 775963 866490 890561 849492 763681 
2362.059 662423 574858 520085 501143 507678 522705 531961 529174 519620 
2366.399 514909 529970 574261 648818 745426 849426 943488 1011699 1043816 
2370.738 1036110 992304 921805 838570 757773 691560 648254 629008 628510 
2375.078 636274 640721 632956 607904 567658 518791 470426 430624 405252 
2379.417 395668 400145 414903 436064 460509 486448 512853 539027 563976 
2383.757 586006 603159 613280 614408 605648 587134 560160 528511 496897 
2388.097 471488 458518 461802 482036 515706 556113 594500 623068 637370 
2392.436 636606 623698 602960 578375 551999 523833 493579 462034 432780 
2396.776 411520 404125 414107 441105 480178 523269 563080 595296 619551 
2401.115 639062 657744 676560 693186 700786 691394 660266 607539 540155 
2405.455 468801 406148 361244 338795 337468 352623 378588 410990 447639 
2409.795 488007 531961 577977 623068 662423 691262 705333 702247 681073 
2414.134 643774 593969 537468 482434 437656 412051 412051 439546 490959 
2418.474 556975 625092 681206 714692 719770 697733 656251 607871 568189 
2422.813 550075 562848 607639 677323 755881 823432 860846 855335 805472 
2427.153 722525 628045 545928 496200 487874 516734 567094 618887 655654 
2431.493 669093 661361 641849 622670 611222 609397 612649 614408 610393 
2435.832 600804 589290 580863 577346 574957 565170 538729 489267 418220 
2440.172 333887 249670 179126 130501 105147 98253 102064 110085 120127 
2444.511 135108 160431 201766 260942 336606 423659 515838 607307 694315 
2448.851 773440 840927 891889 919215 916360 879040 807663 709382 596656 
2453.191 486016 392418 326791 292904 286704 297181 310577 315053 303680 
2457.530 277519 245062 220098 215623 241216 299071 383198 482135 582290 
2461.870 672511 745725 799796 834221 848762 840528 805174 739053 643177 
2466.209 525824 403594 296485 224375 200275 225734 290649 376897 464190 
2470.549 534681 579071 596988 595462 584479 573630 569317 573332 583716 
2474.889 597121 610061 620546 628576 635744 644637 658043 677356 702313 
2479.228 730988 758868 780643 791630 788609 770917 740912 702844 661229 
2483.568 619551 578972 539160 498655 456694 413709 372984 338629 315053 
2487.907 306133 313096 334948 368938 410758 455865 500114 540653 575820 
2492.247 605283 629937 650643 668098 681438 688142 685454 670819 643807 
2496.587 607174 566066 528378 500413 486348 486713 498489 516999 537999 
2500.926 559862 583982 613313 650411 695443 745227 793522 832295 855302 
2505.266 858854 843682 814004 776792 739584 709249 690930 687146 697667 
2509.605 719538 747749 776693 801290 819149 831465 842919 858987 884518 
2513.945 920145 961121 998647 1022393 1024153 1000806 955509 895940 832063 
2518.285 772013 720633 679845 649880 631994 629671 647557 689304 754852 
2522.624 837939 926919 1008810 1072347 1112939 1133701 1143933 1154797 
2526.482 1174598 1204866 1240319 1271157 1286211 1278401 1246400 1194400 
2530.339 1129947 1061320 995094 935120 884020 843583 816560 805373 811149 
2534.679 832030 862108 893217 916758 926919 922934 909586 895309 888071 
2539.018 893549 911811 938541 966966 991440 1010072 1025681 1043948 1070786 
2543.358 1109218 1156990 1206793 1248992 1274746 1278302 1259792 1223838 
2547.215 1178352 1131409 1089520 1057765 1039531 1037937 1057134 1100781 
2551.073 1171342 1266870 1380335 1498650 1605658 1686313 1729224 1731120 
2554.930 1696757 1637751 1567481 1498883 1440203 1394528 1360923 1336428 
2558.788 1319079 1308444 1305453 1310903 1323765 1339984 1353811 1359062 
2562.645 1352481 1335364 1314360 1298407 1297477 1318015 1360923 1421587 
2566.502 1491103 1559367 1617763 1661000 1687976 1700150 1700150 1690570 
2570.360 1673041 1649293 1621621 1594051 1572036 1561462 1566915 1590094 
2574.217 1628705 1677166 1728293 1774602 1811765 1838151 1855754 1868099 
2578.075 1879148 1891161 1904573 1917419 1927070 1931330 1929733 1924275 
2581.932 1919216 1919748 1930731 1954994 1992174 2039409 2090945 2140290 
2585.790 2182314 2214017 2235732 2250486 2263642 2279297 2300948 2328763 
2589.647 2360377 2391327 2416816 2433675 2440839 2440239 2435175 2430310 
2593.504 2428711 2431743 2438207 2445138 2448503 2445404 2435308 2420447 
2597.362 2406220 2398957 2404721 2427045 2464798 2512551 2562144 2604275 
2601.219 2631076 2639377 2629976 2607942 2579976 2552511 2529915 2513318 
2605.077 2501454 2492490 2484992 2478260 2472962 2470029 2469030 2468963 
2608.934 2468763 2467597 2466864 2469763 2480493 2502154 2535347 2576143 
2612.792 2618475 2653545 2675014 2679515 2668780 2647977 2625109 2607175 
2616.649 2599242 2602809 2617209 2639877 2667913 2698519 2729260 2757502 
2620.506 2780311 2794850 2798719 2791315 2773675 2749233 2722425 2698219 
2624.364 2680715 2672314 2674147 2686150 2706454 2732494 2761003 2787981 
2628.221 2809524 2823130 2827766 2825064 2818261 2812125 2810858 2816827 
2632.079 2830734 2851245 2875927 2902344 2928663 2953449 2975567 2993716 
2635.936 3006395 3013134 3014335 3012934 3013201 3019841 3036490 3063785 
2639.793 3098823 3136134 3169476 3194242 3208996 3215071 3216540 3217141 
2643.651 3219210 3222181 3223750 3220612 3210531 3193708 3172346 3150418 
2647.508 3131595 3118947 3113707 3115810 3124420 3138637 3157360 3179289 
2651.366 3202520 3224751 3243378 3256932 3265244 3269985 3273891 3280067 
2655.223 3290617 3305775 3324171 3343537 3361936 3378298 3393325 3408252 
2659.081 3424549 3443418 3465094 3489710 3517501 3549770 3587888 3632892 
2662.938 3684183 3738354 3789591 3830504 3854640 3858250 3841970 3810549 
2666.795 3772177 3735982 3708745 3694743 3693841 3703197 3718403 3735246 
2670.653 3751021 3764423 3775085 3783006 3787385 3786683 3779029 3763420 
2674.510 3740360 3712387 3684150 3660458 3646224 3644253 3655045 3676097 
2678.368 3703632 3732907 3759644 3781034 3795674 3803596 3805635 3803429 
2682.225 3798582 3792499 3786950 3783207 3781903 3782472 3783107 3781034 
2686.083 3773213 3757872 3735280 3708544 3682713 3663766 3655981 3660525 
2689.940 3674827 3692370 3705603 3707575 3694576 3667074 3629851 3589325 
2693.797 3552977 3526119 3511188 3508282 3515196 3529660 3549302 3572754 
2697.655 3599047 3627245 3655747 3682011 3703331 3716732 3720308 3713256 
2701.512 3696447 3672354 3644954 3618324 3597309 3585549 3585115 3595940 
2705.370 3615785 3640510 3665170 3685921 3700223 3708310 3712421 3716264 
2709.227 3723115 3734845 3751255 3770907 3791429 3811518 3831842 3854941 
2713.084 3885296 3927020 3982961 4053156 4134568 4221014 4305201 4379666 
2716.942 4438041 4476672 4494650 4493511 4477241 4451431 4422509 4396501 
2720.799 4378963 4373708 4382176 4403363 4434626 4471215 4508142 4541087 
2724.657 4566937 4584214 4592854 4593725 4587764 4575241 4555853 4529704 
2728.514 4496926 4459298 4420066 4383782 4355233 4337562 4331371 4334450 
2732.372 4341378 4345595 4340708 4323004 4291816 4250156 4203382 4158017 
2736.229 4119114 4089746 4069912 4057437 4048674 4039744 4028207 4012622 
2740.086 3993327 3971492 3948954 3927188 3907027 3889007 3872391 3856445 
2743.944 3839831 3821479 3801022 3778828 3756268 3735614 3719372 3709346 
2747.801 3706606 3710650 3720007 3732439 3746108 3760178 3775052 3792399 
2751.659 3814259 3842672 3878074 3919565 3964837 4010215 4051417 4084695 
2755.516 4106369 4114030 4106771 4084795 4050714 4008543 3963901 3923543 
2759.374 3893219 3877640 3878141 3893085 3917024 3943839 3966877 3981490 
2763.231 3986572 3984432 3979918 3979115 3986806 4004998 4033156 4067571 
2767.088 4104262 4139786 4173172 4205925 4241624 4284421 4336558 4398074 
2770.946 4465591 4534290 4597877 4651693 4692822 4721427 4738879 4748359 
2774.803 4752781 4754991 4757337 4762931 4774555 4795594 4828963 4875771 
2778.661 4935018 5003188 5075190 5145529 5210479 5268731 5322497 5376168 
2782.518 5435517 5505846 5589914 5688198 5798123 5915398 6033881 6147993 
2786.375 6252723 6344602 6422106 6486206 6539752 6586880 6632633 6681453 
2790.233 6736168 6797991 6866218 6939406 7015839 7094574 7175683 7259670 
2794.090 7347078 7437839 7531385 7626771 7723865 7823713 7928376 8041131 
2797.948 8164280 8298339 8441292 8588987 8735585 8875434 9005214 9123629 
2801.805 9232363 9334894 9435723 9539318 9649342 9768814 9900114 10044748 
2805.663 10203100 10374540 10556368 10744488 10934354 11121346 11302501 
2809.038 11477506 11648361 11819113 11994496 12179014 12375680 12585736 
2812.413 12808315 13041662 13282923 13529070 13777955 14027873 14278415 
2815.788 14530299 14785588 15047234 15318856 15604282 15906977 16229661 
2819.164 16574614 16943028 17335514 17752168 18192062 18653604 19134474 
2822.539 19631440 20141540 20662770 21194436 21738700 22299834 22885022 
2825.914 23503318 24164284 24876992 25649460 26486906 27392628 28368008 
2829.289 29413580 30529996 31719002 32984372 34331212 35766172 37296360 
2832.665 38929468 40672876 42534312 44522356 46645652 48913312 51332956 
2836.040 53909916 56644936 59535136 62572992 65747620 69048272 72463616 
2839.415 75982872 79596568 83294224 87064000 90894472 94773080 98689224 
2842.790 102636128 106608696 110604336 114619736 118647792 122677464 
2845.683 126691920 130668672 134582368 138402624 142093968 145617456 
2848.576 148924720 151962752 154676416 157008320 158907392 160331744 
2851.469 161249456 161643248 161509872 160861872 159726240 158146416 
2854.363 156178704 153884240 151330880 148581808 145692800 142714768 
2857.256 139689872 136655632 133647712 130698088 127836656 125090776 
2860.149 122481592 120027216 117741600 115635224 113716432 111990776 
2863.042 110460136 109121248 107965720 106979560 106143480 105436168 
2865.935 104833592 104310360 103842184 103402632 102966032 102508280 
2868.828 102004856 101434296 100777728 100017400 99139888 98135544 97000808 
2872.203 95741296 94373568 92925632 91431792 89932832 88467224 87065696 
2875.578 85752792 84543584 83447824 82473960 81630240 80927016 80375736 
2878.954 79985144 79760336 79701536 79804136 80059600 80459152 80994368 
2882.329 81657184 82440904 83338944 84343968 85449016 86646952 87931080 
2885.704 89295248 90732656 92235776 93796744 95406104 97055496 98738424 
2889.079 100449528 102186016 103944584 105720240 107506576 109295040 
2891.972 111076960 112845552 114596312 116327744 118040616 119736128 
2894.865 121415016 123078296 124727432 126365352 127996608 129626752 
2897.759 131260200 132899400 134544656 136194016 137846016 139501248 
2900.652 141163152 142837712 144531792 146250736 147999104 149779008 
2903.545 151592784 153443904 155337888 157280528 159278320 161334720 
2906.438 163452080 165630704 167871712 170177792 172553392 175003488 
2909.331 177531216 180136384 182814672 185559664 188364848 191225216 
2912.224 194138432 197102048 200111376 203156624 206222528 209287280 
2915.117 212327776 215319024 218234000 221044560 223715792 226204896 
2918.010 228465680 230447040 232101104 233389344 234282304 234761008 
2920.903 234815376 234441392 233640480 232420288 230796128 228788784 
2923.796 226425744 223737232 220752208 217500592 214012592 210319424 
2926.689 206458368 202468704 198389664 194259232 190106352 185952656 
2929.582 181812512 177695456 173610384 169567408 165576560 161647968 
2932.475 157789360 154004048 150293776 146659056 143103104 139633856 
2935.368 136262848 133005752 129879624 126898272 124073656 121413304 
2938.261 118920896 116598344 114445520 112461440 110644688 108993552 
2941.155 107506312 106181856 105020400 104023184 103191424 102525608 
2944.048 102024136 101681208 101488000 101431624 101497960 101672584 
2946.941 101940872 102288576 102701272 103160832 103647080 104135184 
2949.834 104596808 105003736 105326992 105540680 105624344 105562864 
2952.727 105347696 104976776 104452952 103782136 102971624 102028536 
2955.620 100959592 99771096 98470648 97066600 95569456 93990712 92339856 
2958.995 90624632 88849424 87015368 85122720 83171216 81162536 79100008 
2962.370 76988672 74834336 72643272 70422096 68178424 65921748 63663692 
2965.746 61418384 59200768 57025020 54903388 52843860 50850152 48921732 
2969.121 47054708 45244216 43485736 41777392 40120000 38516808 36972328 
2972.496 35490664 34073852 32720842 31428240 30191258 29006102 27870488 
2975.871 26784596 25750598 24770620 23846188 22976332 22157860 21385760 
2979.247 20653874 19956106 19287098 18642086 18018304 17414040 16829350 
2982.622 16266672 15729938 15223995 14752438 14316356 13913007 13535462 
2985.997 13174674 12821795 12470840 12120748 11775738 11443656 11133958 
2989.372 10853628 10606344 10390999 10202896 10034846 9879268 9729878 
2992.748 9581421 9431220 9277888 9121870 8965265 8811185 8663413 8525152 
2996.605 8397846 8280507 8170560 8063915 7957093 7849016 7741235 7636854 
3000.462 7540285 7453884 7377071 7306034 7234604 7156651 7067834 6967082 
3004.320 6856793 6742427 6630076 6525188 6431791 6351898 6285331 6230471 
3008.177 6184458 6143524 6103467 6060356 6011169 5954598 5890913 5822268 
3012.035 5750879 5678698 5606226 5532927 5457560 5380026 5301164 5223792 
3015.892 5151698 5087795 5033791 4989111 4951305 4917123 4883545 4848865 
3019.750 4812613 4774890 4736032 4695602 4652698 4606115 4554715 4497864 
3023.607 4435631 4368219 4296601 4222386 4148015 4077772 4016535 3969218 
3027.464 3938656 3924580 3922373 3924246 3921404 3906793 3877105 3834115 
3031.322 3783407 3733074 3689095 3654978 3630587 3613380 3600617 3590594 
3035.179 3583645 3581206 3584380 3592599 3603490 3613446 3618893 3617823 
3039.037 3610206 3597176 3579870 3558122 3529627 3490712 3438576 3372354 
3042.894 3294991 3212768 3134599 3068857 3021575 2995551 2989312 2998521 
3046.751 3017505 3040828 3063785 3083806 3099190 3108868 3112172 3107733 
3050.609 3093918 3068757 3031252 2981372 2920790 2853847 2786246 2724758 
3054.466 2675247 2642243 2626876 2627342 2639743 2658945 2679515 2697919 
3058.324 2711522 2718523 2717490 2707421 2687083 2656411 2616842 2571643 
3062.181 2525582 2484258 2452468 2433475 2427744 2433475 2446470 2462032 
3066.039 2475594 2483259 2483159 2475228 2460932 2442938 2424646 2408219 
3069.896 2394892 2384064 2373137 2358978 2339156 2311907 2278198 2240528 
3073.753 2202528 2166995 2135495 2107293 2080325 2051960 2020301 1984817 
3077.611 1947039 1910130 1877950 1854423 1842610 1843841 1857152 1879480 
3081.468 1904639 1926205 1937454 1933993 1915389 1884938 1849731 1817455 
3085.326 1794264 1782620 1780391 1781655 1779792 1770410 1752944 1731686 
3089.183 1712924 1703443 1706903 1722903 1747388 1774502 1798956 1817954 
3093.041 1831363 1841246 1849665 1857651 1864173 1867035 1863707 1852360 
3096.898 1832961 1806409 1774535 1739038 1702080 1665058 1630468 1601002 
3100.755 1578953 1566450 1563823 1569875 1581481 1594949 1606423 1613307 
3104.613 1613373 1605824 1590426 1568245 1541044 1512382 1486581 1467897 
3108.470 1459818 1462876 1475244 1492566 1510055 1524086 1533895 1541277 
3112.328 1549457 1561395 1577257 1594616 1608884 1615635 1611943 1598275 
3116.185 1578155 1556706 1538551 1526381 1520595 1519864 1522258 1526447 
3120.042 1531701 1537620 1543306 1546897 1546298 1539814 1528209 1514444 
3123.900 1502740 1497819 1501942 1514211 1530570 1545434 1553847 1553215 
3127.757 1543771 1528642 1511352 1494727 1479998 1467065 1455795 1447218 
3131.615 1443694 1448016 1461946 1484786 1512648 1538916 1556740 1561329 
3135.472 1551120 1528642 1499648 1470856 1448448 1436547 1436613 1447816 
3139.330 1467764 1493098 1519830 1543306 1559566 1565552 1559832 1543638 
3143.187 1521127 1498351 1482027 1477638 1487812 1512183 1546731 1586003 
3147.044 1624182 1655612 1676899 1686180 1682887 1668019 1643539 1612475 
3150.902 1578920 1547928 1524785 1513812 1517769 1536323 1566184 1601168 
3154.759 1634126 1658040 1667752 1661898 1642308 1614072 1582977 1554711 
3158.617 1532000 1515342 1501975 1488676 1472817 1454066 1434718 1419260 
3162.474 1412545 1418063 1436580 1465968 1502507 1541743 1580317 1616766 
3166.332 1650956 1683984 1716117 1747221 1776498 1803048 1826106 1845572 
3170.189 1861278 1872658 1877717 1872658 1853591 1817488 1763523 1694163 
3174.046 1615136 1533796 1457258 1391504 1340017 1304057 1283718 1278435 
3177.904 1287673 1310571 1345701 1390008 1438907 1486415 1526780 1554212 
3181.761 1565086 1558070 1534494 1498085 1455130 1413044 1379604 1361754 
3185.619 1363184 1383892 1419227 1461480 1501310 1531169 1547662 1552018 
3189.476 1549657 1547861 1552683 1565984 1585105 1602565 1610247 1601500 
3193.333 1574530 1532831 1483755 1437145 1400412 1378241 1369698 1370961 
3197.191 1374618 1374352 1364879 1344338 1313695 1276175 1236166 1198088 
3201.048 1165628 1141541 1126825 1121908 1126426 1140046 1162438 1193768 
3204.906 1233574 1281060 1333503 1387349 1437345 1478602 1506231 1517769 
3208.763 1512283 1491402 1458555 1417399 1372324 1327122 1284915 1248693 
3212.621 1219851 1199084 1185263 1176126 1167953 1157820 1143734 1126227 
3216.478 1108786 1095964 1092709 1102375 1125330 1158019 1194931 1228723 
3220.335 1253046 1264644 1262417 1249225 1229420 1208321 1191011 1181110 
3224.193 1180578 1189383 1205397 1225134 1244074 1258330 1264145 1260523 
3228.050 1248161 1229852 1209816 1192273 1181309 1179017 1185927 1200613 
3231.908 1220383 1240884 1257100 1264511 1259327 1239987 1207856 1166923 
3235.765 1123536 1084803 1056503 1041391 1039099 1046008 1057168 1067630 
3239.623 1074672 1077562 1078093 1078127 1079455 1082445 1086132 1089454 
3243.480 1091646 1093971 1098655 1108155 1124366 1146591 1172106 1196194 
3247.337 1213671 1221014 1216861 1202640 1182538 1162039 1147056 1142206 
3251.195 1150146 1171342 1202839 1239289 1274480 1300933 1313562 1310205 
3255.052 1293023 1267568 1241848 1223008 1215166 1217990 1226530 1233341 
3258.910 1231414 1216429 1189482 1156624 1126160 1106096 1101711 1112540 
3262.767 1134133 1158219 1177090 1184565 1178219 1158916 1129848 1095167 
3266.625 1058430 1022293 989182 961453 941861 933327 937412 954513 982142 
3270.964 1015950 1050857 1082877 1109683 1131841 1151940 1172937 1195961 
3274.822 1219452 1239123 1249158 1244606 1222808 1185828 1139648 1092609 
3278.679 1053215 1028272 1020733 1030165 1052883 1084172 1119550 1155860 
3282.536 1191110 1224735 1255372 1281359 1299969 1308544 1305519 1291295 
3286.394 1268698 1241981 1215997 1194533 1178419 1166525 1155727 1143003 
3290.251 1127057 1109484 1094735 1088225 1094569 1115131 1147189 1184332 
3294.109 1218190 1241383 1249524 1242446 1223240 1197623 1170545 1145395 
3297.966 1122506 1100150 1076864 1051787 1027109 1006418 994861 996356 
3301.823 1012297 1040893 1077927 1117191 1152837 1180346 1197290 1203138 
3305.681 1199251 1187921 1172006 1154897 1140179 1130246 1126825 1129515 
3309.538 1136160 1143103 1146824 1144432 1136060 1123968 1111909 1104535 
3313.396 1105000 1113736 1128818 1146358 1161807 1172106 1175661 1173335 
3317.253 1167222 1159647 1152637 1147621 1144531 1142937 1142538 1142438 
3321.111 1142139 1141575 1140312 1138751 1137389 1137322 1140046 1146824 
3324.968 1158319 1174033 1192639 1212209 1231049 1248228 1263879 1278700 
3328.825 1293588 1307779 1319910 1326490 1323998 1309873 1283386 1246965 
3332.683 1205497 1165960 1134930 1117457 1115663 1127589 1148485 1171741 
3336.540 1191144 1203005 1206527 1204467 1202241 1205198 1216894 1237860 
3340.398 1264843 1291395 1309873 1314227 1300966 1271423 1230085 1184831 
3344.255 1144099 1114899 1102209 1107823 1130711 1167588 1213937 1264411 
3348.113 1313861 1357899 1392933 1416833 1429432 1431427 1424546 1410750 
3351.970 1392035 1369399 1344637 1319212 1295682 1277139 1266737 1266604 
3355.827 1277271 1296480 1321040 1345668 1366042 1379737 1385520 1384058 
3359.685 1377077 1365743 1351384 1334234 1314625 1293156 1271124 1250421 
3363.542 1232444 1218821 1209517 1204633 1203570 1206361 1213438 1225599 
3367.400 1243543 1266903 1294320 1323798 1352747 1379570 1403470 1424546 
3371.257 1443162 1458987 1469925 1472884 1464206 1441334 1404135 1355140 
3375.115 1299770 1243908 1193336 1151342 1118154 1091580 1068095 1045509 
3378.972 1022792 1001968 986758 980548 985961 1002566 1027375 1055673 
3382.829 1081913 1102043 1114533 1120280 1122008 1122971 1125828 1131409 
3386.687 1139249 1147455 1154033 1157754 1157887 1154996 1149681 1143502 
3390.544 1137887 1135196 1137887 1148750 1170079 1202606 1244373 1290897 
3394.402 1335497 1371261 1392268 1395925 1383127 1358530 1328052 1298374 
3398.259 1273516 1254309 1239024 1224868 1209218 1191210 1172106 1155096 
3402.116 1143302 1139747 1145229 1158750 1178286 1200247 1221213 1237927 
3405.974 1247331 1247131 1235701 1213139 1181043 1143502 1105598 1073144 
3409.831 1051322 1042188 1045410 1057035 1071484 1083275 1087760 1083574 
3413.689 1072646 1058928 1047336 1042553 1047270 1061419 1082511 1106959 
3417.546 1130446 1149747 1162804 1169216 1170345 1167421 1162505 1156757 
3421.404 1150976 1145727 1141608 1139216 1139714 1144000 1152405 1164000 
3425.261 1177654 1190479 1200347 1205065 1204334 1198918 1190944 1182671 
3429.118 1176226 1172239 1169814 1167089 1161541 1151010 1134930 1114234 
3432.976 1091281 1068627 1048532 1032124 1018972 1007348 995392 982009 
3436.833 967098 952587 941197 936349 940201 953915 976762 1007083 1041490 
3441.173 1076532 1108222 1132439 1145761 1146226 1133768 1111178 1084106 
3445.030 1060423 1047735 1051986 1074074 1109351 1147289 1176292 1187223 
3448.888 1176425 1146923 1106760 1066103 1033254 1012164 1002134 998083 
3452.745 994164 986160 973973 961885 956206 962151 982142 1013459 1049562 
3457.085 1081448 1102508 1108753 1100880 1082976 1061353 1041557 1026943 
3460.942 1018574 1014920 1013293 1010703 1005356 996688 985131 971714 958066 
3465.282 945281 934124 925026 918551 914799 914467 918020 926720 940799 
3469.621 959892 981943 1003529 1020234 1027475 1022260 1003629 973939 937943 
3473.961 901651 871669 852845 846803 852347 865660 880567 890926 892321 
3478.301 881762 860348 831598 802418 780975 774203 786020 816261 859917 
3482.640 908889 955343 993101 1019271 1034881 1042188 1043483 1040627 
3486.498 1034018 1022626 1007282 989813 974238 965206 966036 977161 995426 
3490.837 1014987 1030132 1036442 1033586 1024751 1015585 1011234 1014256 
3494.695 1022426 1030231 1029999 1015385 984201 939039 887174 836843 796145 
3499.034 770154 759765 762619 774303 790203 806701 821805 835449 848762 
3503.374 862174 874691 884053 887407 882360 868183 846471 821241 796709 
3507.713 777523 765474 759532 755217 746919 729893 703674 672014 641916 
3512.053 621674 616996 630235 658939 697268 737692 774270 803713 825457 
3516.393 840827 850289 853708 848994 834188 808659 774436 736597 701749 
3520.732 675199 660266 656583 660930 668562 675963 681803 687180 694049 
3525.072 703209 713033 719670 718973 708685 690034 668330 650908 643741 
3529.411 649614 666571 689104 710212 724881 730324 726209 713862 694182 
3533.751 667036 631496 588129 540487 495935 464787 456197 474009 514545 
3538.091 566132 614308 644437 647557 622902 577777 524530 476894 445848 
3542.430 436462 447938 475335 512455 553591 595329 635312 671449 699824 
3546.770 715887 715455 697733 665841 626121 585740 551402 526620 511559 
3551.109 502735 495404 485187 470028 451022 431652 415865 407043 407143 
3555.449 416429 434737 460276 490395 520582 545463 559065 557042 537932 
3559.789 504526 464257 426113 398188 384591 384657 393545 404357 410791 
3564.128 409365 399581 383530 364561 345195 325929 306100 285709 266147 
3568.468 251096 243835 245658 255571 269728 283322 291379 289953 277752 
3572.807 255240 224806 190197 155525 124800 102230 91360 94442 111941 141372 
3577.629 177004 211479 237569 250333 249372 239028 226463 219469 223049 
3581.969 237967 261174 286770 308057 319562 318203 302586 272778 230641 
3586.308 179292 124336 73795 34957 13154 7885 15540 31047 49737 68990 87946 
3591.612 106572 124999 142267 155525 161260 156984 143692 126590 115189 
3595.952 118669 142433 186253 243537 303116 352357 381772 386216 367313 
3600.292 332096 290185 250830 219601 199081 189402 189568 198750 216319 
3604.631 240818 268932 295689 314655 319330 306531 277652 239459 201037 
3608.971 170541 151680 142798 139350 136633 131263 122082 110946 100838 
3613.310 94475 93646 97325 102595 106505 105147 95469 74458 40392 -6792 
3618.132 -63049 -120359 -168056 -196374 -199752 -179185 -139405 -87233 
3621.990 -28461 32472 92453 149625 202098 247813 284747 310908 324304 322779 
3626.811 304044 265584 206441 130832 50035 -20277 -69840 -97833 -110454 
3631.151 -114595 -115688 -116881 -119166 -121849 -122976 -120756 -113734 
3635.008 -102504 -88790 -75638 -65799 -61492 -64440 -74843 -92202 -115423 
3639.348 -142916 -172726 -202335 -228167 -245652 -250553 -239757 -212734 
3643.205 -171633 -120856 -66064 -12690 33665 67035 80755 68460 24586 -52017 
3648.027 -154112 -266845 -370545 -446450 -485705 -491033 -474816 -450654 
3651.885 -428973 -414276 -406530 -403418 -402094 -400107 -396764 -392394 
3655.742 -389779 -390706 -395241 -400902 -403517 -399346 -385773 -362467 
3659.599 -330684 -294329 -258169 -227836 -209058 -205912 -220086 -250354 
3663.457 -292375 -338961 -381602 -412985 -428211 -426391 -410767 -387859 
3667.314 -365976 -352436 -352370 -365811 -386303 -403021 -408085 -400074 
3671.172 -385211 -372598 -369353 -380212 -407092 -449859 -505198 -564005 
3675.029 -609999 -628263 -615095 -579922 -536506 -495468 -461576 -436387 
3678.886 -418579 -406066 -395936 -385674 -374154 -362004 -351542 -345748 
3682.744 -347205 -357236 -374617 -396598 -418777 -437678 -450488 -456479 
3686.601 -456347 -451945 -445358 -439201 -435229 -434666 -437877 -445358 
3690.459 -456446 -470083 -484381 -497388 -507052 -513737 -517775 -521349 
3694.316 -526909 -536373 -550504 -568142 -586076 -599874 -604937 -597658 
3698.174 -576249 -540874 -493813 -439366 -383886 -335418 -301315 -286216 
3702.031 -289097 -304825 -325949 -346510 -364156 -379583 -394943 -412256 
3705.888 -431720 -450587 -463893 -465118 -449396 -415434 -367234 -313765 
3709.746 -268037 -241910 -241446 -264229 -299461 -335816 -365678 -388124 
3713.603 -406728 -425861 -447178 -469487 -488750 -499870 -497653 -479880 
3717.461 -447145 -404974 -361308 -324757 -301680 -295322 -304262 -324194 
3721.318 -349423 -374352 -395970 -415070 -434600 -458862 -490570 -528828 
3725.176 -569267 -604838 -627370 -632962 -622738 -602819 -580749 -563377 
3729.033 -554541 -554806 -562251 -574032 -587268 -601033 -616948 -637990 
3732.890 -667237 -704884 -746266 -782616 -803783 -802956 -780433 -744777 
3736.748 -707133 -675011 -650133 -630811 -613474 -596202 -578995 -563542 
3740.605 -553251 -551861 -562847 -588558 -630348 -686689 -749110 -800939 
3744.463 -821576 -797234 -730653 -633491 -517510 -390441 -258103 -127149 
3748.320 -5897 93680 159006 181778 162387 110350 39630 -34491 -100881 
3752.660 -152687 -186902 -203825 -205382 -195612 -179615 -163585 -153979 
3756.517 -155967 -172660 -203560 -244957 -290024 -332041 -365678 -388124 
3760.375 -399445 -402756 -402094 -401564 -405305 -415997 -435097 -461576 
3764.232 -491199 -516749 -529755 -524857 -501525 -465118 -423379 -384747 
3768.089 -356309 -341245 -339855 -347966 -359256 -367632 -370578 -368393 
3771.947 -364156 -361176 -361474 -365612 -373127 -381635 -388521 -391368 
3775.804 -388223 -379583 -367069 -354323 -345549 -344656 -353032 -368459 
3779.662 -384714 -394281 -392262 -377563 -353032 -323930 -296647 -276581 
3783.519 -266746 -267276 -275488 -286812 -297276 -305024 -311182 -317241 
3787.376 -325055 -335352 -347205 -358825 -368559 -375378 -379947 -383158 
3791.234 -386402 -390540 -395705 -401730 -408615 -416725 -426689 -438870 
3795.091 -452805 -466541 -476603 -480244 -475279 -461808 -440624 -411925 
3798.949 -374451 -325717 -263335 -189286 -112839 -52017 -23723 -34126 -75274 
3803.288 -133642 -195811 -251811 -295984 -325585 -340054 -342239 -337173 
3807.146 -330386 -326049 -325420 -327969 -332770 -340054 -350085 -363493 
3811.003 -379980 -398320 -416096 -430992 -441187 -446053 -445358 -439929 
3814.861 -430926 -419771 -408118 -398154 -391434 -388786 -390276 -395142 
3818.718 -401498 -407092 -408847 -404775 -395771 -386138 -382231 -388256 
3822.575 -403517 -425001 -448833 -471705 -490735 -504106 -509666 -505364 
3826.433 -489941 -462801 -425199 -380410 -332869 -288236 -252143 -229823 
3830.290 -223795 -233697 -254494 -279064 -299759 -312242 -316381 -315420 
3834.148 -313997 -314957 -318963 -324128 -326777 -324228 -316778 -308699 
3838.005 -306083 -313930 -332869 -357998 -381999 -397823 -402094 -394778 
3841.863 -379748 -361408 -344556 -332108 -324327 -319526 -315321 -309229 
3845.720 -300587 -289296 -277044 -265653 -257176 -253235 -255620 -265554 
3849.577 -283501 -309427 -342504 -380808 -421128 -458399 -484977 -494508 
3853.435 -486731 -468295 -448800 -433673 -423908 -417751 -413249 -408284 
3857.292 -401928 -393023 -381536 -367433 -351476 -335352 -322175 -315586 
3861.150 -319360 -335451 -363030 -396896 -429171 -450554 -454626 -440260 
3865.007 -412422 -379682 -350549 -329459 -316877 -311149 -309792 -312010 
3868.865 -319559 -335716 -363692 -402557 -446516 -488055 -520356 -539186 
3872.722 -542330 -530847 -508475 -481932 -458035 -441220 -432184 -429039 
3876.579 -429536 -431257 -433839 -436950 -440062 -441386 -437314 -423511 
3880.437 -397161 -359719 -315950 -272740 -236214 -210151 -196572 -195711 
3884.294 -206872 -226975 -250454 -271349 -284097 -286250 -278534 -263435 
3888.152 -243731 -222239 -201971 -185411 -175111 -171865 -174912 -182265 
3892.009 -191141 -200149 -209522 -219523 -230617 -242473 -253666 -263037 
3895.866 -269561 -273435 -276051 -280057 -286978 -297375 -309063 -317804 
3899.724 -318698 -308931 -289197 -263534 -238201 -218430 -207568 -205945 
3903.581 -211178 -219821 -229591 -239757 -251679 -267309 -287905 -313831 
3907.439 -343828 -375809 -407192 -435560 -458101 -472731 -478159 -473856 
3911.296 -461047 -442478 -421790 -403517 -390805 -384846 -384449 -385939 
3915.154 -384549 -375378 -356111 -327803 -295686 -266481 -246513 -239228 
3919.011 -245122 -261514 -284495 -309494 -332968 -351906 -364685 -369817 
3922.868 -367069 -357038 -341908 -326082 -314394 -311083 -317606 -332240 
3926.726 -350251 -366539 -375147 -372233 -355945 -327605 -290653 -250752 
3930.583 -214125 -186438 -171732 -171699 -185411 -209621 -238698 -266845 
3934.441 -288269 -298037 -294163 -276879 -249262 -216675 -185510 -161067 
3938.298 -146162 -140333 -140531 -142552 -142982 -141061 -138577 -139538 
3942.156 -148348 -167758 -197268 -233598 -271879 -308202 -340020 -366804 
3946.013 -388322 -404113 -412687 -412323 -401266 -380245 -352535 -323930 
3949.870 -300852 -288468 -288700 -299693 -316877 -333862 -345483 -348496 
3953.728 -342603 -330220 -314858 -300521 -289561 -282740 -279627 -278766 
3957.585 -278038 -276018 -271978 -266349 -260322 -255520 -254295 -257706 
3961.443 -266481 -279428 -294163 -307772 -317904 -324062 -328201 -333134 
3965.300 -342537 -358163 -379417 -402325 -420995 -430330 -427020 -411760 
3969.157 -388025 -361772 -337769 -318169 -301415 -284230 -262772 -235486 
3973.015 -204620 -175210 -154211 -146162 -152555 -170143 -192068 -209720 
3976.872 -216079 -207336 -183788 -149143 -109527 -72690 -44927 -31641 -35982 
3981.212 -57815 -93792 -138312 -184318 -224855 -255454 -274826 -284759 
3985.069 -289759 -293965 -299759 -306746 -311447 -309427 -297441 -275289 
3988.927 -246778 -217801 -196208 -186504 -190081 -203329 -220186 -234161 
3992.784 -240883 -239128 -231710 -223597 -219358 -222206 -231810 -245486 
3996.642 -258169 -265256 -263335 -252109 -233532 -211443 -190876 -175376 
4000.499 -167360 
##END=
