##TITLE=lancol_2 25.08. 10:51:24 2026
##JCAMP-DX=5.01  $$ Nicolet v. 970
##DATATYPE=INFRARED SPECTRUM
##ORIGIN=Vojna akademija
##OWNER=Nicolet
##LONGDATE=2026/08/25
##TIME=10:52:08
##SPECTROMETER/DATA SYSTEM=Nicolet iS20
##DATA PROCESSING=
Ratio against background
%Transmittance->Absorbance
Truncated
ElementMultiply or ElementDivide
##COMMENTS=
Number of sample scans: 8
Collection length: 11,90 sec
Sample gain: 8,0
Background collected on: Tue Aug 25 10:50:12 2026 (GMT+02:00);
Number of background scans: 8
Background gain: 8,0
Sample spacing:  1,000
Number of scan points: 12415
Resolution points: 8286
Number of FFT points: 65536
Apodization: N-B strong;
Phase correction: Mertz;
Laser frequency: 15798,00 cm-1
Number of rejected sample scans: 0
Number of rejected background scans: 0
Bench serial number: BER2010005;
##RESOLUTION= 4,000
##XUNITS=1/CM
##YUNITS=ABSORBANCE
##FIRSTX=400.156891
##LASTX=4000.123047
##FIRSTY=0.001087
##MAXX=4000.123047
##MINX=400.156891
##MAXY=0.261433
##MINY=-0.008055
##XFACTOR=1.000000
##YFACTOR=1.000000E-009
##NPOINTS=7468
##DELTAX=0.482117
##ZPD=6100
##XYDATA=(X++(Y..Y))
400.157 1086796 -439267 -1084447 -901568 -31178 1273749 2694718 3868680 
404.014 4498098 4432149 3720174 2633043 1585272 1018308 1212175 2231435 
407.871 3911373 5939717 7912651 9457937 10346035 10513832 10068418 9213308 
411.728 8187037 7192998 6384277 5863440 5669567 5796545 6201666 6831447 
415.585 7634291 8568677 9602152 10682643 11702207 12470124 12714514 12222464 
419.442 10986345 9228132 7250439 5312434 3593300 2206724 1253977 815996 
423.298 929276 1561827 2586942 3811251 5014584 6035729 6793582 7286019 
427.155 7563077 7691656 7722516 7671151 7517225 7221936 6753263 6108608 
431.012 5325650 4468537 3598412 2735895 1842444 831830 -382794 -1845219 
434.869 -3499660 -5185869 -6651194 -7652967 -8055197 -7870480 -7240948 
438.244 -6362645 -5420458 -4525116 -3713053 -2959630 -2211919 -1419228 
441.619 -557685 364726 1321638 2287491 3247151 4193579 5108883 5951474 
445.476 6650162 7128323 7326151 7238243 6929036 6521017 6152328 5923056 
449.333 5880904 6016310 6286743 6636502 7020250 7404101 7760361 8059290 
453.190 8260447 8318367 8197707 7881541 7380981 6729841 5989165 5234456 
457.047 4547683 4010349 3677801 3572186 3682579 3981356 4433823 5001445 
460.904 5641873 6293634 6878438 7314795 7523024 7452603 7090196 6459031 
464.761 5614651 4647273 3685654 2871324 2351016 2223009 2499621 3095853 
468.617 3855041 4599786 5161355 5430082 5356880 4958980 4308013 3524683 
472.474 2760903 2160302 1840813 1865271 2234433 2899876 3775687 4755126 
476.331 5711430 6529022 7116433 7424728 7456614 7254650 6879986 6391573 
480.188 5850880 5324778 4888907 4630829 4621620 4887265 5384790 6004786 
484.045 6588663 6973041 7055373 6817849 6335221 5728284 5126350 4617836 
487.902 4236304 3971993 3789023 3648429 3515964 3366210 3174549 2912351 
491.759 2554978 2095606 1563557 1022891 565966 277785 208297 365290 713829 
496.098 1193170 1738073 2302114 2863152 3415799 3956812 4463817 4890381 
499.955 5178623 5273863 5159343 4873661 4513164 4194449 4016970 4031250 
503.812 4229010 4559135 4950937 5339336 5665773 5886379 5971931 5908042 
507.669 5701896 5385763 5015858 4656583 4366077 4181034 4103694 4104229 
511.526 4131557 4137946 4095900 4012255 3922674 3879211 3925683 4082855 
515.383 4339068 4653536 4967225 5220808 5374994 5415587 5353726 5213665 
519.240 5027322 4823435 4623595 4443731 4291716 4169091 4072822 3997976 
523.097 3939559 3896696 3873160 3876336 3913011 3984198 4079277 4176283 
526.954 4248918 4270601 4225297 4110316 3935446 3719539 3489042 3274325 
530.811 3102761 2996452 2966126 3008496 3107967 3241042 3383741 3516232 
534.667 3630520 3731570 3834282 3956010 4108042 4286864 4472923 4631331 
538.524 4721293 4710474 4582473 4346097 4035564 3706840 3419840 3229592 
542.381 3169643 3242444 3418605 3645756 3869048 4044293 4157482 4228943 
546.238 4307845 4449355 4689473 5028327 5424915 5806317 6088312 6209195 
550.095 6143591 5915432 5583537 5225000 4905427 4662545 4503354 4408149 
553.952 4342147 4265448 4145640 3961861 3708611 3398568 3066154 2766672 
557.809 2564877 2528915 2704520 3099424 3674426 4350514 5024540 5590149 
561.666 5974820 6149472 6135223 5986410 5773309 5555211 5366809 5218192 
565.523 5099764 4995982 4893799 4790736 4694664 4619543 4577551 4576044 
569.380 4612277 4674535 4743435 4796800 4815160 4785443 4706588 4590677 
573.237 4462511 4352824 4292653 4305402 4400785 4572964 4803132 5067681 
577.094 5342086 5607971 5853264 6066539 6234875 6341139 6365347 6291080 
580.951 6111465 5832779 5473700 5063256 4637494 4232557 3887402 3634563 
584.808 3493518 3465428 3530996 3655045 3794939 3917425 4004396 4057270 
588.665 4092656 4131691 4187992 4259124 4326753 4363734 4348874 4276256 
592.521 4159958 4028641 3913079 3832009 3789257 3775185 3775486 3779798 
596.378 3787519 3805769 3846450 3916522 4014161 4129483 4247580 4355266 
600.235 4444133 4512427 4560842 4590142 4599015 4585454 4550864 4502517 
604.092 4453741 4419229 4409789 4428635 4471550 4531277 4601929 4683076 
607.949 4776465 4880128 4982843 5059871 5079917 5017501 4864881 4642282 
611.806 4394660 4181736 4052186 4029678 4101319 4227036 4348841 4413471 
615.663 4391548 4280941 4104831 3898468 3697282 3524148 3388650 3290717 
619.520 3226120 3191705 3185230 3203255 3238872 3279466 3309547 3312185 
623.377 3275026 3191806 3066187 2910149 2743197 2592475 2483625 2439173 
627.234 2468463 2563977 2698885 2832335 2922025 2932132 2850178 2689117 
631.091 2486691 2290089 2142587 2070870 2077561 2144585 2241826 2339989 
634.948 2417049 2463365 2480360 2476127 2461399 2447370 2448270 2479027 
638.805 2554911 2687883 2881597 3127890 3407384 3695144 3965172 4196858 
642.662 4378862 4504961 4571591 4575843 4514570 4388167 4204486 3980854 
646.519 3739925 3506445 3298429 3121216 2969028 2828366 2687350 2542979 
650.375 2405554 2296884 2244891 2272002 2388629 2587509 2845042 3123118 
654.232 3378932 3575026 3683348 3694241 3617289 3479890 3317427 3165304 
658.089 3048802 2976034 2938804 2919256 2900843 2876360 2853847 2851112 
661.946 2889035 2979170 3117778 3285843 3459383 3617790 3750720 3860390 
665.803 3951496 4022387 4052453 3994096 3790961 3427722 2967761 2519750 
669.660 2170325 1955826 1872159 1902343 2026393 2226906 2488957 2798652 
673.517 3141007 3494520 3829268 4108544 4290879 4344155 4256882 4048206 
677.374 3762852 3462623 3208996 3042663 2981706 3017939 3127957 3280501 
681.231 3450632 3624506 3797513 3969719 4139218 4297103 4428702 4514637 
685.088 4537605 4488222 4366679 4185249 3964971 3735681 3527322 3364406 
688.945 3261405 3221146 3239172 3309581 3431997 3613547 3866206 4198598 
692.802 4608191 5075224 5566487 6037543 6450254 6782913 7037424 7235817 
696.659 7411111 7591231 7785694 7982539 8154387 8272908 8321069 8303878 
700.516 8245521 8184268 8155839 8184302 8278245 8430616 8624711 8841651 
704.373 9067090 9291259 9510394 9723847 9934150 10147404 10373216 10625427 
708.229 10917671 11260062 11656223 12102247 12589249 13107633 13652213 
711.604 14223940 14829127 15474403 16162800 16891836 17654670 18444292 
714.979 19258904 20102670 20984556 21911514 22884288 23892572 24919414 
718.354 25942464 26941098 27897268 28791778 29599480 30285216 30803724 
721.729 31112540 31182918 31010396 30617558 30051228 29370612 28631244 
725.104 27883276 27161602 26484652 25859110 25281668 24742874 24230112 
728.478 23732370 23242540 22762062 22300530 21876564 21512646 21227802 
731.853 21032894 20925722 20889702 20895890 20910562 20902670 20849200 
735.228 20742456 20590012 20412444 20236718 20089726 19989724 19939282 
738.603 19923358 19914478 19880276 19792806 19639344 19425434 19172080 
741.978 18905618 18648900 18411934 18191958 17978034 17760832 17540462 
745.352 17328822 17144172 17003462 16913056 16864898 16839684 16814472 
748.727 16773384 16713740 16646219 16586628 16547697 16528834 16514171 
752.102 16475590 16383504 16217554 15973385 15664151 15316007 14960767 
755.477 14623843 14321904 14057956 13824746 13608688 13398273 13189907 
758.852 12991780 12822785 12707895 12670742 12722771 12857187 13048457 
762.227 13259317 13448065 13581509 13644896 13641955 13591868 13518029 
765.601 13439761 13363692 13284768 13191308 13074920 12935828 12785418 
768.976 12641609 12522742 12439913 12393408 12373600 12366066 12356861 
772.351 12336305 12300889 12252183 12194009 12130016 12062319 11991362 
775.726 11915173 11829055 11725967 11598026 11438723 11247242 11030729 
779.101 10805118 10590047 10401790 10247607 10121322 10006160 9882285 
782.475 9738316 9576746 9416896 9286113 9211378 9205151 9260185 9348300 
786.332 9433014 9477375 9457293 9368648 9225255 9054707 8886020 8746471 
790.189 8653035 8611463 8615417 8650197 8696168 8732475 8745762 8733151 
794.046 8705768 8684235 8694004 8752185 8859810 8998008 9133003 9230366 
797.903 9266582 9242347 9184034 9136386 9142274 9230433 9403047 9637552 
801.760 9894861 10136075 10335041 10485929 10599723 10696092 10794418 
805.135 10905915 11032598 11170708 11315050 11460938 11605581 11745098 
808.510 11873593 11983597 12070427 12134819 12186068 12238652 12308047 
811.885 12401488 12513125 12622472 12701072 12718199 12652321 12498053 
815.259 12267758 11988739 11694786 11422224 11198994 11040245 10946315 
818.634 10903978 10890727 10880467 10853356 10797984 10715042 10613509 
822.009 10506092 10401315 10300160 10196315 10080592 9948185 9802906 9656829 
825.866 9527328 9427596 9360285 9315936 9276568 9225559 9154490 9070339 
829.723 8990499 8937935 8926908 8955996 9005823 9047164 9048956 8992055 
833.580 8876449 8721116 8556443 8412609 8313402 8268586 8276218 8326405 
837.437 8408724 8515285 8641577 8784371 8937022 9086782 9215947 9302971 
841.294 9329274 9284657 9169786 8997299 8790356 8579627 8395651 8265513 
845.151 8208444 8232048 8333397 8499506 8712631 8949299 9184947 9397122 
849.008 9564484 9671905 9711073 9683459 9599679 9480287 9352464 9241163 
852.865 9166774 9138010 9151580 9194694 9250335 9302836 9341124 9360590 
856.721 9361132 9345626 9317290 9279648 9237981 9198382 9168365 9154355 
860.578 9158314 9177028 9202342 9225187 9238760 9242313 9241332 9244378 
864.435 9258797 9287332 9327142 9372914 9420181 9469179 9523908 9588839 
868.292 9663300 9737706 9793485 9810633 9775388 9688270 9566924 9442698 
872.149 9350433 9315428 9348335 9442021 9578169 9733708 9891064 10040374 
876.006 10178710 10304741 10413363 10493362 10531076 10514511 10440039 
879.381 10315835 10160326 9997583 9850186 9735944 9663910 9634842 9642973 
883.238 9679359 9733741 9796400 9861100 9924997 9988734 10056040 10128919 
887.095 10205508 10277123 10327508 10338604 10295037 10191091 10034406 
890.470 9845000 9649816 9472431 9329274 9225729 9158517 9119298 9101433 
894.327 9100654 9113614 9135879 9158787 9169346 9155810 9110500 9034849 
898.183 8938205 8834144 8732779 8636372 8538229 8427204 8295941 8146825 
902.040 7993406 7857822 7762486 7718873 7725788 7769030 7829482 7891089 
905.897 7948656 8008830 8085856 8191460 8327284 8480416 8628362 8742752 
909.754 8802258 8799824 8743259 8652900 8551814 8460752 8390888 8343564 
913.611 8313774 8295299 8286957 8294455 8329074 8403049 8523429 8686162 
917.468 8873406 9056535 9204136 9287129 9290108 9214425 9078357 8910269 
921.325 8740826 8594699 8484031 8409029 8362378 8335965 8324953 8330357 
925.182 8357041 8409501 8487882 8586588 8694849 8801582 8897519 8977577 
929.039 9040330 9085056 9109824 9110602 9083838 9029639 8953596 8869111 
932.896 8792114 8736295 8709352 8709758 8728655 8753672 8775379 8789748 
936.753 8799080 8809156 8826029 8852066 8884870 8918351 8945207 8960902 
940.610 8964250 8957789 8947643 8941351 8946459 8969696 9014416 9079338 
944.467 9156757 9232396 9289024 9309200 9283236 9212394 9112260 9007548 
948.324 8927348 8896166 8926199 9015532 9148534 9302869 9452654 9576848 
952.181 9662013 9702127 9699045 9661064 9602185 9538370 9487128 9462746 
956.037 9471280 9510191 9568041 9630268 9683425 9722186 9750481 9780471 
959.894 9825376 9894047 9987004 10096259 10209816 10317091 10414279 10503580 
963.751 10589232 10671573 10741669 10781850 10770607 10690217 10536780 
967.126 10323266 10079167 9839103 9637519 9497254 9425226 9413781 9445339 
970.983 9499624 9557913 9608351 9645378 9668585 9681019 9687456 9692641 
974.840 9700433 9712970 9729404 9746279 9756885 9753124 9726964 9671262 
978.697 9581590 9456582 9299010 9115406 8918250 8725071 8555260 8428217 
982.554 8357041 8343598 8376936 8435109 8490214 8514407 8489200 8409062 
986.411 8282230 8126265 7963775 7816156 7698603 7619656 7581318 7580677 
990.268 7610585 7661674 7723325 7783704 7833227 7865312 7878639 7876480 
994.125 7865886 7853470 7843213 7833935 7820947 7798513 7763903 7720593 
997.982 7677929 7649871 7649129 7682887 7748825 7835623 7924495 7994959 
1001.839 8032322 8029655 7990977 7928544 7859778 7800233 7760698 7744170 
1005.695 7746733 7761474 7780938 7801110 7821959 7844765 7870103 7894734 
1009.552 7912010 7914440 7898648 7869327 7840818 7835116 7872667 7966475 
1013.409 8113909 8297596 8487917 8653678 8772673 8836173 8851019 8834144 
1017.266 8804861 8776358 8752828 8730987 8704957 8671390 8633059 8597031 
1021.123 8572192 8565196 8577666 8607711 8652359 8709555 8778793 8859675 
1024.980 8948217 9034849 9106406 9148060 9149313 9109045 9034984 8941622 
1028.838 8844458 8756208 8683018 8627652 8591184 8576720 8589224 8632215 
1032.695 8703774 8792656 8879425 8941690 8960529 8928668 8852608 8752353 
1036.553 8652495 8575469 8536540 8540527 8583682 8657802 8753064 8859337 
1040.410 8965197 9058294 9123832 9148669 9125761 9057177 8954644 8836850 
1044.267 8724192 8630829 8564048 8523530 8505587 8507412 8529173 8572699 
1048.125 8637285 8715267 8790661 8840096 8842294 8784371 8669497 8516975 
1051.982 8359270 8231811 8162288 8165192 8236201 8356535 8495856 8623630 
1055.840 8714862 8755701 8745322 8696033 8630457 8573003 8547489 8568136 
1059.697 8635696 8737005 8849192 8945985 9003320 9008495 8961814 8875536 
1063.555 8768210 8659356 8564318 8490180 8436562 8397475 8364304 8328567 
1067.412 8284560 8230764 8170189 8110432 8062463 8039072 8050852 8103410 
1071.269 8194938 8315024 8444771 8561377 8642355 8669159 8632350 8532890 
1075.127 8381024 8195545 8000595 7823106 7686293 7607719 7593557 7638068 
1078.984 7723022 7822060 7908197 7957195 7955744 7904587 7816662 7711790 
1082.842 7611968 7534149 7484660 7459210 7442929 7415627 7357929 7257548 
1086.699 7114850 6945803 6778504 6648278 6589369 6622136 6747778 6944624 
1090.557 7176121 7394866 7558020 7638506 7628187 7539645 7398371 7235951 
1094.414 7079587 6948530 6854067 6800650 6789543 6820945 6893587 7003480 
1098.271 7143110 7300002 7457255 7597131 7703460 7763161 7769637 7721740 
1102.129 7624377 7488638 7331307 7173662 7036312 6935837 6878674 6858981 
1105.986 6859217 6856591 6831178 6773288 6688048 6595626 6525053 6502114 
1109.844 6544394 6652618 6812430 6996476 7174201 7319647 7415223 7454794 
1113.701 7441817 7387283 7304686 7209943 7119060 7044899 6997958 6983345 
1117.558 7000046 7040825 7094339 7148432 7193167 7224968 7246732 7266679 
1121.416 7294476 7338013 7399888 7476368 7557682 7631324 7685045 7708350 
1125.273 7694927 7642958 7554951 7437772 7303136 7167362 7049412 6969843 
1129.131 6946981 6991796 7104881 7274226 7478525 7689531 7881507 8036777 
1132.988 8149324 8224888 8278312 8327689 8386530 8461090 8548165 8638366 
1136.846 8719629 8782513 8823459 8845574 8856294 8864850 8879527 8905331 
1140.703 8944226 8995708 9058226 9128874 9204813 9282119 9356663 9424549 
1144.560 9483911 9535864 9584774 9637925 9704228 9790401 9900250 10032812 
1148.418 10182509 10339418 10491156 10625392 10730596 10798120 10824786 
1151.793 10812760 10770369 10710559 10649263 10600029 10571646 10564346 
1155.168 10570899 10577722 10569710 10535761 10471333 10380308 10273968 
1158.544 10168365 10079065 10019249 9995955 10009144 10052038 10112606 
1161.919 10177116 10232443 10270202 10288455 10292017 10290015 10292492 
1165.294 10306641 10333751 10368499 10401553 10424189 10431113 10422730 
1168.669 10404302 10382650 10361508 10339316 10307964 10256937 10176810 
1172.045 10064145 9922827 9764883 9606352 9461797 9343188 9256733 9202715 
1175.902 9177333 9174286 9185014 9199669 9208096 9200650 9169482 9111109 
1179.759 9027372 8925015 8814228 8705701 8608285 8526977 8463454 8417136 
1183.617 8386766 8371498 8371127 8385415 8413285 8452136 8497647 8544548 
1187.474 8587028 8620318 8641138 8647965 8641544 8624949 8602371 8579357 
1191.332 8561479 8553166 8557018 8572969 8599566 8633432 8671187 8709250 
1195.189 8743970 8771422 8787922 8790356 8777812 8752557 8720406 8689204 
1199.047 8667300 8660404 8669396 8690015 8716045 8740555 8759454 8773113 
1202.904 8784406 8797896 8815378 8836004 8856327 8872121 8880575 8883957 
1206.761 8886629 8895117 8913651 8942840 8978897 9015634 9045607 9063166 
1210.619 9066042 9054098 9029063 8993341 8949570 8900968 8851728 8807026 
1214.476 8771895 8749818 8742583 8750021 8770848 8804963 8853926 8919603 
1218.334 9001967 9097068 9194558 9280426 9339194 9359981 9340548 9287975 
1222.191 9216218 9141292 9076158 9026391 8990601 8963404 8939288 8916695 
1226.048 8898195 8887880 8889672 8903910 8926402 8950889 8972470 8988976 
1229.906 9003421 9021114 9047535 9085936 9135135 9189888 9242517 9286249 
1233.763 9315056 9325787 9319254 9297657 9266379 9231212 9198416 9173035 
1237.621 9156046 9144575 9133036 9115812 9091281 9064417 9047299 9054268 
1241.478 9096628 9176622 9284286 9400000 9499591 9564789 9588704 9578474 
1245.336 9550496 9524551 9513883 9520352 9535593 9545855 9539691 9513003 
1249.193 9471483 9427020 9393364 9379109 9386525 9412359 9451468 9500099 
1253.050 9557981 9627287 9709954 9804059 9902149 9992938 10064246 10107518 
1256.908 10119490 10103754 10068858 10025555 9984224 9954084 9942049 9951880 
1260.765 9983885 10034542 10096801 10160462 10216567 10258599 10285096 
1264.141 10298905 10305963 10311526 10318449 10326762 10335279 10344304 
1267.516 10357573 10382175 10425343 10491529 10578911 10678297 10775362 
1270.891 10856345 10911249 10937514 10940538 10930039 10916039 10905473 
1274.266 10901124 10902517 10907546 10914885 10924194 10936087 10950291 
1277.641 10965990 10981316 10995283 11008570 11023830 11044697 11073962 
1281.017 11112202 11157584 11206372 11255743 11304643 11354196 11406679 
1284.392 11462502 11519422 11572300 11614430 11641078 11651866 11651424 
1287.767 11649212 11654793 11675964 11716401 11774920 11847952 11930907 
1291.142 12020179 12113081 12207435 12301366 12392658 12481105 12568170 
1294.518 12658427 12757198 12868620 12992873 13124914 13255252 13374012 
1297.893 13474894 13558057 13630433 13701931 13781307 13870516 13963643 
1301.268 14047449 14107515 14132707 14119495 14073288 14006554 13933877 
1304.643 13866890 13812775 13772107 13741327 13713831 13683670 13645955 
1308.019 13598363 13541068 13476535 13408969 13342918 13282650 13230828 
1311.394 13187277 13148888 13110843 13068602 13019366 12963138 12902308 
1314.769 12839917 12777296 12713660 12646180 12572877 12494335 12415910 
1318.144 12346908 12297957 12277301 12286368 12319159 12363577 12405068 
1321.520 12430776 12433946 12414137 12377487 12332999 12291618 12262271 
1324.895 12250581 12258352 12284698 12326454 12379225 12438959 12501189 
1328.270 12562304 12619538 12672141 12721952 12773133 12832511 12907292 
1331.645 13003116 13122899 13265090 13423766 13590500 13757332 13918754 
1335.021 14074383 14228664 14389988 14567646 14767351 14987758 15219397 
1338.396 15444532 15641686 15793296 15891820 15942965 15961766 15966406 
1341.771 15971873 15985554 16010443 16045991 16091859 16149217 16220374 
1345.146 16306749 16407248 16517855 16631933 16743112 16848468 16950056 
1348.522 17054392 17169576 17301306 17450048 17609882 17769530 17918086 
1351.897 18046660 18152020 18236152 18304368 18363784 18420578 18480456 
1355.272 18550128 18636932 18750634 18900634 19093478 19331438 19611786 
1358.647 19929636 20282612 20677432 21134634 21690318 22387040 23264250 
1362.023 24334038 25564688 26878350 28175562 29369050 30402970 31260178 
1365.398 31947616 32484322 32896652 33220128 33505078 33812704 34215116 
1368.773 34776672 35537124 36511816 37694496 39074532 40651772 42446504 
1372.148 44493908 46821288 49416500 52186644 54949224 57479484 59568232 
1375.524 61090040 62005684 62318540 62036640 61156332 59676792 57632580 
1378.899 55120656 52298976 49337504 46391844 43565508 40905448 38427496 
1382.274 36130748 34011212 32061718 30264896 28587890 26983264 25400424 
1385.649 23799496 22169612 20539776 18970582 17528042 16255595 15158662 
1389.025 14217675 13405210 12699093 12085825 11556851 11102718 10710117 
1392.400 10363036 10046783 9754073 9486045 9250470 9054640 8897078 8767704 
1396.257 8654151 8549111 8454737 8380010 8334512 8320900 8330155 8345861 
1400.115 8354272 8351670 8346131 8351197 8379672 8436088 8514474 8599025 
1403.972 8671288 8718208 8739777 8748230 8760773 8789173 8834077 8887373 
1407.829 8937732 8976224 8999700 9010457 9013536 9014077 9015228 9020065 
1411.687 9034003 9065466 9124814 9219366 9348503 9501725 9661606 9809921 
1415.544 9934116 10033354 10119355 10213343 10337416 10506601 10720034 
1418.920 10960553 11204604 11437430 11656631 11867940 12075469 12280336 
1422.295 12481957 12683297 12896062 13140179 13434975 13790815 14200556 
1425.670 14646324 15109326 15581888 16073739 16610313 17225904 17951858 
1429.045 18803258 19771270 20828238 21940476 23081600 24235576 25393750 
1432.421 26550196 27698356 28836992 29979010 31155898 32422840 33846412 
1435.796 35473228 37276612 39140448 40910108 42480452 43842556 45060652 
1439.171 46222576 47413480 48693864 50093596 51609444 53213140 54862596 
1442.546 56512264 58129696 59694848 61199972 62648088 64050280 65427272 
1445.922 66806136 68217768 69684344 71207840 72767960 74330328 75871064 
1449.297 77396976 78942896 80560904 82296504 84166280 86142224 88155656 
1452.672 90125856 91976360 93669240 95203896 96599120 97871792 99012016 
1456.047 99971680 100675488 101088872 101265888 101309064 101298888 
1458.940 101251696 101148088 100966320 100703360 100371536 99987736 99555064 
1462.316 99051728 98421312 97582280 96444560 94948728 93098360 90946872 
1465.691 88554488 85948576 83111352 80021120 76684088 73155520 69510912 
1469.066 65833592 62176212 58517524 54782072 50864380 46712432 42422900 
1472.441 38281420 34639104 31699076 29434358 27662372 26171504 24821592 
1475.817 23551800 22367262 21298960 20367716 19565650 18860524 18213104 
1479.192 17593490 16987334 16395101 15823638 15278527 14758952 14258966 
1482.567 13773919 13305711 12862647 12457576 12100885 11796028 11538919 
1485.942 11320253 11130048 10960858 10809194 10669060 10525679 10355774 
1489.318 10134007 9852287 9532443 9219704 8958127 8770172 8654658 8592739 
1493.175 8559553 8530829 8489436 8426257 8339578 8233026 8111005 7974574 
1497.032 7823342 7658605 7488806 7328443 7192122 7086929 7009407 6946476 
1500.890 6882915 6807852 6719847 6626039 6539348 6473055 6434784 6424023 
1504.747 6428563 6424494 6375165 6247681 6040063 5799198 5583772 5418473 
1508.605 5293349 5191633 5104189 5031244 4977011 4945038 4932940 4931298 
1512.462 4927478 4910789 4875771 4823167 4756801 4681367 4599685 4512662 
1516.319 4422074 4333647 4257016 4201877 4171867 4163069 4162935 4153201 
1520.177 4112959 4028608 3907428 3782338 3694709 3665671 3689931 3745974 
1524.034 3809947 3860590 3883858 3872893 3828766 3758942 3673824 3583445 
1527.892 3494253 3411124 3337260 3274525 3223049 3180290 3141007 3098990 
1531.749 3049370 2992415 2936702 2897207 2888468 2912651 2960154 3016637 
1535.607 3072928 3127490 3184996 3253660 3342168 3454273 3581039 3691802 
1539.464 3736316 3672421 3502470 3278298 3061182 2890603 2777977 2717857 
1543.321 2699686 2712955 2746999 2789982 2829067 2853513 2856482 2837404 
1547.179 2799986 2751867 2702386 2662912 2642077 2643444 2663579 2694351 
1551.036 2728693 2763738 2800886 2842073 2886400 2927829 2955217 2957852 
1554.894 2931765 2882531 2823063 2768573 2735162 2736228 2778810 2851579 
1558.751 2917088 2933900 2899876 2844675 2792783 2752100 2720824 2694718 
1562.609 2670114 2644777 2618375 2592375 2568577 2549979 2538880 2538447 
1566.466 2552711 2586342 2644110 2727526 2831568 2939805 3028682 3078300 
1570.323 3084941 3061449 3027915 3000989 2988478 2992482 3009564 3034722 
1574.181 3062417 3088445 3109936 3125655 3134766 3136334 3129559 3114842 
1578.038 3093651 3068089 3040427 3012300 2984775 2958953 2935968 2918189 
1581.896 2908281 2909716 2925427 2956351 3001523 3057011 3117011 3174750 
1585.753 3224117 3260571 3281202 3285242 3273557 3250155 3221013 3194409 
1589.610 3178321 3177687 3193708 3222915 3258601 3294356 3326509 3355190 
1593.468 3384041 3416935 3455141 3495355 3529794 3549737 3550171 3532867 
1597.325 3506278 3481360 3469069 3475548 3500867 3540283 3586518 3634162 
1601.183 3680274 3725755 3771676 3817601 3860089 3893420 3912176 3914683 
1605.040 3904051 3886867 3870552 3860824 3859353 3863265 3866541 3862128 
1608.898 3845213 3812855 3764490 3700658 3623136 3534337 3439110 3343537 
1612.755 3254161 3177052 3116444 3073629 3046667 3030217 3015737 2993483 
1616.612 2958853 2914886 2870857 2835737 2814693 2808089 2812792 2824164 
1620.470 2836537 2843574 2838838 2817294 2777743 2725459 2670647 2624075 
1624.327 2591309 2570410 2553978 2533048 2500354 2453101 2394926 2335059 
1628.185 2285559 2256082 2249520 2262010 2285859 2313139 2338257 2359244 
1632.042 2376568 2392727 2409985 2430310 2454468 2482126 2512118 2542480 
1635.900 2569876 2591409 2603908 2605775 2596675 2577976 2552111 2522516 
1639.757 2493289 2467497 2447070 2431709 2419848 2409919 2401556 2396158 
1643.614 2396358 2404888 2422746 2447270 2469263 2474161 2447870 2385164 
1647.472 2295951 2198665 2109257 2035215 1978127 1937454 1912726 1905172 
1651.329 1918517 1956259 2016839 2085319 2134762 2150712 2146117 2140723 
1655.187 2146550 2164831 2192071 2222343 2251052 2274734 2292920 2308043 
1659.044 2323433 2341421 2361043 2377568 2383365 2370038 2333060 2275566 
1662.901 2209188 2149280 2106694 2084819 2080291 2086917 2097471 2106794 
1666.759 2110956 2107293 2093942 2070836 2039875 2006220 1978593 1965911 
1670.616 1973633 2002692 2049596 2108958 2173955 2237397 2290788 2323766 
1674.474 2326864 2295951 2238263 2169659 2108758 2067141 2046766 2043804 
1678.331 2049862 2054856 2048498 2023930 1979558 1920048 1853957 1791303 
1682.189 1742797 1719610 1734281 1794398 1891693 1998764 2087916 2147582 
1686.046 2179117 2187275 2176253 2149846 2113453 2075730 2048065 2039509 
1689.903 2055689 2094075 2147282 2205991 2264375 2320868 2378967 2443872 
1693.761 2520150 2605875 2689550 2747165 2752801 2697118 2595709 2476661 
1697.618 2362609 2265707 2188041 2127071 2079026 2041373 2014376 1997300 
1701.476 1988179 1983486 1980190 1976862 1974599 1976596 1987780 2012279 
1705.333 2049530 2092377 2128669 2148281 2147249 2129668 2105229 2086950 
1709.191 2086950 2112620 2164132 2234666 2313173 2387029 2446404 2485825 
1713.048 2504520 2505620 2494156 2475861 2454168 2430177 2401722 2365841 
1716.905 2320368 2267972 2215416 2171258 2140656 2123841 2117282 2116249 
1720.763 2116183 2112221 2100634 2078494 2044369 2000096 1950667 1902942 
1724.620 1864406 1840813 1836055 1850763 1882775 1928202 1980956 2033783 
1728.478 2080225 2114418 2133863 2139391 2135195 2127271 2121344 2121344 
1732.335 2128403 2139790 2148082 2143054 2116782 2070670 2012346 1950601 
1736.193 1890795 1835290 1785814 1744294 1712225 1690471 1677032 1667885 
1740.050 1658373 1646931 1636321 1632962 1642940 1669848 1712159 1762591 
1743.907 1810900 1848833 1873590 1888865 1902210 1922411 1954029 1995535 
1747.765 2038544 2071635 2085984 2079692 2059683 2037512 2023697 2021200 
1751.622 2024496 2023697 2011014 1983619 1943645 1895986 1845938 1797625 
1755.480 1753043 1713157 1678330 1650058 1630468 1621422 1623218 1633494 
1759.337 1647596 1659238 1661632 1650989 1627807 1598408 1571770 1556008 
1763.194 1553847 1563490 1580583 1600869 1621322 1640678 1658506 1674538 
1767.052 1688674 1701082 1712791 1726563 1746157 1775400 1816790 1869264 
1770.909 1926937 1979891 2015541 2026759 2015308 1991175 1964613 1940616 
1774.767 1918350 1893058 1859780 1815692 1762059 1703776 1648162 1600769 
1778.624 1565386 1542707 1530537 1524884 1521726 1518600 1514876 1511352 
1782.482 1508958 1507827 1506929 1504336 1498119 1487113 1472185 1455895 
1786.339 1441467 1432258 1430264 1435649 1447118 1461680 1475942 1486681 
1790.196 1492234 1492898 1490438 1486548 1480431 1468163 1444293 1404600 
1794.054 1349457 1283419 1215830 1157156 1117124 1101943 1112208 1143269 
1797.911 1187223 1236764 1286011 1332074 1373155 1406329 1426407 1426939 
1801.769 1402706 1352980 1283286 1204334 1128054 1064940 1020367 993267 
1805.626 977526 964409 947373 923698 896537 873562 864996 878874 918950 
1809.966 982275 1060622 1140478 1206959 1248494 1258263 1235302 1183502 
1813.823 1109982 1023456 932962 848164 777622 728333 705532 711008 743268 
1818.163 797340 864731 934025 992802 1030098 1039000 1018441 973973 916559 
1822.502 858257 810186 779415 767565 771382 785091 804709 828610 858755 
1826.842 897533 945746 1001071 1057865 1107258 1141143 1154332 1147787 
1830.699 1126592 1097359 1064575 1030464 996522 965272 940201 924993 920377 
1835.039 922469 923399 914102 888635 848496 802983 767000 754255 771216 
1839.379 814070 871005 927384 969954 992005 994131 983271 969124 960324 
1843.718 960357 966800 973508 975932 972677 964874 952620 933659 903776 
1848.058 859352 800560 734108 671748 627216 610293 624827 666737 726939 
1852.397 795016 861942 922569 975965 1022360 1061220 1089586 1103438 1100482 
1856.737 1083275 1060556 1043085 1041557 1058629 1088258 1115463 1123436 
1860.594 1099718 1042919 964442 885415 829739 815099 849990 930737 1044114 
1864.934 1170943 1291761 1390639 1455828 1480331 1460749 1399581 1305519 
1868.791 1196991 1097127 1026279 996754 1010437 1060622 1134465 1217990 
1872.649 1297942 1364081 1411581 1439971 1451307 1448647 1433588 1406395 
1876.506 1367538 1320076 1270858 1230318 1211245 1222974 1268797 1342178 
1880.364 1427804 1505134 1554545 1563091 1528941 1460815 1375615 1294752 
1884.221 1237196 1213903 1225998 1265973 1320907 1375881 1418329 1437910 
1888.078 1428601 1389775 1325427 1245802 1163435 1092277 1043018 1021164 
1891.936 1027010 1055706 1099220 1145960 1183734 1200214 1185861 1136392 
1895.793 1053979 946875 826652 707590 603359 525293 481439 475103 504195 
1900.133 562881 644935 744895 858622 983072 1112939 1239323 1350088 1431460 
1904.473 1472850 1471354 1434120 1376778 1321671 1289700 1292459 1327786 
1908.330 1379039 1420989 1427272 1382662 1289335 1168152 1049462 962848 
1912.187 927317 944252 996854 1054577 1085268 1062250 976065 837043 674967 
1916.527 531463 447606 453775 553823 723321 919082 1101844 1243775 1333769 
1920.867 1370862 1356968 1291894 1172471 998448 777589 531364 294031 103357 
1925.206 -8184 -22364 56729 201501 366915 508308 589191 595727 537866 444488 
1930.028 350102 284383 264291 292804 364229 470393 605051 763847 941263 
1934.368 1127223 1304489 1450443 1542940 1565186 1513879 1402905 1265242 
1938.225 1143003 1081216 1116992 1269595 1536190 1886502 2266307 2597175 
1942.082 2802220 2828966 2664179 2338756 1912660 1459153 1039265 698098 
1945.940 459016 326327 292208 342674 462399 632293 832295 1041225 1237960 
1950.279 1409819 1554279 1680325 1802848 1935224 2081157 2231535 2364575 
1954.137 2457000 2493789 2474761 2413717 2332660 2251618 2177219 2102166 
1957.994 2009649 1883307 1716184 1514544 1291927 1064010 837507 608734 
1961.852 374045 137428 -78321 -234161 -289726 -221842 -41249 206374 447606 
1966.191 609364 649647 572867 432548 306399 268302 353916 553624 817689 
1970.531 1079754 1269728 1334267 1250122 1027475 708154 351893 37608 -153284 
1974.870 -151628 83605 544932 1164863 1828302 2410852 2802687 2940305 
1978.728 2825198 2511085 2083488 1621787 1185728 800028 465948 178165 -64043 
1983.068 -247507 -349887 -351641 -242109 -26804 273375 624661 986293 1317816 
1987.407 1583376 1760762 1842244 1837220 1766650 1661067 1554345 1472119 
1991.265 1425609 1406395 1391071 1351783 1270392 1148385 1006950 878144 
1995.122 791265 763017 789472 849260 912574 954048 960656 936947 899227 
1999.462 870175 866191 894047 948502 1018042 1087029 1140943 1169382 1166525 
2003.801 1131343 1068295 989348 910018 850023 824925 837640 880069 929642 
2008.141 963678 965671 936117 890030 856630 867353 942625 1090716 1303791 
2012.480 1564654 1848566 2130201 2385564 2589242 2717623 2746298 2656645 
2016.338 2443538 2123108 1739869 1356204 1043948 864863 853376 1017279 
2020.195 1330645 1741300 2175021 2556711 2824097 2941773 2911450 2765838 
2024.053 2558611 2341788 2155241 2009283 1887267 1755206 1585571 1372623 
2027.910 1142073 939703 816859 802784 891192 1040029 1190379 1293622 1325626 
2032.250 1297909 1244373 1204367 1195695 1207424 1205397 1155096 1042553 
2036.107 887573 739319 660963 703109 883223 1184864 1563590 1963515 2330761 
2040.447 2629476 2842140 2967394 3010966 2981272 2887968 2744398 2571776 
2044.304 2394526 2234333 2100634 1986415 1869730 1723602 1529939 1290730 
2048.161 1030065 785821 595860 484092 451918 481008 542444 606876 650278 
2052.501 662755 646694 616664 595926 612151 691693 851218 1091413 1391636 
2056.841 1714654 2009782 2228704 2341421 2344120 2263842 2149813 2058385 
2060.698 2027026 2065310 2150912 2239695 2281995 2241560 2106893 1893058 
2064.555 1632131 1358730 1101213 874193 681969 526620 413179 352125 356337 
2068.895 432680 576848 770054 984765 1187888 1355705 1476907 1555975 1607819 
2073.235 1652319 1708034 1785181 1885370 2001227 2118714 2219279 2284426 
2077.092 2299416 2256148 2157505 2017405 1859115 1707701 1585504 1504835 
2080.949 1467032 1463142 1478369 1497952 1509323 1503970 1477039 1425078 
2084.807 1345302 1238392 1109816 971316 841093 738622 677224 661627 682899 
2089.146 723952 763017 785190 786286 775863 771216 790302 844944 935054 
2093.486 1049296 1170079 1280761 1370961 1438176 1486648 1521593 1545534 
2097.344 1555476 1544403 1505067 1432358 1327520 1197357 1053514 909653 
2101.201 779946 676427 608203 579967 591049 635644 702114 774900 838171 
2105.541 878144 885913 859352 802817 725611 640290 562914 508971 493215 
2109.880 525558 607606 730590 873296 1008079 1106262 1146458 1122340 1044878 
2114.220 937810 826950 732946 661992 606046 548449 473876 378290 272347 
2118.559 178297 123143 127982 199910 331334 504095 700488 908424 1126459 
2122.899 1358497 1607154 1864539 2109324 2307543 2425412 2437374 2337624 
2126.756 2142454 1889963 1629304 1407260 1259925 1203171 1230351 1316453 
2130.614 1428402 1532798 1604826 1638250 1643239 1644437 1668019 1731652 
2134.471 1831729 1942846 2019769 2015841 1901544 1677398 1376645 1060223 
2138.329 798767 645798 628278 734606 923034 1133070 1309009 1414207 1438209 
2142.668 1395094 1316287 1242346 1208089 1238193 1340383 1505134 1703809 
2146.526 1893823 2031586 2076962 2010415 1836454 1582112 1285181 981245 
2150.383 693220 426014 170872 -82628 -334988 -569531 -757115 -868997 -889863 
2154.723 -828091 -711070 -574958 -439466 -296382 -109726 164607 547951 
2158.580 1013160 1483822 1852859 2023930 1950834 1641277 1155129 580266 
2162.438 18356 -447608 -754039 -863012 -766111 -480078 -49333 458651 958929 
2166.777 1369931 1637120 1743728 1717082 1615568 1511751 1462810 1494927 
2170.635 1599838 1745059 1890562 2008551 2092310 2150612 2199697 2248088 
2174.492 2294053 2327996 2343587 2346485 2355380 2394293 2478027 2600008 
2178.349 2728826 2820162 2836570 2761904 2614142 2438807 2296151 2232434 
2182.207 2267672 2387529 2555978 2727493 2863519 2941606 2952448 2894038 
2186.064 2767739 2576409 2328230 2044236 1760695 1521659 1370629 1334201 
2189.922 1411016 1570839 1762325 1931197 2031320 2038078 1949735 1784283 
2193.779 1568578 1331010 1096728 883423 704603 568189 476828 426876 409696 
2198.119 414804 433045 461504 503929 568156 661660 785954 934290 1092609 
2202.458 1243676 1370829 1461946 1508891 1506165 1451806 1344172 1187622 
2206.316 992669 780344 576782 409796 300729 256964 271949 328349 407043 
2210.655 493447 580863 669226 759964 850090 930704 988219 1011234 997119 
2214.995 954845 901617 858489 841757 855601 894180 943986 992005 1028903 
2219.334 1052783 1064874 1067630 1060157 1039099 1002964 954612 906100 
2223.192 875587 880335 931103 1024253 1142173 1255771 1335198 1359129 
2227.049 1318846 1221712 1086863 939636 802584 693386 623798 599344 620944 
2231.389 686450 789240 917057 1053946 1181143 1277870 1330146 1329249 
2235.246 1276839 1182871 1064807 942924 836312 761491 727138 735104 778319 
2239.586 843118 913836 974637 1016647 1038501 1048299 1058563 1083641 
2243.443 1132937 1206294 1294253 1379870 1444326 1472651 1458089 1404700 
2247.301 1325294 1236797 1156790 1097957 1066999 1063678 1082777 1116128 
2251.158 1154166 1187888 1212308 1224602 1227161 1226563 1232909 1254907 
2255.016 1297876 1359361 1428402 1486448 1513613 1495292 1427804 1321771 
2258.873 1198354 1084770 1002267 960656 954546 967497 978256 970652 941463 
2263.213 900821 867486 860049 889797 954646 1041657 1131974 1210547 1271090 
2267.552 1316752 1355340 1393797 1431726 1460749 1468063 1444259 1389177 
2271.410 1314659 1240818 1188286 1171275 1190479 1234338 1284184 1323765 
2275.267 1344670 1350254 1351949 1364247 1396191 1448481 1512648 1575994 
2279.125 1625812 1654082 1658206 1640778 1604826 1553015 1485817 1403769 
2282.982 1309640 1210581 1117756 1043816 999743 990278 1013127 1058098 
2286.839 1111344 1158219 1187290 1194034 1181010 1157289 1135030 1127888 
2290.697 1144963 1189881 1258363 1340383 1421753 1488211 1529939 1542840 
2294.554 1529506 1496290 1451905 1403271 1354974 1309673 1270226 1240685 
2298.412 1227759 1237827 1275942 1340881 1425177 1515042 1594018 1648328 
2302.269 1669682 1657574 1618495 1564122 1506996 1458588 1428468 1422817 
2306.126 1445622 1497653 1575595 1670447 1768513 1853491 1908999 1924175 
2309.984 1897417 1836654 1756703 1675669 1608950 1564388 1542208 1535558 
2313.841 1536389 1537088 1534860 1530637 1527511 1528376 1533430 1539814 
2317.699 1542774 1537121 1519598 1490139 1452437 1413277 1380867 1363815 
2321.556 1368203 1396889 1448149 1516007 1590958 1662464 1721972 1763523 
2325.414 1785015 1787078 1771740 1740701 1694462 1633627 1560597 1481229 
2329.271 1407526 1354741 1338289 1368269 1444492 1553946 1674471 1781854 
2333.128 1855288 1884838 1873623 1836122 1792801 1762691 1758832 1784183 
2336.986 1831729 1887866 1938952 1973134 1984118 1971936 1939551 1892758 
2340.843 1836654 1775899 1714321 1655845 1603961 1561362 1529340 1506863 
2344.701 1490338 1475111 1456560 1433056 1405963 1379437 1358763 1350155 
2348.558 1358896 1389110 1443894 1524652 1630202 1756270 1895687 2038444 
2352.416 2174088 2294252 2394592 2476461 2544779 2606475 2667413 2728693 
2356.273 2786080 2831234 2854480 2849244 2815426 2760303 2696418 2636210 
2360.130 2587542 2549912 2515817 2473728 2415216 2338856 2251752 2166030 
2363.988 2094175 2042039 2006886 1977661 1940716 1886868 1814960 1733150 
2367.845 1655546 1596678 1564787 1560032 1574264 1595747 1613174 1620124 
2371.703 1616666 1607853 1601168 1602299 1614371 1636587 1665158 1695194 
2375.560 1723003 1746124 1764454 1779093 1792634 1807573 1825341 1846603 
2379.417 1869896 1892592 1910496 1919615 1917252 1902942 1878815 1849598 
2383.275 1821614 1800220 1788675 1786912 1791237 1795495 1792801 1777662 
2387.132 1747221 1702412 1647230 1588198 1531435 1482725 1445423 1420623 
2390.990 1407426 1404069 1409121 1421920 1442331 1471088 1507528 1549491 
2394.847 1592654 1630667 1656477 1664293 1650823 1616632 1566084 1506663 
2398.705 1446387 1393431 1353511 1329515 1321738 1327986 1344604 1366740 
2402.562 1389542 1408091 1418396 1417831 1406096 1384856 1358198 1331476 
2406.419 1309806 1296878 1294286 1300900 1313828 1329648 1345967 1362685 
2410.277 1382230 1408889 1447717 1501477 1570274 1648993 1728725 1798157 
2414.134 1845671 1863807 1849897 1807739 1746057 1676700 1611710 1560231 
2417.992 1528110 1516871 1525416 1550255 1586502 1629071 1671810 1708200 
2421.849 1732584 1740801 1731819 1708034 1674438 1636820 1599239 1562958 
2425.707 1526181 1485684 1440037 1391005 1345069 1311069 1297477 1308743 
2429.564 1342743 1390706 1440403 1479998 1501211 1501610 1483988 1454332 
2433.421 1418263 1379637 1340449 1301498 1264511 1233009 1211843 1206029 
2437.279 1217924 1245902 1283585 1322369 1352614 1366275 1359295 1331642 
2441.136 1287341 1233042 1177189 1128685 1095034 1081913 1091115 1120214 
2444.994 1162671 1209185 1250687 1279863 1293954 1294918 1288404 1281392 
2448.851 1280362 1289667 1310006 1340217 1377044 1416368 1453235 1482592 
2452.708 1499249 1498617 1479134 1442231 1394163 1343707 1301863 1278003 
2456.566 1277670 1301132 1344305 1399016 1455662 1505766 1542275 1560630 
2460.423 1558835 1537487 1499415 1449113 1392733 1337159 1287773 1248527 
2464.281 1220449 1202606 1192506 1187755 1187721 1192672 1204168 1223872 
2468.138 1252780 1290996 1337691 1391504 1451074 1514244 1578188 1638882 
2471.996 1691535 1731220 1754507 1760030 1748785 1723902 1689373 1648594 
2475.853 1605258 1562326 1523754 1494295 1479034 1482093 1504702 1544137 
2479.710 1593685 1644703 1689473 1723170 1744793 1756503 1761394 1760662 
2483.568 1753509 1736044 1704708 1658639 1600702 1537786 1478502 1431327 
2487.425 1400046 1384822 1382063 1386451 1393365 1400379 1407326 1414739 
2491.283 1423548 1433222 1442198 1448880 1451872 1450709 1446653 1441699 
2495.140 1438109 1438973 1446852 1464107 1492001 1529440 1572735 1615003 
2498.998 1647164 1661699 1653616 1623816 1578188 1527145 1481428 1448415 
2502.855 1431194 1426108 1426141 1422983 1411249 1389509 1361721 1334999 
2506.712 1317484 1315489 1331309 1362685 1403337 1444758 1478436 1499349 
2510.570 1506597 1504868 1502042 1507062 1526547 1561462 1606423 1651322 
2514.427 1685348 1700084 1693897 1671810 1644503 1623284 1616799 1628406 
2518.285 1655778 1692600 1731919 1768680 1799588 1822845 1836587 1838018 
2522.142 1824442 1795562 1754973 1710396 1672841 1651621 1650856 1666954 
2526.000 1689406 1705173 1703443 1680758 1642574 1602132 1574264 1571172 
2529.857 1598607 1654648 1732384 1822213 1916587 2009449 2096605 2174688 
2533.714 2238729 2283893 2306744 2307343 2290489 2264941 2241094 2226806 
2537.572 2224974 2232468 2241993 2244358 2232268 2202927 2158071 2102898 
2541.429 2044203 1988379 1940050 1902077 1875753 1861544 1859115 1867501 
2545.287 1885171 1909931 1938852 1969839 2000795 2030388 2058185 2084187 
2549.144 2109058 2133431 2158304 2183413 2208156 2230636 2247888 2257014 
2553.001 2256148 2246189 2230603 2215250 2205658 2206158 2217414 2235898 
2556.859 2255515 2270070 2274833 2268838 2254916 2237630 2222110 2211486 
2560.716 2206890 2207057 2210287 2214717 2219346 2223542 2226839 2227972 
2564.574 2225973 2220012 2210687 2199797 2190606 2186376 2190040 2202894 
2568.431 2225607 2257980 2300182 2352215 2413784 2483359 2557711 2631809 
2572.289 2700286 2758069 2801787 2830267 2843808 2843041 2828900 2802520 
2576.146 2765838 2723358 2681882 2648777 2630909 2631409 2647777 2672614 
2580.003 2696252 2709855 2708921 2694751 2673381 2653311 2641577 2641910 
2583.861 2654145 2675348 2702253 2733194 2767973 2808123 2853914 2904279 
2587.718 2955984 3005527 3050304 3089846 3126122 3161966 3199416 3238004 
2591.576 3274492 3304372 3323737 3331250 3328779 3321834 3316993 3320298 
2595.433 3335891 3364807 3405714 3454707 3505910 3553111 3588690 3605996 
2599.291 3600684 3571752 3523280 3463892 3405547 3360199 3336692 3338963 
2603.148 3364106 3404679 3450198 3491648 3521977 3538846 3543022 3538479 
2607.005 3529126 3519104 3511288 3506879 3506177 3508282 3511422 3513760 
2610.863 3513426 3510052 3503906 3497326 3493017 3494019 3502336 3518069 
2614.720 3539414 3563500 3586418 3604593 3615184 3616754 3608602 3591028 
2618.578 3565271 3533869 3500165 3468267 3442583 3426954 3424115 3434802 
2622.435 3457680 3489911 3527623 3566707 3603490 3635598 3661995 3683448 
2626.292 3701593 3719205 3738588 3761148 3786817 3813590 3838895 3859654 
2630.150 3874932 3884995 3892684 3901076 3913580 3931167 3952365 3973899 
2634.007 3991555 4001754 4003627 3998143 3989147 3980620 3976173 3977845 
2637.865 3985837 3998744 4014663 4031685 4048206 4062821 4074561 4082421 
2641.722 4086033 4085832 4082922 4079845 4078775 4081752 4089244 4100048 
2645.580 4111588 4120953 4125770 4125035 4119348 4111220 4103794 4100382 
2649.437 4103760 4115802 4136943 4166648 4203148 4244201 4286763 4327891 
2653.294 4364906 4395999 4419664 4435564 4443698 4444167 4437304 4423882 
2657.152 4405137 4383849 4363299 4348105 4342449 4349611 4370160 4402258 
2661.009 4441924 4483200 4520295 4548487 4565463 4570653 4566401 4556322 
2664.867 4544435 4534726 4530741 4534659 4547817 4570519 4601527 4639067 
2668.724 4680162 4721829 4760117 4792244 4815629 4829131 4832783 4827858 
2672.582 4816299 4800519 4783667 4768491 4757671 4753987 4759279 4774722 
2676.439 4799647 4831141 4864513 4892894 4909750 4909850 4891219 4855969 
2680.296 4810335 4763299 4723671 4698516 4691013 4699889 4720255 4745679 
2684.154 4770368 4790301 4803668 4811038 4813719 4812747 4808593 4800988 
2688.011 4789798 4775661 4759949 4744674 4731107 4719551 4708866 4697009 
2691.869 4682071 4663047 4640742 4617367 4595667 4578154 4565999 4559135 
2695.726 4556824 4558298 4563789 4574370 4591113 4614252 4642852 4673664 
2699.583 4702435 4725279 4739482 4744540 4741927 4734491 4724408 4713287 
2703.441 4701296 4687865 4673295 4659129 4648077 4643756 4649047 4664119 
2707.298 4687162 4713488 4738510 4758375 4772478 4783399 4796298 4816299 
2711.156 4847458 4889879 4941184 4996082 5049110 5096479 5137013 5172185 
2715.013 5205482 5239856 5276881 5315453 5352753 5384555 5407838 5421492 
2718.871 5427062 5429041 5432967 5443972 5465077 5496282 5534471 5574005 
2722.728 5609213 5635059 5649459 5653387 5650970 5647512 5648116 5655904 
2726.585 5670708 5689239 5706025 5714955 5711497 5693402 5661443 5618981 
2730.443 5570783 5521048 5473129 5428672 5387440 5348460 5310187 5271850 
2734.300 5233048 5193880 5155520 5118774 5084980 5055178 5029735 5008685 
2738.158 4990988 4974766 4957472 4936559 4910119 4877682 4840422 4801222 
2742.015 4763902 4732615 4710474 4699086 4698215 4705885 4718647 4732682 
2745.873 4744774 4752412 4754824 4752579 4747488 4741659 4737037 4734993 
2749.730 4735797 4738845 4743568 4749431 4757001 4767252 4781322 4799447 
2753.587 4820721 4842265 4860459 4872019 4875001 4870142 4860492 4850909 
2757.445 4846419 4850608 4864613 4887298 4915380 4944971 4972621 4995982 
2761.302 5014383 5028025 5037545 5044317 5049378 5054440 5061312 5071738 
2765.160 5087326 5108715 5135537 5165747 5197602 5229125 5259374 5288553 
2769.017 5317499 5347520 5379054 5411729 5444844 5477189 5508698 5540679 
2772.875 5575583 5616866 5667217 5728082 5798123 5873952 5950398 6021450 
2776.732 6082802 6132131 6170040 6200154 6228118 6260052 6301030 6354050 
2780.589 6419114 6493302 6572145 6650902 6726106 6796275 6862381 6927353 
2784.447 6993985 7064533 7139236 7216883 7294746 7370331 7442356 7510955 
2788.304 7577980 7646060 7717929 7795274 7878504 7966981 8058548 8151586 
2792.162 8244103 8335153 8424264 8512447 8601560 8694849 8796003 8908544 
2796.019 9034476 9173847 9323350 9477409 9628880 9771626 9901166 10016943 
2799.876 10121864 10221520 10322147 10428602 10543874 10668517 10801143 
2803.252 10940572 11086436 11239863 11403039 11577846 11764843 11962275 
2806.627 12166849 12374282 12581029 12785213 12986830 13187584 13389115 
2810.002 13592483 13797383 14002379 14206684 14410539 14616784 14830224 
2813.377 15056256 15300458 15565437 15851162 16154615 16471220 16796012 
2816.753 17125284 17457532 17793176 18134260 18483982 18845956 19223472 
2820.128 19619930 20038126 20479960 20946758 21438668 21955358 22496112 
2823.503 23061090 23651610 24270474 24921520 25609322 26338382 27112504 
2826.878 27935782 28812276 29747456 30747456 31819816 32971538 34208948 
2830.254 35536512 36956960 38472384 40085256 41799644 43622180 45561748 
2833.629 47629100 49836428 52195124 54716824 57411524 60287320 63349368 
2837.004 66598668 70031320 73636464 77399112 81299080 85313296 89420488 
2840.379 93599688 97833608 102109264 106416744 110750208 115106728 119485240 
2843.755 123885648 128307000 132745592 137194064 141639088 146059376 
2846.648 150427568 154704960 158843472 162788656 166475360 169836432 
2849.541 172807312 175325808 177342064 178816832 179723152 180047808 
2852.434 179790528 178966336 177604976 175754336 173477824 170845968 
2855.327 167938288 164829872 161586816 158268512 154920512 151580800 
2858.220 148282368 145052416 141918592 138907504 136043792 133352576 
2861.113 130856632 128574000 126518832 124697152 123106760 121735912 
2864.006 120566320 119573464 118730136 118011656 117394464 116857672 
2866.899 116382440 115947544 115528512 115097664 114621592 114066800 
2869.792 113402056 112599216 111640328 110516288 109229208 107791736 
2872.685 106227216 104567848 102849880 101115136 99404584 97755376 96202560 
2876.061 94773736 93491192 92372280 91428312 90666760 90091328 89702168 
2879.436 89496456 89469792 89616752 89931240 90407960 91042000 91827824 
2882.811 92759248 93828200 95023736 96333240 97742264 99235568 100800256 
2886.186 102424920 104101664 105826168 107596728 109413448 111276368 
2889.079 113184168 115132864 117115152 119120664 121138152 123155896 
2891.972 125164288 127156424 129127576 131074920 132996512 134890720 
2894.865 136757536 138598624 140418880 142225584 144027536 145832448 
2897.759 147644720 149464256 151288240 153113712 154940304 156772704 
2900.652 158620464 160496304 162412016 164375408 166388688 168449216 
2903.545 170551840 172691296 174864848 177072736 179317344 181602352 
2906.438 183932144 186311840 188748512 191251104 193830096 196495984 
2909.331 199256208 202113904 205067184 208109920 211234400 214432608 
2912.224 217696336 221017392 224383936 227780128 231185680 234574992 
2915.117 237921648 241196656 244368720 247404128 250262464 252896368 
2918.010 255257520 257295168 258963888 260227856 261057888 261433072 
2920.903 261336416 260754112 259677264 258104592 256046944 253527664 
2923.796 250583344 247260272 243606608 239673568 235510704 231164144 
2926.689 226680160 222101328 217464752 212802944 208139120 203489648 
2929.582 198865920 194276320 189729904 185237776 180811296 176463552 
2932.475 172205984 168048048 163997936 160061920 156245488 152553728 
2935.368 148990368 145558656 142262064 139104192 136091424 133233864 
2938.261 130542888 128032968 125716720 123603064 121696488 119996328 
2941.155 118497552 117193792 116078112 115144656 114388304 113803832 
2944.048 113384720 113122600 113007480 113028152 113173416 113432128 
2946.941 113792120 114239704 114757072 115320752 115904320 116476456 
2949.834 117004264 117457640 117807128 118028136 118101496 118011912 
2952.727 117750200 117312240 116698296 115912104 114959648 113848064 
2955.620 112584832 111179544 109644120 107993080 106244528 104416336 
2958.513 102523680 100577072 98580072 96531248 94425784 92259496 90031800 
2961.888 87746168 85409928 83031952 80621408 78185376 75730696 73264552 
2965.263 70795480 68335376 65897756 63495724 61141532 58843208 56604880 
2968.639 54428320 52313928 50263452 48280228 46369468 44537148 42787448 
2972.014 41121324 39535884 38025216 36581596 35197620 33868620 32591746 
2975.389 31366658 30193956 29073940 28005928 26988660 26020170 25099502 
2978.764 24226012 23399100 22617426 21877574 21173734 20499724 19849024 
2982.140 19217826 18606116 18017508 17457980 16932692 16444515 15992155 
2985.515 15570177 15170980 14787062 14414101 14051556 13701931 13369809 
2988.890 13058803 12769517 12499041 12242265 11993474 11749149 11509181 
2992.265 11277370 11060332 10864262 10692866 10545470 10417232 10299380 
2995.641 10182137 10058041 9922386 9775287 9619970 9462542 9309132 9164879 
2999.498 9032920 8913718 8805674 8705734 8610212 8515893 8420447 8323400 
3003.355 8225834 8130012 8038835 7954765 7878775 7809645 7744541 7679413 
3007.213 7610619 7536037 7455839 7372960 7291376 7215232 7147927 7090465 
3011.070 7041734 6998665 6957654 6915031 6867969 6814483 6753667 6685457 
3014.928 6611000 6532218 6452473 6375064 6303652 6240656 6186407 6138718 
3018.785 6093588 6045942 5991080 5926449 5851719 5770052 5686452 5607233 
3022.643 5538297 5483565 5444475 5419849 5406127 5397840 5389420 5375833 
3026.500 5354230 5323268 5284528 5240460 5194148 5148244 5103720 5060239 
3030.357 5015892 4968800 4916989 4859856 4798408 4734625 4671387 4611406 
3034.215 4557193 4510050 4470378 4437873 4410927 4387899 4366746 4345963 
3038.072 4325113 4304833 4286629 4272843 4264979 4263675 4267757 4273914 
3041.930 4278598 4277595 4268292 4249554 4221951 4187055 4147213 4104362 
3045.787 4060079 4016067 3974601 3937854 3908565 3888672 3878175 3875032 
3049.645 3874531 3871221 3859755 3837123 3803663 3762953 3720341 3682245 
3053.502 3653074 3635031 3627012 3625708 3627479 3628883 3627980 3624840 
3057.359 3620396 3615952 3611976 3608502 3604326 3598846 3591630 3583411 
3061.217 3575093 3567776 3561262 3554547 3545060 3530662 3509384 3481160 
3065.074 3448528 3415098 3385010 3361334 3345040 3334322 3324973 3312485 
3068.932 3292620 3263542 3226254 3183795 3140940 3101526 3067522 3038525 
3072.789 3010732 2979771 2941439 2893772 2837838 2778110 2720857 2672814 
3076.646 2638810 2620509 2616075 2621409 2630776 2639077 2643277 2642443 
3080.504 2637476 2630009 2621342 2611775 2600675 2587209 2570910 2552045 
3084.361 2531681 2511419 2491990 2473095 2453568 2431376 2404921 2373203 
3088.219 2336891 2297683 2258280 2222177 2192537 2172457 2164864 2171191 
3092.076 2191471 2223842 2263276 2302980 2334925 2352948 2353581 2338057 
3095.934 2311740 2283627 2261777 2252418 2257347 2273801 2295751 2316604 
3099.791 2331261 2337191 2334892 2326398 2314305 2299915 2283427 2263875 
3103.648 2240627 2213751 2184645 2155507 2128536 2105695 2087383 2073600 
3107.506 2064045 2058918 2058651 2063978 2075098 2090679 2108924 2126571 
3111.363 2140723 2149613 2153076 2152577 2149846 2147116 2144918 2142820 
3115.221 2139391 2133231 2123541 2111089 2097771 2085751 2077162 2071968 
3119.078 2069205 2066242 2060649 2050761 2036680 2020401 2005388 1994470 
3122.936 1989677 1990576 1994737 1998331 1997799 1991474 1979891 1966510 
3126.793 1955693 1952232 1958655 1974599 1996700 2020368 2040575 2053525 
3130.650 2058485 2056854 2051827 2046766 2043804 2043537 2044236 2043471 
3134.508 2039110 2029889 2016606 2001094 1986215 1974266 1966643 1962816 
3138.365 1961152 1959454 1955593 1948337 1937987 1925672 1912759 1900579 
3142.223 1889564 1879380 1869597 1859947 1851694 1846836 1847801 1856919 
3146.080 1874023 1896818 1920347 1938319 1945808 1940250 1923908 1902576 
3149.938 1885404 1881244 1896153 1931563 1983153 2042705 2099236 2142654 
3153.795 2166429 2168128 2150013 2118347 2081290 2046267 2019170 2002659 
3157.652 1996268 1996367 1998198 1996800 1988379 1971603 1947838 1920281 
3161.510 1892925 1869164 1850530 1836355 1824609 1812364 1798556 1783651 
3165.367 1770875 1764954 1770476 1790505 1825308 1871460 1923110 1972934 
3169.225 2014176 2041540 2053025 2048930 2031786 2005388 1973733 1940416 
3173.082 1908699 1881277 1860679 1848899 1847601 1857418 1877317 1904606 
3176.939 1935257 1964347 1987447 2001627 2006087 2001594 1990642 1974832 
3180.797 1955327 1931929 1904107 1871594 1835789 1800087 1769644 1749583 
3184.654 1744128 1754274 1778261 1811167 1846570 1878782 1903108 1916953 
3188.512 1919682 1911794 1894888 1871427 1844673 1818719 1798623 1789207 
3192.369 1793699 1812564 1843010 1879414 1914656 1941348 1954229 1951000 
3196.227 1932362 1900812 1860712 1815658 1768746 1721939 1676434 1632530 
3200.084 1590526 1550089 1511451 1474180 1439040 1407160 1380435 1361887 
3203.941 1354542 1360491 1380634 1413576 1456394 1504236 1552018 1594916 
3207.799 1628871 1651820 1662663 1662331 1652585 1636022 1615369 1592887 
3211.656 1570706 1550056 1531900 1516738 1504669 1495558 1488543 1482193 
3215.514 1474779 1464605 1450975 1434785 1418562 1405930 1400346 1403769 
3219.371 1415770 1433056 1450276 1462677 1466999 1462777 1452437 1440569 
3223.229 1431759 1428934 1433322 1443528 1457258 1471886 1485518 1497254 
3227.086 1507062 1514909 1520695 1524286 1524851 1522091 1515741 1505866 
3230.943 1492234 1474912 1453734 1429565 1404235 1380368 1361754 1350520 
3234.801 1348061 1352880 1361621 1369798 1373255 1369831 1359129 1343175 
3238.658 1325327 1309541 1298540 1295283 1301132 1316719 1341513 1374252 
3242.516 1411315 1448415 1481129 1505932 1521460 1528708 1530570 1530038 
3246.373 1528343 1524519 1514909 1495459 1463708 1420158 1369233 1318314 
3250.230 1275012 1245171 1231082 1231481 1241981 1257067 1272386 1284483 
3254.088 1292326 1295749 1295649 1293489 1290631 1289468 1291727 1298906 
3257.945 1310671 1325261 1338754 1346698 1346066 1335996 1318414 1297876 
3261.803 1279232 1266172 1260124 1259327 1260955 1261686 1259958 1255771 
3265.660 1250953 1247597 1246699 1248361 1250521 1251119 1248494 1242313 
3269.518 1234172 1226829 1223439 1226928 1238625 1258330 1284117 1312831 
3273.375 1340549 1363549 1378839 1384889 1381299 1368901 1349224 1324031 
3277.232 1294885 1263248 1231447 1202905 1181708 1172372 1177953 1198420 
3281.090 1229753 1264544 1292791 1306151 1299537 1273516 1233175 1187356 
3284.947 1144897 1111378 1088856 1074971 1065671 1057035 1047535 1038667 
3288.805 1034051 1038202 1054079 1082412 1120978 1165162 1208653 1246301 
3292.662 1273417 1287740 1289933 1283187 1272320 1262949 1260025 1265208 
3296.520 1277737 1292558 1303392 1303658 1289733 1261420 1222875 1181110 
3300.377 1143435 1116161 1102774 1103505 1116161 1136990 1161176 1184067 
3304.234 1200945 1207557 1201776 1183668 1156923 1128320 1106063 1097924 
3308.092 1107690 1133668 1168784 1202839 1225965 1231879 1220383 1197024 
3311.949 1170578 1149913 1141375 1147089 1164564 1189183 1216628 1243443 
3315.807 1267800 1289634 1308477 1323399 1332772 1335065 1329348 1316553 
3319.664 1298939 1278999 1258961 1239422 1219087 1195928 1167986 1134731 
3323.521 1098456 1063113 1033885 1016182 1012994 1024984 1049595 1081947 
3327.379 1116228 1146724 1170378 1186459 1197257 1206726 1219087 1237229 
3331.236 1261387 1289102 1315855 1336627 1347628 1346997 1336162 1318181 
3335.094 1297311 1277604 1261586 1250421 1243842 1240818 1240220 1241350 
3338.951 1242911 1244108 1243543 1239887 1232278 1219818 1203304 1183369 
3342.809 1161674 1139648 1119317 1102442 1091081 1087162 1091812 1105797 
3346.666 1127655 1154996 1183602 1209916 1231148 1246267 1256203 1263248 
3350.523 1269994 1278501 1288836 1300036 1310238 1317616 1321006 1320209 
3354.381 1315822 1309108 1300767 1291162 1280495 1268465 1254940 1240319 
3358.238 1224902 1209185 1193868 1179581 1167255 1157853 1152338 1151109 
3362.096 1153601 1158019 1161807 1161940 1156425 1144465 1127157 1107425 
3365.953 1088690 1074274 1066402 1065438 1070819 1080551 1092775 1105531 
3369.811 1117291 1126492 1131642 1131608 1125596 1113902 1098422 1082711 
3373.668 1071384 1068760 1078260 1100515 1133768 1173103 1212873 1247331 
3377.525 1272619 1287141 1292060 1289933 1283951 1275577 1264644 1249557 
3381.383 1227659 1197124 1158252 1115165 1074008 1042421 1027475 1033054 
3385.240 1058795 1099253 1147056 1193237 1229653 1252182 1259260 1252548 
3389.098 1235335 1211445 1183834 1154764 1125596 1097924 1074108 1056404 
3392.955 1047502 1048864 1059559 1077396 1097625 1115397 1126692 1129515 
3396.813 1124499 1114334 1103139 1093905 1088756 1087494 1088490 1089919 
3400.670 1090716 1091447 1094370 1101744 1114799 1133070 1153933 1173003 
3404.527 1185529 1188718 1181342 1164797 1141774 1115862 1090085 1066833 
3408.385 1048333 1036940 1035147 1045144 1067929 1102807 1145628 1191011 
3412.242 1232079 1263215 1281758 1288205 1286144 1280129 1274513 1271821 
3416.100 1272619 1275377 1278235 1279731 1278368 1273450 1263846 1247862 
3419.957 1224170 1192406 1154265 1113603 1076499 1049130 1036044 1039033 
3423.814 1056570 1084770 1118287 1152870 1185263 1213505 1236930 1255406 
3427.672 1267734 1272951 1270359 1259759 1242712 1221911 1200646 1181675 
3431.529 1166757 1156093 1148119 1140611 1130878 1116194 1095267 1067996 
3435.387 1035911 1002400 972511 951823 944949 954679 980050 1017079 1059028 
3439.726 1098256 1128619 1146259 1150478 1143900 1130911 1115596 1102010 
3443.584 1093074 1089985 1093772 1104468 1121310 1142671 1165495 1186060 
3447.441 1200679 1206693 1203537 1191974 1173568 1150146 1123204 1093772 
3451.299 1063910 1036508 1015253 1004060 1004990 1017644 1037571 1058197 
3455.156 1072214 1074274 1063312 1042553 1019404 1000939 993334 998547 
3459.013 1014323 1035246 1055374 1069823 1075702 1073078 1062781 1046605 
3462.871 1025714 1001470 975600 950262 929309 916459 914666 924561 944285 
3467.210 969589 994496 1013758 1024054 1024319 1016681 1004758 993201 986459 
3471.550 987422 997020 1014024 1035080 1055839 1072879 1084305 1090816 
3475.407 1095599 1103272 1116726 1136724 1160212 1181010 1191941 1187223 
3479.265 1165229 1129283 1087062 1047934 1020566 1008444 1010038 1019172 
3483.122 1028305 1031062 1024519 1009939 990411 971183 955210 944219 937511 
3487.462 932829 927550 919315 907029 890395 869843 846172 821075 796443 
3491.802 774668 758072 748513 746554 751898 762420 776129 791265 806900 
3496.141 823299 841757 863469 889000 917655 947207 974504 995791 1007581 
3500.481 1007049 992736 965006 926221 881563 837607 801091 778684 774004 
3504.820 788078 819116 863801 916957 973242 1027242 1073277 1106362 1122905 
3509.160 1121310 1103305 1073377 1038701 1006452 982740 971582 973242 984533 
3513.500 1000241 1014489 1022161 1020334 1009208 991839 972478 955144 942193 
3517.839 933759 927616 920311 909487 894778 878144 864332 858257 863901 
3522.179 882094 909653 939968 965305 979518 979817 967995 949067 928679 
3526.518 911778 900920 896405 896670 900588 907561 918120 932962 951126 
3530.858 969523 983271 987422 978755 957966 929509 901684 882759 879106 
3535.198 892852 920045 952354 979684 994994 995226 982408 962615 942791 
3539.537 928612 923001 926454 936747 950827 965006 976364 982275 980614 
3543.877 970419 951458 925292 895110 865527 841192 825091 818054 818784 
3548.216 824295 831465 838304 844147 849658 856597 867021 882194 902580 
3552.556 926188 950096 970552 983703 986692 978223 959428 932364 902082 
3556.896 874259 854339 846172 850986 866723 888436 909719 924395 928513 
3561.235 921407 905801 887174 872267 868482 881928 916891 974139 1050060 
3565.575 1134897 1212275 1263846 1274845 1242213 1176259 1094901 1016050 
3569.432 951126 906100 881331 874359 880899 896803 917854 940068 960324 
3573.772 975068 981411 977659 963744 942326 917223 894080 876849 867951 
3578.111 866689 870806 877314 883987 890727 898563 908988 922071 935286 
3582.451 944584 945248 934622 913039 885016 858655 843217 846803 873064 
3586.791 918883 974570 1027973 1072214 1106594 1135761 1164664 1195729 
3590.648 1227327 1254309 1269794 1267933 1245138 1202440 1145129 1081349 
3594.505 1019504 965272 920975 886842 862539 848861 848230 862473 891657 
3598.845 932431 977393 1016249 1040594 1045410 1032656 1010271 989880 981743 
3603.185 992105 1021530 1065837 1117058 1165993 1204633 1227626 1233109 
3607.042 1223207 1202806 1177887 1152936 1130180 1109551 1089620 1069723 
3610.899 1049661 1030862 1015419 1005555 1002566 1006817 1016747 1030431 
3614.757 1045808 1061818 1078027 1094702 1111577 1127556 1140379 1146591 
3618.614 1142305 1125762 1098256 1063844 1028504 998182 977327 968194 971382 
3622.954 986160 1010703 1042553 1078824 1116460 1152206 1183037 1205165 
3626.811 1213405 1202042 1166757 1109318 1041989 985363 955011 955111 979087 
3631.151 1016714 1057732 1093307 1117058 1124632 1115696 1093539 1064707 
3635.008 1036376 1014057 1000806 997352 1002400 1013492 1027674 1041358 
3638.866 1051422 1055507 1052152 1041989 1027109 1011931 1001370 1000175 
3642.723 1011168 1034516 1067398 1105199 1142870 1175628 1199516 1213405 
3646.581 1218389 1218622 1220017 1227659 1242745 1260789 1273450 1273948 
3650.438 1260722 1237927 1212973 1192539 1180046 1175827 1177987 1183037 
3654.295 1186725 1184598 1173269 1152073 1123337 1091447 1060389 1031527 
3658.153 1004060 976330 947772 919116 893715 875620 868615 874757 893350 
3662.492 921208 953882 987024 1017777 1045941 1072945 1101711 1134665 
3666.350 1173036 1215764 1259526 1297709 1320641 1317583 1280063 1208786 
3670.207 1116327 1022958 947539 899758 882725 894910 934489 998780 1082511 
3674.547 1175063 1257100 1308809 1322402 1304888 1269861 1227826 1184133 
3678.404 1141442 1102209 1070288 1050292 1045908 1057500 1081216 1109717 
3682.262 1134266 1147089 1143701 1124765 1096562 1068461 1050027 1049130 
3686.119 1069657 1111212 1169149 1235767 1301398 1357699 1399348 1425244 
3689.977 1435449 1430396 1409786 1374585 1328052 1275676 1223506 1177222 
3693.834 1140046 1112374 1091613 1073510 1054112 1030497 1002699 973308 
3697.691 946742 927052 917190 917688 927251 941961 956206 964409 962084 
3702.031 948336 926288 901817 881265 869843 870939 885282 911379 946045 
3706.371 985131 1025316 1064475 1103239 1144930 1193204 1250720 1315855 
3710.228 1380401 1431028 1453402 1439738 1393166 1327188 1258662 1201576 
3714.085 1163800 1146358 1145528 1155561 1170046 1183236 1191343 1192772 
3717.943 1188187 1180213 1172006 1166624 1165794 1169149 1174299 1177189 
3721.800 1172671 1155993 1124632 1079621 1025249 969024 920178 888004 879804 
3726.140 898463 941164 1000872 1068062 1135063 1196094 1248128 1288969 
3729.997 1317118 1330478 1328285 1312100 1287175 1262052 1246533 1246267 
3733.855 1261354 1283386 1299205 1294320 1261919 1206162 1140412 1078359 
3737.712 1027707 991773 969556 958564 957269 965272 984035 1016116 1064442 
3742.052 1131309 1216296 1314326 1410650 1482991 1511518 1493364 1444159 
3745.909 1385288 1332439 1292924 1269894 1264311 1276607 1304456 1341579 
3749.767 1377676 1398384 1392700 1357434 1299969 1233807 1173867 1129017 
3753.624 1101844 1089819 1087760 1091314 1097227 1104335 1113337 1125429 
3757.481 1140611 1157023 1170013 1174598 1167189 1147687 1119915 1089885 
3761.339 1063080 1042188 1027707 1018374 1012795 1010669 1013127 1022360 
3765.196 1040461 1067531 1101312 1137655 1172737 1202939 1226231 1241350 
3769.054 1247995 1246234 1236830 1221413 1201643 1180046 1159116 1141276 
3772.911 1128386 1121443 1120679 1124765 1131874 1140445 1148750 1156259 
3776.769 1162571 1167289 1169913 1168983 1162837 1150877 1133668 1113138 
3780.626 1091879 1071716 1053348 1036774 1021496 1007149 994263 984865 
3784.483 981013 984799 997219 1017710 1045078 1077363 1112673 1148750 
3788.341 1183834 1215531 1242047 1261022 1270725 1269961 1258695 1237528 
3792.198 1208554 1174199 1136890 1099618 1064840 1035280 1014090 1003529 
3796.056 1004957 1017810 1039896 1068428 1102409 1142040 1189648 1247730 
3799.913 1317052 1393564 1467298 1523022 1549457 1545800 1520628 1484886 
3803.771 1446420 1408789 1371826 1333569 1292060 1247763 1205065 1170744 
3807.628 1151408 1149548 1163667 1189283 1221280 1254874 1285247 1308178 
3811.485 1320574 1320641 1307779 1283486 1251252 1216429 1186758 1171873 
3815.343 1179448 1211013 1258496 1309175 1350553 1376147 1384822 1378374 
3819.200 1359627 1331110 1295150 1254475 1212076 1172139 1138684 1114633 
3823.058 1101512 1099253 1106727 1120945 1137688 1151508 1157554 1153634 
3826.915 1141840 1127256 1116560 1114301 1122639 1140412 1163966 1188951 
3830.772 1210348 1225134 1233076 1236299 1238326 1242845 1252382 1267800 
3834.630 1289335 1316752 1349224 1386085 1425443 1464007 1496789 1518268 
3838.487 1523820 1513014 1489374 1458787 1429100 1405897 1392235 1388113 
3842.345 1390240 1393365 1391570 1380368 1358198 1326324 1288703 1250122 
3846.202 1214535 1184399 1160744 1143269 1130578 1121509 1115331 1112573 
3850.060 1115497 1128087 1156358 1206793 1283785 1382230 1482858 1556374 
3853.917 1581647 1559566 1507395 1444492 1385022 1337292 1305552 1290033 
3857.774 1289036 1298873 1315822 1335796 1356170 1375449 1392900 1408224 
3861.632 1420690 1429167 1431726 1426540 1412512 1390340 1363217 1335962 
3865.489 1313429 1299105 1294652 1299537 1312897 1332672 1356037 1378141 
3869.347 1393465 1397420 1390373 1377543 1366042 1361788 1367338 1381631 
3873.204 1399515 1413044 1412745 1393631 1356702 1308809 1258961 1215565 
3877.062 1185030 1170445 1172771 1189615 1217060 1248427 1277836 1301498 
3880.919 1318946 1332772 1346465 1362386 1381997 1404767 1429067 1451573 
3884.776 1467797 1472983 1465037 1445722 1420058 1393664 1370762 1353412 
3888.634 1341712 1334400 1329282 1323898 1317351 1310737 1307547 1311468 
3892.491 1324363 1344670 1367970 1388578 1401609 1404069 1395958 1379670 
3896.349 1359361 1339618 1324131 1314526 1310604 1310571 1313097 1317218 
3900.206 1324131 1334600 1348027 1361588 1369732 1366574 1348958 1318181 
3904.063 1281392 1248992 1231082 1232677 1253279 1287474 1328318 1368269 
3907.921 1400711 1422119 1430230 1425177 1409354 1386285 1360093 1335298 
3911.778 1315822 1304456 1301996 1307613 1318913 1332772 1345601 1354209 
3915.636 1356636 1351550 1339618 1322436 1302163 1280827 1260988 1244573 
3919.493 1233674 1230517 1236232 1250654 1272652 1299371 1326956 1351118 
3923.351 1368037 1374751 1370629 1357533 1339352 1320574 1304987 1294486 
3927.208 1289468 1288803 1290863 1294519 1298241 1301930 1305552 1309042 
3931.065 1312033 1313030 1310006 1301465 1286975 1268233 1247962 1230052 
3934.923 1217425 1211710 1212674 1218190 1225500 1231647 1235335 1236897 
3938.780 1238824 1243775 1254342 1271024 1292292 1314991 1334334 1347130 
3942.638 1352149 1350985 1347728 1347030 1351717 1362519 1377476 1392235 
3946.495 1401476 1399781 1383592 1352016 1308876 1260722 1216229 1183602 
3950.353 1168319 1173136 1196061 1232976 1277604 1323732 1366009 1400445 
3954.210 1425277 1439572 1443694 1438475 1425144 1405797 1383194 1360724 
3958.067 1341679 1328617 1322336 1321571 1323399 1324131 1321704 1315423 
3961.925 1307380 1301365 1301265 1308809 1323333 1341114 1357001 1365942 
3965.782 1364846 1353246 1334101 1312266 1292392 1278302 1271290 1269761 
3969.640 1270658 1269927 1263846 1249923 1227693 1198320 1164797 1131774 
3973.497 1104435 1088225 1086896 1101811 1131309 1170345 1211145 1245869 
3977.354 1267867 1273616 1263879 1243177 1218854 1199284 1191908 1201510 
3981.212 1229288 1272253 1324596 1378972 1427072 1462810 1481860 1483090 
3985.069 1468096 1441234 1408224 1374717 1345668 1324330 1311800 1307746 
3988.927 1310704 1319378 1332007 1347628 1364945 1382994 1400080 1414473 
3992.784 1424280 1428069 1425410 1416734 1403537 1388811 1375050 1365643 
3996.642 1363217 1369665 1385254 1408889 1438043 1468362 1495026 1513613 
4000.499 1521559 
##END=
