##TITLE=lancol_4 28 10:18:11 2026 (GMT+02:00)
##JCAMP-DX=5.01  $$ Nicolet v. 970
##DATATYPE=INFRARED SPECTRUM
##ORIGIN=Vojna akademija
##OWNER=Nicolet
##LONGDATE=2026/08/28
##TIME=10:18:41
##SPECTROMETER/DATA SYSTEM=Nicolet iS20
##DATA PROCESSING=
Ratio against background
%Transmittance->Absorbance
Truncated
ElementMultiply or ElementDivide
##COMMENTS=
Number of sample scans: 8
Collection length: 11,90 sec
Sample gain: 8,0
Background collected on: Fri Aug 28 10:08:01 2026 (GMT+02:00);
Number of background scans: 8
Background gain: 8,0
Sample spacing:  1,000
Number of scan points: 12415
Resolution points: 8286
Number of FFT points: 65536
Apodization: N-B strong;
Phase correction: Mertz;
Laser frequency: 15798,00 cm-1
Number of rejected sample scans: 0
Number of rejected background scans: 0
Bench serial number: BER2010005;
##RESOLUTION= 4,000
##XUNITS=1/CM
##YUNITS=ABSORBANCE
##FIRSTX=400.156891
##LASTX=4000.123047
##FIRSTY=-0.008036
##MAXX=4000.123047
##MINX=400.156891
##MAXY=0.279615
##MINY=-0.008036
##XFACTOR=1.000000
##YFACTOR=1.000000E-009
##NPOINTS=7468
##DELTAX=0.482117
##ZPD=6100
##XYDATA=(X++(Y..Y))
400.157 -8035519 -6685259 -5007395 -3163256 -1291399 468303 1969639 3033754 
404.014 3498629 3274959 2403955 1105132 -255686 -1254265 -1590070 -1150776 
407.871 -47644 1445722 2962356 4163704 4857510 5031378 4836502 4487385 
411.728 4177053 3992057 3902380 3793067 3534070 3031252 2266373 1289468 
415.585 203192 -857391 -1739461 -2241258 -2138333 -1248847 410127 2514751 
419.442 4530507 6006164 6785403 6943076 6650229 6070806 5349667 4602364 
423.298 3916388 3360500 2963090 2703520 2519983 2335625 2084320 1734780 
427.155 1303791 847666 444853 161459 29490 28827 98485 158906 153503 80291 
431.977 165 11663 214363 665874 1354575 2194235 3045032 3758507 4214322 
436.316 4372336 4275152 4024829 3728629 3464627 3272489 3158862 3114708 
440.173 3131595 3209563 3349380 3547298 3783976 4021351 4213486 4324879 
444.030 4340943 4271638 4146510 4003293 3875500 3790828 3764290 3794337 
447.886 3865237 3950727 4022154 4058406 4055196 4026601 4005633 4031718 
451.743 4135572 4322704 4566367 4815830 5019746 5152670 5217152 5240225 
455.600 5251292 5258737 5232075 5100937 4780954 4228408 3478020 2635343 
459.457 1822945 1143967 658043 382402 316346 451354 779680 1292292 1970238 
463.796 2773341 3634162 4471014 5192203 5717205 6004148 6054947 5916742 
467.653 5656206 5332560 4970543 4563621 4090080 3541686 2945042 2368239 
471.510 1897451 1611877 1542707 1654082 1857451 2055189 2184478 2227505 
475.367 2206724 2160302 2123175 2111289 2118347 2122576 2102898 2049763 
479.224 1974499 1904706 1880312 1938319 2100867 2364208 2692884 3023644 
483.081 3271320 3359398 3237837 2908648 2428811 1903874 1454532 1170578 
486.938 1099552 1235368 1534195 1933360 2376668 2825565 3260404 3674693 
490.795 4059678 4394192 4648813 4792612 4812513 4723537 4567037 4393622 
494.652 4245572 4147648 4103794 4106069 4142429 4204386 4288771 4391347 
498.509 4504693 4616295 4714929 4796800 4873962 4970576 5109419 5297005 
502.366 5508933 5693905 5791777 5765855 5612603 5368252 5085617 4818544 
506.223 4594528 4406309 4216464 3982359 3682379 3330949 2971463 2658479 
510.079 2435941 2316604 2286525 2315105 2378101 2471296 2615542 2841840 
513.936 3173815 3609705 4115033 4628652 5087997 5448669 5702197 5873180 
517.793 6001528 6114355 6209901 6256488 6211917 6048966 5768507 5405657 
521.650 5015624 4661004 4388167 4223624 4169826 4212148 4328225 4496591 
525.507 4704813 4948691 5228990 5543700 5883020 6227244 6546210 6803679 
529.364 6966812 7010080 6924727 6723380 6437979 6109616 5772503 5447562 
533.221 5136744 4832079 4526723 4226902 3956378 3751723 3645489 3654678 
537.078 3770439 3959855 4172804 4358178 4479618 4519056 4479852 4379498 
540.935 4244000 4100248 3975571 3895091 3878275 3933206 4050346 4201877 
544.792 4341578 4418727 4397372 4268861 4059878 3824889 3629851 3525718 
548.649 3537143 3657952 3859955 4103928 4355903 4595968 4815964 5015456 
552.506 5193209 5346413 5471452 5567863 5639725 5691623 5720159 5707468 
556.363 5624016 5436255 5126786 4710708 4243699 3810582 3498896 3377930 
560.220 3468969 3743134 4128346 4540485 4903349 5171347 5334774 5410824 
564.077 5427196 5408441 5373317 5335243 5307202 5306229 5346481 5431960 
567.934 5546351 5655803 5714955 5687124 5564541 5374760 5175907 5034026 
571.790 5005635 5114247 5345675 5652782 5975660 6257934 6459906 6566561 
575.647 6583247 6528484 6422981 6286843 6135122 5979355 5829857 5695013 
579.504 5578402 5475981 5375531 5256222 5096043 4879859 4603134 4275453 
583.361 3916589 3554480 3218276 2931465 2709788 2557611 2470229 2437174 
587.218 2447870 2493356 2569910 2678915 2826332 3020041 3264877 3558589 
591.075 3886800 4222452 4527795 4766515 4912531 4957372 4913604 4810503 
594.932 4688769 4588635 4545708 4581234 4699353 4887500 5119779 5364561 
598.789 5585483 5749705 5830361 5809473 5681551 5453534 5142545 4769597 
602.646 4359350 3933072 3506144 3089179 2686116 2299616 1935990 1610280 
606.503 1347496 1180744 1140312 1245271 1493298 1860047 2299948 2759036 
610.360 3188334 3548334 3818471 3995902 4091753 4122325 4106637 4061249 
614.217 3998778 3928893 3858384 3790427 3722647 3647928 3555616 3434568 
618.074 3278298 3087644 2872324 2648711 2437774 2262410 2142987 2097238 
621.931 2136827 2264475 2470129 2732127 3019273 3294323 3526921 3698218 
625.788 3805535 3858484 3872291 3856144 3808175 3715295 3562231 3344372 
629.644 3077700 2800386 2563544 2420181 2401789 2512185 2725259 2997954 
633.501 3281703 3537276 3744337 3897030 3999814 4057805 4073959 4049644 
637.358 3989783 3906258 3815596 3733241 3665905 3605294 3531932 3423414 
641.215 3268950 3078701 2885599 2733861 2667146 2709588 2857582 3079802 
645.072 3330582 3561262 3734177 3831173 3849625 3797312 3686121 3530495 
648.929 3346242 3153789 2977936 2842841 2766672 2755935 2802220 2884499 
652.786 2975734 3051906 3096387 3102527 3071526 3009397 2923826 2824331 
656.643 2723391 2637310 2583176 2574243 2614809 2695418 2796284 2895272 
660.500 2975367 3032953 3077733 3126989 3193575 3277997 3364039 3427288 
664.357 3442083 3392256 3274058 3098223 2890303 2687850 2545612 2518250 
668.214 2626742 2836504 3082605 3314656 3513860 3682445 3827496 3951830 
672.071 4054728 4129918 4170395 4170897 4126707 4035196 3895392 3710984 
675.928 3491781 3258568 3041328 2871858 2778977 2780144 2876494 3053674 
679.785 3282437 3527723 3752024 3925784 4030882 4061550 4023357 3928926 
683.642 3795875 3640744 3476651 3311884 3150285 2995618 2855815 2744631 
687.498 2681615 2683716 2757936 2894939 3071026 3254061 3415599 3542521 
691.355 3642314 3741095 3871689 4064694 4334651 4678118 5077437 5511685 
695.212 5965078 6431220 6911732 7405449 7898715 8361905 8748838 9010424 
699.069 9112700 9047400 8839082 8537283 8206554 7907219 7685753 7572754 
702.926 7578586 7700289 7923416 8228062 8589732 8983159 9387371 9786774 
706.783 10176200 10559491 10947028 11348618 11766852 12195814 12623803 
710.158 13038965 13438633 13833777 14248934 14714905 15257764 15894329 
713.533 16627043 17447942 18344288 19306046 20326950 21401596 22522108 
716.908 23671062 24821416 25943062 27005796 27987516 28874030 29652868 
720.282 30306568 30810198 31132760 31253092 31169284 30907634 30514746 
723.657 30047746 29555002 29061540 28568110 28057106 27507798 26908666 
727.032 26266602 25604330 24953068 24338384 23774786 23262640 22792056 
730.407 22351110 21932912 21538830 21178674 20865226 20608008 20410324 
733.782 20267718 20168856 20099894 20049680 20011480 19984900 19973938 
737.156 19984346 20018662 20072688 20131510 20172048 20167224 20090420 
740.531 19926064 19674290 19352190 18987992 18614554 18260066 17940772 
743.906 17662194 17422110 17214908 17037610 16890388 16775209 16693424 
747.281 16642019 16612757 16592789 16567696 16523877 16449917 16339431 
750.656 16189797 16003499 15788553 15558569 15330079 15118623 14933434 
754.031 14773041 14625145 14470107 14290331 14076950 13836103 13586124 
757.405 13353920 13162754 13024147 12935179 12880020 12837904 12789444 
760.780 12726592 12651911 12577550 12518718 12488641 12495051 12538498 
764.155 12613705 12711341 12820055 12926578 13017591 13080725 13105311 
767.530 13085369 13021142 12918214 12785896 12635366 12478069 12323760 
770.905 12182865 12065385 11979612 11929851 11914356 11922188 11935947 
774.279 11936765 11908499 11843560 11744349 11621133 11487134 11352359 
777.654 11222863 11098707 10978868 10862903 10750975 10642608 10532570 
781.029 10409834 10257920 10061500 9814497 9525432 9219569 8930088 8691942 
784.886 8526369 8435650 8402914 8400381 8397711 8372444 8316746 8235965 
788.743 8145204 8061619 8000629 7972549 7981054 8024086 8094059 8177718 
792.600 8256327 8310261 8322454 8285809 8205237 8101418 8004004 7941840 
796.457 7936238 7993136 8102870 8243157 8389266 8520287 8625354 8706207 
800.314 8774499 8847569 8943381 9077038 9256631 9480287 9734487 9995955 
804.171 10236276 10426565 10549476 10604171 10610690 10601794 10616598 
807.546 10685734 10819589 11007686 11221298 11426137 11590743 11698463 
810.920 11748808 11754596 11733830 11704590 11680354 11669463 11676339 
814.295 11702003 11745030 11799127 11854081 11897703 11918613 11911120 
817.670 11877747 11827080 11769575 11711841 11652785 11584925 11498531 
821.045 11389297 11261421 11129471 11011935 10922155 10864194 10829610 
824.420 10801381 10760960 10696941 10605631 10491394 10359880 10212597 
827.794 10045053 9848390 9615668 9347658 9056095 8763308 8493930 8271389 
831.651 8111884 8021993 8000932 8040928 8130755 8253625 8387983 8508696 
835.508 8587941 8604297 8548198 8427305 8265648 8097367 7957228 7868315 
839.365 7839502 7863288 7925170 8007851 8100810 8200711 8308437 8424061 
843.222 8542656 8653441 8744713 8808649 8845067 8861197 8867521 8870328 
847.079 8867454 8847637 8797118 8706816 8580370 8435514 8299589 8201658 
850.936 8159790 8174882 8229954 8297562 8348834 8365182 8345557 8305331 
854.793 8270275 8266763 8313470 8414130 8558336 8724024 8886391 9023008 
858.650 9119907 9173576 9190294 9183154 9166571 9154118 9154219 9169312 
862.507 9197841 9236594 9281882 9331678 9385644 9442665 9499557 9550462 
866.364 9587992 9605607 9602863 9586637 9571056 9572851 9605268 9670855 
870.221 9759258 9847271 9909403 9923912 9884759 9801855 9700908 9612043 
874.078 9557033 9543248 9558219 9575865 9565467 9507143 9397969 9254532 
877.935 9106000 8984580 8913921 8901644 8940573 9014077 9105763 9203797 
881.792 9303885 9406162 9510462 9612213 9703279 9775083 9824970 9859405 
885.648 9893030 9942252 10017553 10117286 10225014 10314208 10358659 
889.023 10341318 10260906 10130547 9973341 9813277 9666078 9539420 9433725 
892.880 9347894 9283676 9245258 9236323 9254701 9288720 9318679 9321184 
896.737 9278666 9185523 9050310 8891803 8733151 8592840 8479266 8392644 
900.594 8327182 8276117 8235357 8203075 8178056 8156447 8132511 8099966 
904.451 8056354 8007244 7965395 7947712 7967858 8031376 8131802 8252443 
908.308 8371836 8471124 8538804 8573172 8579086 8565669 8541305 8512582 
912.165 8486429 8470549 8475516 8512143 8587433 8699920 8837256 8978795 
916.022 9099910 9179262 9207250 9187181 9134356 9068545 9009071 8967058 
919.879 8944361 8934519 8928059 8916898 8898398 8876178 8858728 8856294 
923.736 8875401 8917439 8976325 9040736 9096052 9130465 9137774 9120279 
927.593 9088202 9056603 9041615 9054674 9100992 9179295 9284827 9412562 
931.450 9559912 9726219 9911437 10111216 10315530 10506432 10663864 10769961 
935.306 10813814 10795980 10727506 10625970 10508128 10387503 10271627 
938.681 10162361 10060889 9969001 9889877 9826596 9779624 9745398 9717036 
942.538 9688304 9656626 9625967 9606048 9608758 9643277 9710564 9803110 
946.395 9906624 10005550 10087646 10148693 10191498 10223521 10251169 
949.770 10277293 10298938 10310543 10306064 10284044 10249032 10211173 
953.145 10183527 10177421 10200386 10252560 10327644 10413567 10496859 
956.520 10564142 10606276 10619756 10606989 10575889 10536916 10501339 
959.894 10476595 10465834 10466955 10474795 10482975 10487422 10487524 
963.269 10486574 10490409 10504734 10533724 10577790 10633473 10694020 
966.644 10751688 10798425 10829270 10843300 10844931 10842791 10847921 
970.019 10871022 10917331 10984136 11058531 11120156 11146162 11115873 
973.394 11018969 10858621 10651233 10420490 10193771 9993413 9832019 9713038 
977.251 9631793 9579930 9547955 9529971 9523129 9527701 9545009 9575527 
981.108 9617429 9667095 9718053 9762579 9793180 9803110 9787012 9743466 
984.964 9674209 9584977 9485265 9386660 9300229 9235105 9196521 9184440 
988.821 9193407 9214594 9238251 9255751 9263333 9262554 9259338 9260794 
992.678 9272201 9294271 9322504 9348267 9363366 9363569 9349892 9329376 
996.535 9310790 9301041 9301414 9306559 9306830 9293087 9261438 9215677 
1000.392 9166435 9128773 9117640 9142003 9204880 9302226 9425023 9560454 
1004.249 9694911 9814734 9907505 9966493 9991886 9993548 9988191 9996972 
1008.106 10036677 10112843 10215481 10321468 10402231 10433455 10405286 
1011.481 10326762 10222604 10120678 10044816 10003957 9991615 9991276 
1014.856 9986055 9966594 9933777 9896556 9864354 9842153 9827918 9815277 
1018.713 9799111 9780844 9768373 9771761 9796332 9837002 9878116 9900284 
1022.570 9887098 9834595 9753632 9666214 9594089 9551105 9537828 9542909 
1026.427 9550733 9551207 9545551 9547820 9579287 9659098 9798602 9996464 
1030.284 10239533 10505956 10771592 11011187 11201272 11322974 11361678 
1033.660 11311207 11175977 10972820 10726929 10466785 10217482 9993243 
1037.035 9798297 9629490 9482082 9356189 9257578 9194728 9174286 9196149 
1040.892 9252773 9331949 9423126 9521605 9629625 9753124 9895098 10050513 
1044.750 10206424 10343897 10446386 10508060 10534912 10542857 10549544 
1048.125 10567232 10596022 10626886 10645392 10641011 10611708 10564380 
1051.500 10509961 10457519 10408951 10358285 10295818 10214361 10113962 
1054.875 10005042 9904081 9828426 9791485 9797111 9840628 9908793 9986021 
1058.733 10054887 10100464 10112708 10085848 10020808 9924081 9807481 
1062.108 9683900 9563909 9452722 9347996 9243025 9130668 9008157 8880439 
1065.965 8759589 8660506 8596423 8573780 8590408 8636204 8697283 8757764 
1069.823 8803306 8822580 8806823 8750630 8652934 8518732 8360385 8195242 
1073.680 8045552 7930434 7863693 7851513 7892001 7977612 8097502 8238700 
1077.538 8387138 8526977 8643335 8722941 8758102 8750156 8709081 8649824 
1081.395 8585676 8522854 8456900 8374336 8260346 8108609 7927296 7739886 
1085.253 7577372 7470536 7435615 7470839 7555120 7657391 7745992 7796489 
1089.110 7799019 7756077 7679817 7584824 7485638 7393754 7317086 7260782 
1092.967 7226619 7212267 7211729 7216984 7220723 7218871 7212537 7207383 
1096.825 7210583 7226855 7255628 7291107 7325814 7353582 7373532 7390788 
1100.682 7414313 7452030 7507482 7576867 7651220 7717659 7764172 7782961 
1104.540 7770345 7728284 7662112 7581958 7501313 7435783 7401101 7407235 
1108.397 7455232 7534149 7624546 7701908 7746228 7749635 7718300 7671555 
1112.255 7633010 7624107 7654794 7722313 7813053 7909513 7996275 8063982 
1116.112 8111275 8141828 8161242 8174240 8184808 8196356 8213070 8240219 
1119.969 8282602 8342213 8416731 8499810 8581486 8651244 8701137 8726592 
1123.827 8726424 8702523 8657903 8596998 8525896 8453082 8388321 8342281 
1127.684 8323974 8337721 8383591 8457035 8550800 8656180 8764998 8870193 
1131.542 8965332 9044998 9105594 9146301 9169989 9183526 9195946 9215271 
1135.399 9245800 9286554 9331949 9374538 9408566 9432235 9447947 9460104 
1139.256 9472566 9486891 9502335 9518760 9539759 9572105 9626576 9712293 
1143.114 9831341 9976325 10130954 10275664 10393204 10476764 10532604 
1146.489 10577858 10632862 10714159 10827742 10967722 11117878 11258599 
1149.864 11374331 11456141 11503839 11523267 11522757 11509725 11489719 
1153.240 11467571 11447942 11437600 11444846 11476723 11537286 11623686 
1156.615 11726341 11828510 11910780 11955599 11951580 11896817 11800318 
1159.990 11679742 11555932 11448588 11370963 11326817 11311445 11315458 
1163.365 11330388 11351509 11379433 11418278 11471416 11537557 11609223 
1166.741 11674126 11720214 11739277 11730052 11697646 11649212 11589995 
1170.116 11518504 11427837 11310119 11161154 10986038 10799207 10621691 
1173.491 10473947 10368261 10305928 10277157 10266945 10259515 10244350 
1176.866 10218127 10182645 10141298 10096497 10048647 9997210 9943778 
1180.242 9893979 9855880 9839069 9849203 9885302 9938625 9995176 10039764 
1184.099 10060143 10051224 10014773 9959509 9895403 9832832 9779387 9738688 
1187.956 9711242 9695724 9690031 9692403 9701179 9715511 9733775 9753802 
1191.814 9772914 9787757 9795891 9796400 9791214 9784640 9783149 9793315 
1195.671 9819344 9861202 9914963 9972731 10025149 10064620 10086493 10090935 
1199.529 10081507 10064891 10048579 10039458 10043934 10066823 10111181 
1202.904 10177285 10260669 10353229 10442178 10514171 10557115 10563939 
1206.279 10534708 10476696 10402130 10324115 10255172 10204321 10175556 
1209.654 10169417 10183697 10213343 10252153 10293069 10328899 10354315 
1213.030 10366667 10365887 10353704 10332597 10303112 10263281 10210969 
1216.405 10145029 10069232 9993175 9931438 9898454 9904793 9951914 10031761 
1220.262 10127969 10222028 10298193 10346781 10365819 10359031 10333107 
1223.638 10295172 10250898 10206763 10168840 10143876 10137263 10150422 
1227.013 10179355 10214361 10244350 10258395 10251983 10228270 10196315 
1230.388 10167246 10150253 10148455 10159004 10174538 10187699 10194314 
1233.763 10194314 10191566 10191227 10198011 10214667 10241738 10278819 
1237.139 10325065 10378239 10435356 10492208 10543501 10584785 10615274 
1240.514 10637956 10659179 10686175 10723600 10770573 10820676 10863786 
1243.889 10890795 10897047 10884306 10859403 10831410 10807393 10789832 
1247.264 10776857 10765070 10751722 10737559 10726657 10723974 10733347 
1250.640 10755187 10786504 10822340 10858588 10892664 10924500 10955285 
1254.015 10985496 11014144 11039667 11059992 11075355 11087897 11101427 
1257.390 11119612 11144054 11174311 11208208 11244080 11281927 11323110 
1260.765 11369740 11421238 11473764 11521089 11557565 11581114 11595031 
1264.141 11607793 11629540 11667625 11723005 11790548 11860585 11924675 
1267.516 11977874 12021235 12060513 12102247 12150119 12202527 12252762 
1270.891 12291992 12311762 12307945 12281051 12235755 12179730 12120748 
1274.266 12067940 12029547 12013366 12025970 12069507 12141157 12231870 
1277.641 12329386 12419251 12490072 12536930 12560974 12568512 12567556 
1281.017 12564862 12563839 12564794 12566908 12570080 12576765 12590921 
1284.392 12617014 12657302 12711307 12774806 12840532 12901421 12949790 
1287.767 12980549 12991166 12982802 12959963 12930844 12905994 12897598 
1291.142 12914903 12963650 13042959 13147146 13266320 13391404 13515465 
1294.518 13636279 13754391 13872021 13989170 14103407 14209184 14300603 
1297.893 14373753 14428761 14469285 14501075 14530299 14561102 14594579 
1301.268 14630663 14668326 14707227 14747606 14789324 14831425 14871711 
1304.643 14906515 14932851 14948798 14954663 14951302 14940019 14920712 
1308.019 14892079 14852750 14801426 14739550 14669594 14595196 14519131 
1311.394 14442462 14364814 14284989 14203295 14121788 14043684 13973019 
1314.769 13912151 13861382 13819205 13783565 13753467 13728502 13708736 
1318.144 13692390 13675019 13649238 13608585 13549238 13473595 13390243 
1321.520 13311963 13250538 13214602 13206063 13220716 13250504 13287125 
1324.895 13324639 13360788 13396189 13432515 13470348 13509278 13548623 
1328.270 13589030 13633715 13688697 13760376 13853617 13970077 14107822 
1331.645 14262321 14428692 14603282 14784456 14971913 15164941 15362036 
1335.021 15560355 15756909 15949907 16139932 16328456 16516030 16699243 
1338.396 16869410 17012868 17117528 17177710 17198670 17194360 17181296 
1341.771 17173300 17176436 17192050 17218078 17253520 17300928 17366032 
1345.146 17455670 17574444 17721070 17887978 18062998 18233802 18390674 
1348.522 18529762 18651944 18761360 18861770 18954106 19036768 19108088 
1351.897 19167924 19220666 19273418 19335008 19412786 19510126 19627350 
1355.272 19762532 19914616 20085526 20280564 20506532 20769878 21074806 
1358.647 21424256 21822590 22279988 22815420 23456906 24234806 25170632 
1362.023 26258896 27456368 28685646 29860662 30915960 31819638 32571316 
1365.398 33186578 33685360 34087292 34416604 34709124 35013692 35395752 
1368.773 35921340 36641540 37589236 38776448 40206936 41887392 43836916 
1372.148 46079492 48621968 51425072 54364588 57232080 59791384 61842328 
1375.524 63283084 64100892 64320920 63962892 63025452 61504272 59427412 
1378.899 56884560 54027460 51021648 48020540 45127480 42392472 39837284 
1382.274 37469808 35295292 33313956 31510320 29848204 28271138 26716480 
1385.649 25130746 23491078 21820116 20181316 18652116 17289652 16112903 
1389.025 15109566 14255131 13527293 12910295 12393033 11964012 11608032 
1392.400 11307738 11046737 10815444 10610622 10433692 10285842 10160937 
1395.775 10048342 9939065 9829714 9724864 9632031 9555746 9491903 9426275 
1399.632 9343426 9236864 9114730 8996825 8904925 8857139 8859337 8903842 
1403.490 8970271 9034544 9077376 9094428 9095883 9099063 9116862 9151952 
1407.347 9199296 9252129 9308353 9372000 9451029 9551478 9671431 9800534 
1411.205 9922793 10025691 10106026 10172367 10238956 10318788 10417945 
1414.580 10533860 10659688 10789798 10925383 11075967 11255403 11472607 
1417.955 11721405 11974365 12195610 12361225 12477865 12573491 12680636 
1421.330 12819679 12996560 13208146 13448304 13713524 14005185 14328067 
1424.706 14685771 15076770 15496344 15942723 16423592 16958774 17579136 
1428.081 18317296 19194312 20206864 21324538 22499740 23686670 24857588 
1431.456 26004338 27131762 28247800 29356892 30463740 31580974 32735028 
1434.831 33972660 35351756 36914536 38639784 40427620 42142560 43690948 
1438.207 45064220 46318740 47531424 48776236 50104788 51541388 53080576 
1441.582 54695968 56349712 58003156 59629048 61211416 62744208 64231828 
1444.957 65686136 67129048 68590504 70102336 71685408 73334928 75018840 
1448.332 76690336 78316776 79902576 81486472 83127560 84877472 86757400 
1451.708 88741696 90763160 92742344 94606280 96323600 97902808 99374128 
1455.083 100765952 102073888 103237600 104143984 104699984 104921160 
1457.976 104918928 104817224 104674344 104495688 104269504 103992448 
1460.869 103672360 103319312 102929872 102474544 101888664 101082344 
1463.762 99956336 98445504 96554336 94344416 91886280 89214552 86313816 
1467.137 83161544 79762168 76171536 72467456 68737208 65036728 61344196 
1470.513 57576208 53610100 49370612 44934524 40590724 36721008 33568972 
1473.888 31134256 29239848 27665196 26255480 24934222 23695556 22564304 
1477.263 21563204 20688656 19913750 19202068 18522154 17854350 17191638 
1480.638 16535718 15892439 15269157 14674735 14121138 13624175 13199573 
1484.014 12860053 12609817 12440527 12332556 12260703 12202868 12145450 
1487.389 12085451 12022666 11946982 11833788 11648225 11368889 11010235 
1490.764 10622370 10264638 9977545 9775219 9648190 9575527 9533290 9501928 
1494.621 9467215 9420316 9356257 9270374 9156452 9010965 8835058 8639279 
1498.479 8439839 8253592 8090481 7951154 7827728 7709530 7589208 7467266 
1502.336 7351324 7255526 7196265 7188753 7246564 7378790 7586443 7846924 
1506.194 8097334 8233905 8174983 7933843 7592917 7228135 6879751 6566191 
1510.051 6296828 6078400 5916439 5810884 5754942 5736610 5742318 5761658 
1513.909 5787848 5816827 5843458 5858268 5848126 5802052 5720663 5619954 
1517.766 5526383 5462962 5442697 5467559 5529571 5608944 5674132 5692025 
1521.623 5642108 5532457 5389587 5240225 5099362 4972386 4861832 4769530 
1525.481 4697980 4646436 4609731 4577718 4539748 4490498 4431547 4370361 
1529.338 4316077 4277093 4257819 4257886 4273880 4299814 4328493 4350749 
1533.196 4359116 4349343 4323607 4289105 4255276 4231185 4225263 4247312 
1537.053 4307443 4416149 4578287 4787922 5015992 5207461 5304150 5282818 
1540.911 5170408 5013378 4847391 4686258 4531143 4380536 4236371 4104162 
1544.768 3990953 3899973 3829502 3774082 3728094 3688026 3652472 3621699 
1548.625 3595405 3571485 3546797 3519138 3490746 3468902 3464293 3485502 
1552.483 3537844 3617623 3712187 3801189 3866206 3900875 3915786 3934343 
1556.340 3984198 4093559 4281242 4539112 4793349 4906466 4786884 4504292 
1560.198 4194416 3933106 3732071 3577999 3455943 3356459 3275861 3215038 
1564.055 3177486 3164636 3175284 3205424 3252258 3316325 3401873 3514294 
1567.912 3653742 3808944 3950961 4042487 4057437 3999447 3898000 3789658 
1571.770 3702796 3650434 3635732 3655680 3704400 3774650 3857013 3939292 
1575.627 4001620 4022789 3991087 3911708 3803128 3687592 3583177 3500466 
1579.485 3445923 3421210 3423247 3445255 3478554 3515096 3548768 3577297 
1583.342 3599715 3616053 3626644 3631255 3630720 3627780 3625475 3626711 
1587.200 3632090 3639942 3646090 3647093 3642281 3634663 3631723 3642214 
1591.057 3672588 3725287 3797045 3880214 3964704 4040915 4102055 4144737 
1594.914 4168990 4177488 4175648 4169325 4165678 4170830 4188093 4218572 
1598.772 4259425 4306172 4353895 4399514 4442326 4484171 4526590 4568912 
1602.629 4606852 4633676 4643153 4633341 4607856 4575743 4547549 4530540 
1606.487 4526824 4532114 4537069 4531612 4509213 4469542 4417923 4361592 
1610.344 4307042 4258120 4215527 4178658 4146978 4121723 4105332 4100148 
1614.202 4107674 4126573 4151427 4171566 4172436 4142562 4078775 3988378 
1618.059 3883825 3776455 3674693 3583946 3509251 3454373 3421610 3410523 
1621.916 3415499 3425017 3424750 3404245 3362937 3310315 3257967 3216006 
1625.774 3189569 3178521 3178922 3184896 3190070 3189402 3180691 3164102 
1629.631 3141974 3116844 3092216 3071593 3058713 3056677 3068423 3094618 
1633.489 3134532 3185297 3242110 3298496 3348546 3388182 3416902 3435002 
1637.346 3442016 3436973 3419540 3390286 3351985 3308779 3265678 3226120 
1641.203 3192640 3166005 3147581 3140573 3152054 3191806 3272055 3402375 
1645.061 3584581 3800889 4007539 4142094 4152631 4036367 3838594 3619093 
1648.918 3418939 3258902 3145913 3080836 3066788 3110904 3223450 3400037 
1652.776 3595037 3720341 3716030 3608368 3459517 3312051 3182059 3073428 
1656.633 2985576 2917254 2867955 2838505 2828900 2838472 2864853 2903878 
1660.491 2949379 2994384 3032086 3057111 3067922 3067489 3061516 3055676 
1664.348 3052873 3053574 3057912 3065820 3079568 3102627 3140539 3198248 
1668.205 3277864 3374124 3473377 3556752 3607867 3620730 3599815 3555182 
1672.063 3496691 3432297 3365943 3299398 3233531 3169376 3110870 3062884 
1675.920 3031185 3018406 3025379 3051172 3094652 3153889 3225653 3303872 
1679.778 3381370 3452269 3513793 3568010 3620196 3674493 3729565 3772612 
1683.635 3779597 3731837 3638405 3533201 3446257 3389985 3362303 3355424 
1687.493 3359798 3366944 3369582 3363739 3350215 3333921 3321500 3318896 
1691.350 3329614 3354189 3391889 3441615 3503305 3577966 3666907 3769403 
1695.207 3878743 3981657 4063791 4118211 4147580 4158352 4156546 4145373 
1699.065 4127342 4107574 4094562 4097171 4116371 4145406 4175547 4200672 
1702.922 4218739 4229479 4234330 4234999 4232189 4224293 4207899 4179729 
1706.780 4139552 4091251 4043156 4004229 3983730 3988311 4019244 4073524 
1710.637 4144469 4224259 4306038 4386259 4463784 4539647 4616061 4695602 
1714.495 4780652 4872923 4970409 5063793 5133592 5149888 5085248 4935085 
1718.352 4727524 4508477 4318554 4179160 4092388 4049443 4035564 4033758 
1722.209 4027036 4002222 3953602 3883925 3802861 3722380 3653374 3602655 
1726.067 3573222 3566206 3580872 3615718 3666707 3726758 3784678 3827931 
1729.924 3845915 3833881 3794805 3737753 3675595 3619728 3579402 3557988 
1733.782 3550505 3544592 3529326 3502436 3468434 3432664 3398768 3368246 
1737.639 3341133 3316025 3291619 3266380 3239072 3209229 3177019 3142475 
1741.496 3105531 3066621 3026013 2985342 2947077 2914686 2891503 2880663 
1745.354 2883798 2900409 2927829 2960821 2992582 3016370 3028148 3027681 
1749.211 3019106 3007429 2995218 2980405 2958019 2923059 2875760 2821930 
1753.069 2771341 2734528 2718624 2727126 2757069 2799052 2836771 2852313 
1756.926 2833936 2781545 2705720 2623009 2548712 2493356 2463598 2462032 
1760.784 2486291 2528848 2577243 2617475 2638243 2635209 2610375 2570310 
1764.641 2523549 2478927 2444904 2428377 2433609 2462565 2513485 2581909 
1768.498 2662712 2752167 2847410 2944708 3037291 3111404 3148382 3130527 
1772.356 3052673 2927595 2780077 2632576 2497788 2380966 2283960 2207956 
1776.213 2155907 2129402 2127970 2146217 2175354 2203194 2218213 2213051 
1780.071 2187508 2150313 2114285 2091711 2087549 2099003 2116150 2125706 
1783.928 2115018 2075164 2005255 1912926 1811599 1715519 1637286 1585238 
1787.786 1563889 1573799 1613540 1678429 1761527 1854057 1943977 2016873 
1791.643 2059184 2062247 2026826 1961684 1880013 1793932 1712824 1644104 
1795.500 1592156 1558768 1542208 1537653 1537753 1536023 1528675 1516904 
1799.358 1505866 1502707 1512549 1535093 1564055 1589096 1601368 1596446 
1803.215 1575029 1541510 1501078 1457923 1413177 1366607 1317683 1267634 
1807.073 1220250 1180479 1152405 1136392 1128253 1120513 1104435 1075536 
1810.930 1035313 992038 956007 935751 933493 944617 959992 969257 964508 
1815.270 941994 902946 853343 801456 755184 719936 698198 690332 694680 
1819.609 709548 733544 765042 802850 846039 894114 946477 1002367 1059194 
1823.949 1112108 1154166 1178452 1181641 1166226 1140578 1115264 1101279 
1827.806 1106395 1133004 1176359 1224436 1260091 1268100 1244240 1194499 
1831.664 1131675 1068760 1016315 980980 965903 971947 997319 1038302 1088457 
1836.003 1140545 1184731 1211145 1211777 1183037 1128419 1057799 985795 
1839.861 927284 892951 886477 902746 928579 942193 921938 851716 731984 
1844.200 584148 444256 346322 307957 327753 391190 478055 568587 647822 
1848.540 707457 745758 765739 772809 771349 761656 741476 706727 654824 
1852.880 586603 508507 430558 365323 324138 314323 338463 393213 469763 
1857.219 555980 639095 709316 761159 794219 811713 817921 816991 811016 
1861.559 800161 783000 758105 724516 683264 637336 591215 551866 526587 
1865.898 521810 542013 586271 646827 706196 742903 737825 685653 598548 
1870.238 500778 418220 368872 359586 383961 425550 462499 476297 457523 
1874.578 409066 344730 283786 243371 230508 240951 261241 274933 268336 
1878.917 235580 179391 109356 37807 -22895 -62486 -75008 -56788 -8482 64881 
1883.739 151515 235149 299668 332660 330936 301326 257991 216551 189103 
1888.078 178761 178198 171635 142367 79926 -15274 -133277 -260752 -383820 
1892.418 -492324 -578433 -633524 -649339 -619429 -544183 -434666 -313103 
1896.276 -206773 -137186 -114926 -134172 -174846 -208429 -210250 -166731 
1900.133 -81899 24685 123972 186220 191556 131628 10934 -157192 -353826 
1904.473 -559406 -754237 -916480 -1025578 -1063789 -1022339 -905338 -733498 
1908.330 -539683 -358991 -222338 -145400 -124698 -141061 -169845 -189352 
1912.187 -187531 -164446 -128375 -91009 -62585 -48406 -48803 -60366 -78785 
1916.527 -101345 -129004 -165936 -217338 -287640 -378557 -487426 -608874 
1920.384 -734788 -855473 -959561 -1036850 -1082133 -1097271 -1092214 
1923.760 -1078828 -1068648 -1066235 -1069574 -1072879 -1070102 -1057443 
1927.135 -1035793 -1010306 -988025 -975826 -978736 -997678 -1029644 -1068251 
1930.992 -1102526 -1120339 -1110028 -1064252 -983695 -882654 -785758 -722350 
1934.850 -719671 -791579 -933673 -1121265 -1318322 -1485176 -1590929 
1938.225 -1624832 -1594791 -1524535 -1440760 -1367638 -1320799 -1304877 
1941.600 -1315151 -1340057 -1366845 -1382534 -1376127 -1342072 -1277391 
1944.975 -1185407 -1075688 -964718 -871213 -815358 -811323 -864831 -971562 
1948.833 -1117960 -1284164 -1445384 -1576964 -1656322 -1664640 -1593933 
1952.208 -1450304 -1257932 -1053741 -884308 -791083 -799384 -913009 -1112044 
1956.066 -1362056 -1620936 -1855512 -2047917 -2194249 -2299863 -2369598 
1959.441 -2403671 -2396323 -2340928 -2237038 -2095106 -1938349 -1797408 
1962.816 -1706194 -1698405 -1797738 -2017378 -2352561 -2781720 -3258735 
1966.191 -3716239 -4080708 -4279249 -4272621 -4070270 -3730661 -3337622 
1969.567 -2973056 -2696541 -2526101 -2444265 -2406241 -2365743 -2289975 
1972.942 -2176776 -2049302 -1946233 -1903514 -1937426 -2041618 -2191777 
1976.317 -2354340 -2502777 -2626594 -2729206 -2822575 -2920466 -3033011 
1979.692 -3163420 -3310758 -3466692 -3616227 -3735227 -3790708 -3751291 
1983.068 -3596511 -3330685 -2985660 -2620139 -2304411 -2097282 -2039177 
1986.443 -2130882 -2336347 -2585952 -2803547 -2927641 -2924218 -2796601 
1989.818 -2574490 -2306982 -2042475 -1818922 -1653484 -1540647 -1460673 
1993.193 -1390593 -1316571 -1236688 -1160558 -1102889 -1075887 -1082960 
1996.568 -1116671 -1157749 -1184218 -1175065 -1121529 -1029248 -921870 
1999.944 -834076 -800806 -853654 -1008224 -1260740 -1587165 -1954809 
2003.319 -2324845 -2665818 -2958083 -3190754 -3360178 -3462649 -3490226 
2006.694 -3431815 -3276822 -3023633 -2685642 -2296830 -1910871 -1583237 
2010.069 -1365260 -1284593 -1340024 -1507992 -1756061 -2054479 -2384625 
2013.445 -2739709 -3114933 -3495420 -3851075 -4131976 -4281545 -4263139 
2016.820 -4076375 -3771690 -3435233 -3165887 -3032221 -3048212 -3171380 
2020.195 -3320755 -3402688 -3343935 -3114702 -2735890 -2267232 -1777510 
2023.570 -1333088 -980223 -742859 -628528 -633061 -742925 -933673 -1171727 
2027.428 -1413283 -1609977 -1721211 -1725270 -1626218 -1449214 -1232426 
2030.803 -1008323 -795680 -598915 -412058 -230982 -58543 94740 214695 290948 
2035.143 324437 322281 296087 253516 192186 104020 -19714 -177628 -356508 
2039.482 -529821 -664921 -738095 -742395 -692413 -616617 -546533 -506721 
2043.340 -504537 -534123 -578631 -623400 -656187 -671472 -669454 -648677 
2047.197 -607187 -542065 -456247 -360481 -276779 -233598 -256315 -365083 
2051.054 -564204 -841683 -1169513 -1511129 -1825554 -2073738 -2228138 
2054.430 -2273758 -2211194 -2055765 -1833044 -1574026 -1306198 -1053311 
2057.805 -830935 -649769 -517047 -436785 -409774 -429337 -480475 -537532 
2061.662 -568042 -542396 -440194 -262044 -31575 203855 388968 476894 440972 
2066.002 286704 50200 -210747 -438704 -586374 -630116 -574197 -444530 
2069.859 -281183 -124069 -7355 50035 43573 -19051 -123936 -256183 -402789 
2074.199 -554938 -707034 -853951 -989744 -1104740 -1187357 -1224430 -1205431 
2078.056 -1127874 -997083 -830042 -649107 -478986 -341411 -248699 -203163 
2081.914 -195248 -208992 -222404 -215417 -173620 -91109 27966 170276 315815 
2086.253 445483 542975 600970 621708 614507 591115 560459 525094 480145 
2090.593 416761 326227 206208 62097 -90910 -235386 -353760 -435130 -478523 
2094.933 -491596 -486234 -475411 -468957 -472201 -487724 -515458 -554640 
2098.790 -602687 -654367 -701311 -733233 -740543 -717653 -667535 -599510 
2102.647 -527637 -466541 -425265 -405404 -400008 -398618 -388256 -359554 
2106.505 -307772 -233167 -139869 -34060 75485 178960 264954 321452 338695 
2110.844 310775 239492 135207 16501 -91572 -165439 -186405 -147322 -54932 
2115.184 67996 189037 274171 292970 231834 97425 -81170 -264229 -407158 
2119.524 -476305 -461146 -376206 -258302 -152091 -99490 -124400 -228001 
2123.381 -391534 -585183 -779308 -951262 -1089107 -1190992 -1257899 -1290705 
2127.239 -1290308 -1261236 -1213758 -1168125 -1147207 -1169149 -1238737 
2130.614 -1341346 -1445483 -1512252 -1513507 -1441718 -1318553 -1185936 
2133.989 -1095255 -1086166 -1171991 -1335433 -1536553 -1727647 -1867852 
2137.364 -1936601 -1935479 -1883094 -1803876 -1723851 -1661868 -1627307 
2140.740 -1620474 -1634471 -1656190 -1668568 -1656223 -1609382 -1528827 
2144.115 -1427319 -1328562 -1260674 -1244783 -1290771 -1390858 -1528464 
2147.490 -1680682 -1831130 -1977272 -2128211 -2299863 -2504589 -2744384 
2150.865 -3006226 -3264918 -3490424 -3657825 -3754674 -3786241 -3774744 
2154.240 -3760423 -3791595 -3915046 -4162891 -4539478 -5009131 -5493686 
2157.616 -5895501 -6114352 -6091678 -5837902 -5432467 -4992753 -4627903 
2160.991 -4412401 -4359624 -4435622 -4570791 -4693365 -4744365 -4692480 
2164.366 -4532396 -4278396 -3956516 -3596314 -3233478 -2906446 -2650241 
2167.741 -2493454 -2445287 -2488611 -2576696 -2647606 -2636343 -2497803 
2171.117 -2228072 -1863629 -1477184 -1149818 -954205 -926499 -1055526 
2174.492 -1284527 -1531931 -1716261 -1776026 -1691672 -1487388 -1224992 
2177.867 -979827 -827099 -814333 -946898 -1186696 -1462589 -1691342 -1801137 
2181.725 -1760054 -1584590 -1337646 -1098130 -940550 -906726 -997216 
2185.100 -1174271 -1383690 -1578879 -1734676 -1855743 -1966354 -2095337 
2188.475 -2259025 -2454446 -2662063 -2857666 -3022942 -3152434 -3249330 
2191.850 -3317894 -3351597 -3330685 -3224565 -3008596 -2675203 -2246202 
2195.226 -1768964 -1308544 -930069 -676136 -557652 -549842 -607055 -674284 
2199.083 -708126 -689832 -626543 -545970 -485970 -482561 -554243 -699492 
2202.940 -896013 -1107318 -1292687 -1418765 -1471241 -1455092 -1391948 
2206.316 -1307850 -1223934 -1145456 -1061839 -953312 -805767 -621712 -428807 
2210.173 -270157 -195744 -238201 -397426 -634119 -879215 -1058236 -1109103 
2214.031 -1008951 -776662 -468659 -153052 103589 257262 295888 231204 90631 
2218.370 -94719 -295620 -486036 -642258 -739154 -756751 -683944 -526909 
2222.228 -310421 -78123 119133 240553 264556 197490 70017 -74081 -193625 
2226.567 -263799 -280654 -258732 -224425 -203097 -208760 -242009 -290355 
2230.425 -335087 -357170 -344060 -292739 -209886 -108235 -2915 91227 164342 
2234.764 212275 237039 244598 243504 241017 240818 242940 244001 241050 
2239.104 232265 220463 210816 210021 222154 247084 279575 312334 338231 
2243.443 352987 357995 357696 358061 363002 374178 391025 412681 440010 
2247.783 476496 526819 592774 670918 750404 815132 848795 839400 783962 
2252.123 690266 575322 459381 361576 297247 274502 295921 359222 459215 
2256.462 587499 732415 880202 1014987 1124034 1200912 1248029 1275377 
2260.320 1298607 1332672 1385321 1455230 1532565 1602398 1650922 1670746 
2264.177 1660967 1627475 1577623 1516605 1445456 1361389 1260523 1141907 
2268.034 1009441 871802 740480 625689 535378 473810 442962 445284 482799 
2272.374 557672 667700 804908 953251 1091978 1201776 1269595 1294718 1288637 
2276.714 1272619 1269695 1295981 1356503 1443894 1541576 1630701 1698820 
2280.571 1741699 1765685 1782586 1805477 1842444 1893657 1952365 2007152 
2284.428 2046234 2060682 2047033 2007452 1949502 1883440 1821980 1777330 
2288.286 1759032 1772772 1817322 1884539 1960319 2028091 2072567 2084387 
2292.143 2063312 2017871 1963947 1918417 1895321 1901977 1937454 1994171 
2296.001 2061381 2129834 2192471 2247222 2294686 2336791 2373970 2404888 
2299.858 2426212 2434508 2427345 2404821 2369439 2326331 2281762 2241960 
2303.716 2213651 2202161 2211153 2241960 2293153 2359211 2431076 2498388 
2307.573 2549612 2576243 2575009 2548579 2505186 2457067 2417082 2395125 
2311.430 2396358 2419581 2458866 2505253 2549845 2587242 2615509 2636843 
2315.288 2654978 2673981 2696018 2720157 2743698 2763738 2778243 2787781 
2319.145 2795384 2805488 2821996 2847110 2880530 2920557 2964991 3013201 
2323.003 3064719 3118980 3173348 3221747 3254762 3262507 3237303 3177620 
2326.860 3089846 2987844 2891303 2819662 2785746 2794550 2840773 2911751 
2330.718 2991714 3068590 3134832 3188301 3230793 3263609 3286344 3296560 
2334.575 3290150 3264844 3221714 3165771 3105030 3048902 3006461 2983240 
2338.432 2982206 3003025 3042863 3097288 3160932 3227355 3289615 3340833 
2342.290 3374357 3384075 3365976 3317794 3240507 3139738 3026113 2913285 
2346.147 2815860 2745965 2709888 2708388 2737196 2789215 2856315 2930097 
2350.005 3003759 3072661 3133764 3186432 3230359 3266012 3291552 3304573 
2353.862 3302536 3284274 3251157 3207961 3160164 3113640 3071293 3032319 
2357.719 2992882 2948211 2894939 2833502 2768806 2709788 2666546 2647877 
2361.577 2658245 2695351 2751200 2812058 2863586 2893338 2895206 2870623 
2365.434 2828133 2780611 2739463 2713622 2705387 2711288 2724592 2737495 
2369.292 2744031 2741063 2728393 2708088 2683082 2656778 2632309 2612508 
2373.149 2598775 2591475 2588175 2585509 2579142 2565444 2543746 2516184 
2377.007 2487191 2462032 2444771 2435808 2432976 2431909 2428544 2420381 
2380.864 2407953 2393660 2380166 2368806 2359044 2347951 2333326 2314405 
2384.721 2293420 2275366 2266074 2269371 2285292 2309009 2332627 2347851 
2388.579 2348750 2334026 2306877 2274267 2242992 2218746 2204093 2198898 
2392.436 2201728 2210920 2225374 2244025 2265441 2286758 2304312 2314006 
2396.294 2313706 2303979 2288090 2271936 2260844 2258646 2265907 2280396 
2400.151 2298816 2318036 2337157 2357912 2384064 2419248 2465464 2521483 
2404.009 2582909 2642010 2690550 2721558 2730960 2718824 2689517 2650311 
2407.866 2609142 2572476 2543546 2522450 2506186 2490890 2474594 2457900 
2411.723 2444138 2437674 2441906 2456900 2478527 2499388 2512218 2511785 
2415.581 2498155 2475828 2452335 2434742 2425612 2421914 2415816 2397291 
2419.438 2357812 2294719 2212052 2120878 2035514 1970904 1938919 1945309 
2423.296 1989444 2064511 2160502 2264108 2362709 2446171 2507153 2543146 
2427.153 2555378 2548079 2526649 2496688 2462532 2427011 2392394 2360477 
2431.010 2332960 2311807 2297850 2290389 2287124 2284959 2281429 2276932 
2434.868 2274434 2279896 2299416 2336758 2390628 2454268 2517417 2567843 
2438.725 2596909 2601108 2583909 2553411 2521283 2499021 2494289 2511118 
2442.583 2548345 2600975 2660812 2718457 2764738 2791782 2795784 2776676 
2446.440 2739729 2692617 2644844 2603842 2572776 2549979 2530181 2507353 
2450.298 2477560 2441439 2404754 2376702 2366107 2378134 2412384 2462932 
2454.155 2519817 2572343 2612542 2636110 2643110 2636243 2619409 2596242 
2458.012 2568677 2538513 2507019 2476194 2448436 2426478 2412151 2406154 
2461.870 2408353 2417515 2432676 2452768 2476594 2501921 2525616 2542713 
2465.727 2548879 2541246 2520916 2493289 2467997 2457033 2469696 2510885 
2469.585 2578876 2665446 2757369 2841473 2905980 2943774 2952548 2933300 
2473.442 2888768 2822396 2737829 2639743 2534214 2430377 2338357 2267473 
2477.300 2224441 2210754 2222643 2252118 2289922 2328030 2361976 2391028 
2481.157 2418282 2447870 2483492 2527049 2577843 2632909 2687116 2735362 
2485.014 2771307 2790248 2789081 2767706 2729626 2681749 2633243 2593342 
2488.872 2568277 2560744 2568910 2587809 2611542 2635376 2657245 2677681 
2492.729 2698119 2720124 2743331 2766305 2786013 2799686 2805322 2800986 
2496.587 2785280 2756502 2713089 2655445 2586909 2515884 2454068 2415183 
2500.444 2410319 2444505 2514118 2607442 2709021 2801453 2873258 2919122 
2504.302 2941239 2945976 2940839 2931932 2921091 2907247 2888001 2861118 
2508.159 2826565 2786413 2744764 2706654 2677115 2659545 2656478 2667913 
2512.016 2691317 2721458 2751967 2775609 2786547 2782712 2765972 2742064 
2515.874 2719324 2706454 2709955 2733094 2775809 2834970 2905479 2981272 
2519.731 3055710 3121717 3172647 3203488 3211967 3200017 3173147 3139939 
2523.589 3108601 3085074 3070225 3061015 3050971 3034155 3008029 2974366 
2527.446 2939371 2910516 2894139 2892337 2903311 2921591 2940906 2957552 
2531.303 2970429 2981539 2994317 3011433 3033187 3057044 3079268 3096053 
2535.161 3106198 3111538 3116744 3128124 3150485 3185998 3232095 3282838 
2539.018 3328846 3361067 3373189 3363305 3335123 3296693 3258801 3230493 
2542.876 3217508 3220612 3235834 3256231 3274592 3286878 3292420 3293989 
2546.733 3295959 3302770 3316392 3336292 3359999 3384475 3407250 3426887 
2550.591 3442984 3455074 3461687 3461053 3451267 3431896 3404879 3374925 
2554.448 3348178 3330582 3326876 3338161 3362770 3396597 3434969 3473444 
2558.305 3509117 3540249 3566273 3587287 3603490 3615618 3625475 3634897 
2562.163 3647126 3664902 3690231 3724017 3765326 3811685 3859186 3903884 
2566.020 3941431 3968415 3982827 3984432 3975170 3958752 3940595 3926017 
2569.878 3919598 3924346 3939993 3964704 3994665 4026668 4057871 4087572 
2573.735 4116070 4144503 4173774 4204453 4235602 4266117 4294393 4319524 
2577.593 4341378 4360086 4376553 4391681 4406409 4420902 4435464 4449858 
2581.450 4463114 4474496 4482564 4486113 4484606 4478245 4467968 4455414 
2585.307 4442527 4431313 4423647 4421371 4426091 4439915 4464754 4501513 
2589.165 4549558 4606182 4666329 4723135 4770602 4803869 4821492 4825613 
2593.022 4821157 4814154 4809698 4810938 4818141 4829600 4842935 4856337 
2596.880 4869606 4883646 4899630 4918496 4939107 4959282 4975972 4986865 
2600.737 4991658 4991926 4991390 4994105 5003020 5018774 5039288 5060374 
2604.594 5077303 5085818 5083471 5070531 5049747 5025746 5003959 4990083 
2608.452 4988139 5000306 5026081 5062787 5104659 5145160 5178657 5200821 
2612.309 5210110 5208601 5200654 5191063 5184793 5184893 5192203 5205751 
2616.167 5224195 5245456 5267826 5289627 5309684 5326086 5337122 5341818 
2620.024 5340543 5335445 5330078 5328702 5334941 5350875 5377142 5412199 
2623.882 5454239 5501215 5550882 5600520 5646975 5685412 5710389 5718379 
2627.739 5707368 5679839 5642175 5603742 5573938 5559976 5564675 5586121 
2631.596 5618880 5655300 5688534 5713679 5728452 5732883 5728787 5719320 
2635.454 5707569 5697229 5691824 5694006 5705219 5724557 5749201 5774719 
2639.311 5796914 5812999 5822637 5827842 5831704 5837715 5847152 5859678 
2643.169 5872945 5884834 5893902 5900687 5907236 5916540 5930614 5950029 
2647.026 5973510 5999176 6024709 6048966 6071377 6092647 6112977 6132333 
2650.884 6149102 6161470 6167385 6165435 6155757 6139558 6119059 6097956 
2654.741 6079509 6067917 6066606 6078366 6104576 6144532 6195078 6251278 
2658.598 6307250 6356941 6396248 6423418 6438954 6445647 6446958 6446218 
2662.456 6445815 6446992 6449985 6454558 6460376 6467910 6478268 6493268 
2666.313 6514996 6544696 6583213 6628798 6678088 6725399 6764470 6789173 
2670.171 6795096 6781331 6749864 6705680 6655478 6606358 6563870 6532049 
2674.028 6512574 6505780 6510455 6524986 6547219 6574635 6604911 6635897 
2677.885 6665572 6693264 6718568 6741249 6761071 6777191 6788365 6793548 
2681.743 6792134 6784999 6773725 6760465 6747037 6733846 6720083 6704132 
2685.600 6684818 6662207 6637915 6614903 6596602 6584996 6580455 6581598 
2689.458 6585938 6591152 6595828 6600100 6604810 6610798 6618200 6626005 
2693.315 6632094 6634013 6629168 6615710 6592397 6558622 6514861 6463269 
2697.173 6407479 6353243 6307149 6275246 6261598 6266439 6286810 6316629 
2701.030 6349477 6380746 6408050 6432867 6457383 6483818 6512810 6542443 
2704.887 6569286 6590647 6605012 6613860 6620387 6628528 6641011 6658775 
2708.745 6680814 6705142 6730346 6756326 6784091 6815526 6852013 6893418 
2712.602 6938362 6984590 7029813 7072751 7112930 7150688 7186496 7220454 
2716.460 7252190 7281504 7308864 7335485 7363119 7393518 7427256 7463188 
2720.317 7499560 7533677 7563852 7589713 7612710 7634729 7657256 7680222 
2724.175 7701807 7718502 7727103 7725585 7714320 7696546 7676648 7659415 
2728.032 7648151 7643160 7642182 7640563 7633313 7616419 7587994 7549422 
2731.889 7503808 7455367 7407741 7362613 7319276 7275304 7227832 7175077 
2735.747 7117511 7058067 7001258 6951594 6911833 6882276 6860160 6841478 
2739.604 6822022 6799203 6772749 6744514 6717693 6695417 6680006 6672503 
2743.462 6672604 6679636 6692590 6710357 6731322 6753532 6774768 6792673 
2747.319 6805934 6815055 6821214 6827240 6835587 6847200 6861674 6876889 
2751.177 6890692 6900993 6907322 6910217 6911160 6911227 6910654 6908904 
2755.034 6905201 6899343 6892307 6886147 6883016 6884295 6889715 6897391 
2758.891 6905066 6910991 6915839 6922000 6933682 6954422 6985668 7025671 
2762.749 7069080 7109461 7140617 7159009 7164702 7161771 7156112 7153451 
2766.606 7158302 7172146 7193941 7221330 7251652 7283559 7317356 7354660 
2770.464 7397562 7447952 7506572 7572517 7643632 7717187 7789911 7859239 
2774.321 7923146 7980379 8029924 8071949 8106921 8136123 8161883 8187375 
2778.178 8216210 8252680 8300467 8362209 8438859 8529613 8631843 8741197 
2782.036 8852608 8960800 9061000 9150362 9228200 9295659 9356223 9414356 
2785.893 9474090 9538234 9606962 9678546 9749769 9817242 9879743 9938218 
2789.751 9996464 10059669 10132887 10219213 10318720 10428024 10542449 
2793.126 10656768 10767856 10874759 10979243 11084260 11192568 11305460 
2796.501 11422496 11541913 11661260 11779074 11895421 12012004 12131004 
2799.876 12255011 12385430 12522436 12664772 12810977 12959246 13108965 
2803.252 13260137 13413616 13570535 13732332 13899629 14072912 14252357 
2806.627 14438078 14630457 14829847 15036704 15250900 15471966 15698228 
2810.002 15927909 16159464 16392177 16627148 16866618 17114220 17373136 
2813.377 17645664 17932002 18230140 18537162 18849660 19165394 19483926 
2816.753 19807164 20137410 20477980 20831436 21199376 21582634 21982056 
2820.128 22398868 22834520 23290608 23768452 24268862 24792192 25338918 
2823.503 25910844 26511312 27145342 27818520 28535872 29301096 30116282 
2826.878 30982106 31899758 32871816 33903476 35002592 36177564 37437448 
2830.254 38789928 40240632 41794316 43455524 45229360 47123248 49145816 
2833.629 51307372 53618912 56090548 58731712 61550388 64552144 67739504 
2837.004 71110992 74661168 78379280 82251864 86262608 90394288 94631408 
2840.379 98959296 103364832 107837520 112367264 116945840 121566056 
2843.272 126221328 130905000 135608960 140321744 145028128 149708048 
2846.166 154336016 158884368 163319872 167604144 171695136 175541280 
2849.059 179085024 182265424 185016416 187276672 188992304 190119632 
2851.952 190632400 190521360 189798064 188492320 186654784 184351328 
2854.845 181654304 178644800 175399440 171987280 168472912 164909200 
2857.738 161342848 157816640 154366368 151026208 147826720 144793424 
2860.631 141948816 139310592 136891472 134700048 132739704 131008120 
2863.524 129497576 128195448 127084704 126144320 125352216 124683944 
2866.417 124113472 123614648 123157624 122711136 122243824 121721832 
2869.310 121114856 120396000 119542656 118540432 117382608 116071624 
2872.203 114618616 113044096 111376816 109649792 107901792 106171664 
2875.096 104496280 102911736 101447944 100129664 98976688 98000544 97207240 
2878.471 96597056 96166464 95909936 95822880 95902248 96147360 96558936 
2881.847 97137040 97879480 98781184 99833008 101023136 102339608 103769880 
2885.222 105302376 106927432 108635128 110415872 112260672 114160088 
2888.115 116106304 118092968 120114408 122165672 124240872 126332816 
2891.008 128433152 130533992 132628128 134711584 136782048 138838352 
2893.901 140878960 142900608 144898720 146868624 148807648 150716640 
2896.794 152601184 154470336 156334528 158203792 160086544 161988576 
2899.687 163913984 165865344 167844208 169850688 171883216 173939728 
2902.580 176018480 178119888 180248464 182413472 184626816 186901136 
2905.473 189246640 191669008 194169728 196747792 199402432 202135072 
2908.366 204949840 207851776 210845184 213931776 217109728 220374912 
2911.260 223723264 227150848 230653808 234226720 237858992 241533600 
2914.153 245228480 248915184 252564816 256147616 259632384 262985760 
2917.046 266168512 269133216 271829248 274201504 276197664 277772768 
2919.939 278887200 279509376 279615296 279187200 278218624 276716192 
2922.832 274702432 272212096 269290272 265985216 262339776 258393888 
2925.725 254183120 249741264 245107184 240322672 235430864 230475488 
2928.618 225491936 220508992 215548480 210625840 205754784 200948448 
2931.511 196218480 191575216 187026336 182576496 178228960 173987760 
2934.404 169858240 165848848 161969088 158228688 154637120 151201328 
2937.297 147928672 144826528 141903104 139168320 136631344 134299280 
2940.190 132176384 130263152 128557744 127057448 125759648 124663232 
2943.083 123767288 123069808 122566912 122250408 122109712 122130560 
2945.976 122296904 122592040 122995960 123487512 124042568 124633040 
2948.869 125231208 125808600 126337912 126796528 127163440 127419200 
2951.762 127546952 127528744 127348912 126994904 126458408 125737024 
2954.656 124833696 123755784 122512824 121116776 119580312 117915664 
2957.549 116136384 114255392 112284232 110233296 108110280 105921000 
2960.442 103669088 101357432 98987968 96562616 94083704 91554704 88981296 
2963.817 86371416 83736904 81091560 78449936 75826552 73232856 70677448 
2967.192 68166480 65704720 63297152 60950172 58670568 56465808 54341908 
2970.567 52301744 50345856 48471976 46675868 44952268 43295884 41702652 
2973.943 40169280 38694944 37280652 35929508 34645672 33432964 32293294 
2977.318 31225320 30223794 29280324 28384808 27527390 26700904 25901804 
2980.693 25129624 24387096 23677256 23003300 22366424 21766152 21200454 
2984.068 20666034 20158512 19674222 19209204 18761254 18328906 17912458 
2987.444 17513242 17133176 16773762 16435018 16116101 15814805 15529001 
2990.819 15257523 15000585 14759705 14536981 14333410 14147871 13976236 
2994.194 13811988 13648144 13478072 13298263 13109307 12915552 12724510 
2997.569 12544535 12383044 12244753 12129879 12034350 11951273 11872673 
3000.945 11791262 11703330 11608575 11510270 11412564 11318961 11230071 
3004.320 11143136 11052889 10953791 10843028 10721834 10595275 10471231 
3007.695 10357606 10258972 10175657 10104026 10037933 9971307 9900081 
3011.070 9823783 9743873 9663233 9584232 9507922 9434335 9362656 9292849 
3014.928 9225356 9160987 9099809 9040871 8981873 8920381 8855178 8787482 
3018.785 8720068 8657734 8604432 8562020 8529038 8501736 8474536 8442778 
3022.643 8403319 8356298 8303236 8246906 8189670 8133422 8078936 8026786 
3026.500 7977376 7931346 7888390 7847396 7806609 7762654 7713005 7656514 
3030.357 7593962 7527946 7462479 7401202 7345999 7297341 7254313 7215535 
3034.215 7179860 7147960 7120677 7099121 7083663 7073020 7064399 7054329 
3038.072 7039242 7016815 6986072 6947823 6904662 6859587 6816401 6777999 
3041.930 6746701 6722876 6705579 6692389 6680377 6666514 6649287 6628899 
3045.787 6607132 6586947 6570968 6560069 6552871 6545403 6532520 6509480 
3049.645 6473426 6424931 6368171 6310276 6259312 6222875 6206102 6210237 
3053.502 6232589 6267413 6306980 6343156 6369852 6383167 6382461 6369516 
3057.359 6348098 6321773 6293836 6266909 6242303 6220522 6201363 6184088 
3061.217 6166612 6146515 6121176 6088447 6048160 6002502 5956243 5915029 
3065.074 5883692 5864179 5854842 5849670 5841174 5822771 5790467 5745138 
3068.932 5691052 5635159 5583839 5541317 5507927 5481988 5459574 5437060 
3072.789 5412099 5384085 5353793 5323134 5293785 5267759 5246630 5231774 
3076.646 5223759 5221814 5223088 5222954 5215408 5194785 5157935 5104894 
3080.504 5040294 4970979 4905930 4852015 4813685 4791473 4782796 4783232 
3084.361 4788090 4793785 4798174 4800720 4801725 4801557 4800854 4799681 
3088.219 4798006 4796063 4793684 4791440 4789497 4788358 4788090 4789028 
3092.076 4790703 4792110 4791842 4787922 4778709 4763199 4742061 4717139 
3095.934 4691415 4668305 4650119 4637828 4630628 4626475 4623294 4619141 
3099.791 4613382 4606182 4598312 4590041 4581368 4571791 4560809 4548353 
3103.648 4535462 4524246 4516713 4514938 4519291 4528967 4542092 4555586 
3107.506 4567037 4574303 4576111 4572294 4563287 4550328 4534859 4518956 
3111.363 4504392 4493244 4486012 4482464 4480924 4478413 4471885 4458896 
3115.221 4438309 4411731 4381741 4352723 4328962 4313601 4307945 4310790 
3119.078 4319056 4328560 4335086 4335588 4328962 4316479 4301621 4288972 
3122.936 4283450 4288336 4304432 4329631 4359015 4386493 4405003 4409455 
3126.793 4396568 4366512 4322068 4268292 4212014 4159723 4117040 4088408 
3130.650 4075665 4078675 4094428 4118444 4144737 4167853 4183576 4190200 
3134.508 4188896 4183208 4177822 4177655 4185684 4202780 4227605 4256648 
3138.365 4285491 4310589 4329029 4339671 4343319 4341445 4336324 4329731 
3142.223 4323306 4317450 4312731 4308615 4304733 4300650 4295965 4290645 
3146.080 4284756 4279134 4274717 4272609 4274114 4279870 4290043 4303930 
3149.938 4319658 4334952 4347670 4355668 4358245 4355300 4348105 4337763 
3153.795 4325515 4311493 4295229 4276390 4254807 4231921 4210642 4195085 
3157.652 4189264 4195821 4215092 4244134 4277528 4309719 4335354 4351351 
3161.510 4357442 4355166 4346799 4334484 4319424 4301487 4280907 4258522 
3165.367 4236873 4219174 4208701 4206694 4211880 4219676 4224594 4221081 
3169.225 4206159 4180733 4148918 4116404 4089211 4070982 4062286 4061049 
3173.082 4063223 4064460 4062018 4054560 4042420 4028073 4014295 4003895 
3176.939 3999346 4002423 4012556 4027571 4043557 4055263 4058038 4049142 
3180.797 4029076 4001988 3974401 3953535 3945711 3953803 3976842 4010917 
3184.654 4049978 4087772 4119616 4141994 4153401 4153635 4143566 4125202 
3188.512 4101954 4078407 4060012 4050714 4052654 4064861 4083391 4102523 
3192.369 4117007 4124198 4124232 4120117 4115434 4112892 4112792 4112725 
3196.227 4109012 4098476 4080380 4056600 4031016 4008442 3991722 3981690 
3200.084 3976774 3973798 3970087 3963901 3955642 3947182 3940194 3936817 
3203.941 3937218 3940228 3943939 3945510 3942501 3933206 3916489 3892985 
3207.799 3864033 3832276 3800320 3770272 3744003 3721511 3702763 3687124 
3211.656 3675428 3668879 3669747 3679304 3697516 3722045 3749049 3774584 
3215.514 3796309 3814627 3833078 3855877 3886131 3923878 3964603 4000316 
3219.371 4023190 4027103 4011051 3978447 3936717 3893453 3854038 3820042 
3223.229 3789758 3760178 3729030 3696213 3665203 3641078 3628549 3630486 
3227.086 3646892 3674259 3707776 3742064 3772979 3797747 3814961 3824822 
3230.943 3827763 3825022 3817601 3806872 3793736 3779096 3762685 3744270 
3234.801 3723349 3699655 3673724 3647226 3621532 3598445 3578600 3561562 
3238.658 3546229 3530963 3514962 3497693 3480258 3464092 3451234 3444253 
3242.516 3445556 3457847 3482863 3521376 3571852 3630252 3689630 3741162 
3246.373 3777157 3790928 3780065 3746008 3694275 3632758 3569614 3512958 
3250.230 3467766 3437140 3421343 3418571 3425718 3438342 3452703 3465261 
3254.088 3474146 3479456 3483598 3489911 3502203 3522946 3552376 3587855 
3257.945 3624071 3654978 3674292 3677533 3663131 3632892 3591095 3544425 
3261.803 3500165 3464994 3443285 3437073 3444888 3462355 3483464 3502369 
3265.660 3513793 3515564 3508282 3495522 3482195 3473210 3472175 3479924 
3269.518 3494620 3512290 3527990 3537276 3537510 3528825 3514328 3498896 
3273.375 3488141 3486971 3497460 3518904 3547331 3577765 3604693 3624405 
3277.232 3635799 3639808 3639107 3636701 3634396 3633694 3634062 3634563 
3281.090 3633861 3630119 3621031 3604292 3577364 3539180 3490445 3435270 
3284.947 3380735 3334989 3306209 3298863 3313253 3344405 3384676 3425618 
3288.805 3460652 3487305 3506912 3523714 3541218 3561863 3584848 3606798 
3292.662 3623537 3630954 3627379 3613513 3592398 3568277 3545828 3529727 
3296.520 3523213 3528257 3544993 3571117 3602287 3633092 3657952 3672354 
3300.377 3673924 3663499 3643417 3618091 3592031 3568578 3550873 3540884 
3304.234 3539715 3547732 3564235 3587387 3613614 3638940 3659222 3671819 
3308.092 3676230 3673858 3667709 3660191 3652907 3646090 3638338 3628715 
3311.949 3616988 3604025 3591697 3581540 3573990 3568545 3564168 3560226 
3315.807 3557453 3557587 3562665 3573422 3588289 3603022 3613012 3614716 
3319.664 3608101 3596541 3586318 3584079 3593568 3614683 3642548 3670416 
3323.521 3691468 3702195 3703431 3699455 3696313 3699354 3710483 3728562 
3327.379 3749383 3767297 3777659 3777525 3766796 3747278 3723683 3701226 
3331.236 3685687 3681777 3692537 3717166 3752324 3791396 3827529 3853837 
3335.094 3866875 3866674 3855944 3838928 3819641 3799451 3777893 3752959 
3338.951 3722981 3688160 3650902 3614716 3584146 3562231 3550238 3547532 
3342.809 3552543 3563333 3578600 3597710 3619628 3642715 3664535 3682145 
3346.666 3693139 3696681 3694375 3689062 3684952 3685252 3691401 3703130 
3350.523 3718202 3733475 3746943 3757705 3765760 3772846 3780065 3787886 
3354.381 3795173 3799485 3797379 3786215 3764791 3733876 3696815 3658387 
3358.238 3623737 3596909 3579569 3571284 3569513 3571351 3574892 3579770 
3362.096 3587721 3601051 3621900 3650267 3683782 3717734 3746943 3766161 
3365.953 3772277 3764189 3743167 3711251 3671452 3626945 3580906 3536909 
3369.811 3498729 3469536 3451635 3445489 3449864 3462122 3479456 3499664 
3373.668 3521343 3544292 3567943 3591196 3612077 3627880 3636567 3637737 
3377.525 3632625 3624038 3614950 3607800 3603022 3600350 3598646 3598412 
3381.383 3600517 3607733 3621499 3641479 3664835 3685954 3699087 3700323 
3385.240 3689363 3670449 3649699 3633727 3626744 3628749 3636601 3644988 
3389.098 3649632 3647961 3640343 3629551 3618625 3610105 3604927 3602755 
3392.955 3603156 3606130 3613046 3625608 3645890 3674225 3709313 3747645 
3396.813 3785513 3818604 3844143 3860958 3868747 3868212 3860356 3846082 
3400.670 3826460 3802560 3775753 3747445 3718904 3690900 3663800 3637804 
3404.527 3613580 3592198 3575694 3565939 3564369 3571017 3584213 3600884 
3408.385 3616353 3626510 3627814 3618993 3601385 3577966 3553745 3533168 
3412.242 3519973 3515998 3521209 3533569 3550071 3568177 3585483 3601085 
3416.100 3614616 3626210 3635999 3644119 3650634 3656014 3661494 3668611 
3419.957 3678202 3690298 3703465 3714627 3720308 3718069 3707141 3689129 
3423.814 3667977 3648028 3633828 3627513 3629584 3638472 3651503 3665972 
3427.672 3679505 3691000 3699421 3704835 3707575 3708411 3708277 3708511 
3431.529 3710182 3714058 3719873 3726691 3733709 3740493 3747211 3755633 
3435.387 3766997 3782371 3800554 3818638 3833045 3840265 3838393 3828432 
3439.244 3813724 3798883 3788020 3783708 3785981 3793669 3804198 3815529 
3443.102 3826092 3834884 3841001 3842639 3837290 3823083 3799251 3768066 
3446.959 3733809 3702796 3680474 3669347 3668845 3675495 3684851 3692203 
3450.816 3694542 3690465 3679639 3662897 3640844 3614850 3586284 3558355 
3454.674 3535506 3522979 3525351 3544993 3581106 3628983 3681978 3732105 
3458.531 3772779 3800755 3815830 3821045 3821011 3820443 3822683 3827964 
3462.389 3834215 3837992 3835485 3824655 3806237 3783474 3762150 3747278 
3466.246 3742498 3747846 3759477 3770941 3775286 3768400 3750653 3726891 
3470.104 3705303 3694308 3699187 3720809 3754263 3791964 3824788 3846483 
3473.961 3854239 3850127 3838360 3824086 3811050 3800019 3789758 3777893 
3477.818 3762618 3743568 3722112 3701293 3683715 3671619 3665905 3666038 
3481.676 3670683 3678268 3687692 3698352 3710182 3723315 3737820 3753126 
3485.533 3768434 3782739 3794772 3803797 3809746 3813022 3814593 3815429 
3489.391 3815830 3815429 3812855 3806638 3795875 3780734 3762953 3745573 
3493.248 3732005 3724619 3724218 3728863 3735447 3739958 3739724 3734210 
3497.105 3726056 3719372 3718971 3728362 3748681 3778327 3813189 3848322 
3500.963 3878609 3900374 3912309 3915285 3912243 3906793 3902513 3901377 
3504.820 3903984 3909702 3916489 3922640 3925784 3924078 3915653 3899371 
3508.678 3875400 3844979 3811752 3779664 3753661 3737251 3731670 3735848 
3512.535 3746074 3757638 3765058 3764791 3756335 3741730 3725688 3713457 
3516.393 3709346 3715128 3729598 3749016 3768802 3784544 3794371 3797914 
3520.250 3797446 3795373 3794738 3797747 3805802 3819273 3837390 3859053 
3524.107 3882120 3904152 3922607 3935714 3942601 3943839 3940729 3935714 
3527.965 3929996 3923510 3914917 3902045 3883223 3858551 3830404 3803529 
3531.822 3782405 3770974 3771041 3781168 3797914 3816465 3832176 3841770 
3535.680 3844076 3840065 3832276 3823418 3816298 3812955 3814560 3821847 
3539.537 3834917 3853436 3876771 3903349 3931969 3960657 3988579 4014495 
3543.395 4038340 4059577 4077972 4093157 4104864 4112959 4117508 4119515 
3547.252 4120218 4120853 4122760 4126172 4131624 4138214 4144670 4149153 
3551.109 4149086 4142262 4127209 4104329 4075564 4044895 4016101 3992859 
3554.967 3976909 3968516 3966141 3967445 3969652 3971023 3970555 3968783 
3558.824 3966843 3966141 3966910 3968716 3970020 3969218 3965372 3959153 
3562.682 3952666 3949422 3954070 3970455 4001286 4046902 4103092 4160125 
3566.539 4205490 4226802 4218170 4183375 4132895 4079076 4031384 3995802 
3570.396 3974200 3965406 3966375 3973698 3983964 3995400 4007907 4022822 
3574.254 4042219 4067537 4098743 4134200 4170964 4204988 4232423 4249989 
3578.111 4254439 4244000 4217300 4174577 4118077 4052386 3984834 3923978 
3581.969 3879211 3858986 3867744 3906525 3971291 4054193 4143967 4228575 
3585.826 4295497 4334852 4341512 4318587 4275453 4223724 4173440 4129784 
3589.684 4094629 4068507 4052955 4049644 4060447 4085832 4122760 4165311 
3593.541 4205690 4236739 4255443 4264042 4269430 4279167 4298141 4326585 
3597.398 4360789 4394660 4421773 4438476 4443598 4438376 4424317 4402359 
3601.256 4372503 4334751 4291080 4246041 4206560 4180666 4174242 4189933 
3605.113 4225497 4274416 4326552 4370896 4399145 4407413 4398074 4377390 
3608.971 4353326 4332576 4319491 4317617 4330066 4360053 4409321 4475668 
3612.828 4551065 4622792 4678386 4709536 4716369 4705182 4686023 4668138 
3616.686 4658157 4658860 4668741 4683478 4696842 4704579 4704076 4694698 
3620.543 4677214 4651392 4617266 4575710 4528699 4479384 4431781 4389473 
3624.400 4354497 4327322 4306908 4291582 4280941 4276658 4281644 4298843 
3628.258 4326720 4356873 4376720 4378829 4364705 4342114 4318989 4300985 
3632.115 4289708 4283852 4279234 4271504 4258387 4241089 4223590 4210877 
3635.973 4206560 4211044 4221884 4234866 4245773 4252398 4255376 4257183 
3639.830 4260797 4268225 4279468 4293723 4310556 4330970 4358112 4396200 
3643.688 4448987 4518353 4603369 4699655 4799246 4892861 4968867 5017668 
3647.545 5033657 5018405 4979424 4927009 4871784 4821023 4779212 4748191 
3651.402 4728260 4718446 4717441 4723638 4736299 4753585 4773115 4790468 
3655.260 4798911 4791038 4761758 4712249 4649583 4584349 4526054 4481761 
3659.117 4454879 4444937 4448418 4459499 4472186 4481627 4485979 4486347 
3662.975 4485979 4488322 4496391 4511624 4533821 4562550 4596872 4636187 
3666.832 4679793 4726116 4771775 4810871 4836066 4840757 4823334 4790602 
3670.689 4754857 4727825 4715599 4719853 4739080 4771038 4811876 4854896 
3674.547 4889543 4900300 4877313 4823737 4754757 4685722 4626810 4583009 
3678.404 4555284 4543297 4545340 4558231 4577986 4600857 4624198 4645833 
3682.262 4664789 4679927 4690410 4696373 4699052 4701899 4709301 4727222 
3686.119 4760217 4810335 4874264 4942458 4998596 5025511 5013344 4965113 
3689.977 4894570 4818376 4749632 4694262 4652062 4619577 4594160 4574504 
3693.834 4562148 4559637 4569581 4592485 4626241 4665291 4702803 4733720 
3697.691 4754924 4766984 4772411 4774354 4774823 4773852 4769296 4758375 
3701.549 4739415 4713287 4682942 4652698 4625337 4602163 4583645 4570619 
3705.406 4565061 4571724 4597140 4648143 4730136 4844744 4987636 5146970 
3709.264 5305759 5441724 5532726 5564071 5532927 5450917 5338229 5217588 
3713.121 5105497 5011031 4937732 4885355 4852350 4836569 4834893 4843337 
3716.979 4857242 4871683 4883110 4890482 4895743 4903283 4918295 4944502 
3720.836 4982676 5030305 5081225 5127423 5162226 5181171 5182848 5168966 
3724.693 5142645 5108447 5071670 5038148 5012539 4997624 4993401 4996887 
3728.551 5003959 5010193 5012205 5007143 4994608 4976441 4957539 4944502 
3732.408 4944636 4963873 5005400 5068687 5148546 5234691 5310891 5360972 
3736.266 5375934 5356880 5313440 5257027 5198038 5143081 5096646 5060374 
3740.123 5034160 5016696 5006775 5004495 5012774 5037780 5088030 5170207 
3743.980 5279900 5398108 5496685 5558533 5582530 5577798 5554238 5520376 
3747.838 5482457 5445918 5415990 5397572 5392405 5397236 5402705 5397874 
3751.695 5373082 5326489 5262963 5191935 5123266 5065502 5024439 5003523 
3755.553 5004294 5025981 5065569 5116594 5170307 5217085 5247838 5257027 
3759.410 5243444 5211921 5171146 5131815 5103452 5091919 5099965 5127054 
3763.268 5169939 5221780 5272991 5312702 5332124 5328367 5305692 5273930 
3767.125 5243008 5221076 5211955 5214537 5222518 5226911 5219198 5195523 
3770.982 5158371 5114650 5072609 5038718 5016662 5006875 5007210 5014015 
3774.840 5023467 5033523 5044082 5057826 5078040 5107542 5145964 5188582 
3778.697 5225100 5243679 5235261 5198307 5139158 5069391 5000976 4942592 
3782.555 4899965 4874197 4862469 4858481 4855499 4847491 4832582 4812948 
3786.412 4793986 4782194 4782127 4796063 4822798 4858247 4896145 4930829 
3790.270 4957908 4975470 4984586 4988642 4992429 5000775 5017333 5044082 
3794.127 5081124 5126317 5175907 5224899 5268664 5304854 5334673 5362415 
3797.984 5393714 5433134 5483431 5544438 5611127 5672856 5715190 5724221 
3801.842 5696893 5642880 5578234 5515510 5461889 5419546 5387608 5363723 
3805.699 5343529 5321625 5291840 5249783 5195859 5134699 5073347 5018707 
3809.557 4977280 4953350 4949931 4967292 5003121 5053401 5113577 5180702 
3813.414 5252734 5328065 5404148 5473968 5527625 5556486 5560245 5548969 
3817.271 5538766 5545982 5580617 5646606 5739363 5843323 5928968 5961249 
3821.129 5919261 5812865 5677993 5552392 5461016 5411293 5400759 5420855 
3824.986 5460010 5504336 5540109 5557258 5551922 5527759 5493598 5459909 
3828.844 5435114 5425082 5431792 5453735 5485981 5521585 5553801 5578201 
3832.701 5594747 5606528 5618947 5636905 5663592 5700150 5746078 5798694 
3836.559 5854339 5908513 5954799 5986040 5994842 5976096 5929271 5858872 
3840.416 5773477 5682390 5594479 5516047 5449474 5393915 5345541 5300124 
3844.273 5254344 5208467 5165278 5130072 5108615 5105162 5122930 5162494 
3848.131 5222350 5298448 5385763 5478498 5570414 5656609 5731574 5789091 
3851.988 5821562 5822906 5793019 5743090 5691152 5649224 5618175 5592733 
3855.846 5566454 5535780 5500712 5464540 5433302 5413541 5410454 5426827 
3859.703 5462258 5512356 5569843 5625694 5671010 5699042 5707032 5696490 
3863.561 5671883 5639255 5605320 5575784 5554875 5545411 5548633 5564910 
3867.418 5593505 5631534 5672521 5705085 5716701 5699277 5657281 5605186 
3871.275 5559674 5531954 5524672 5534068 5550311 5560580 5553264 5524034 
3875.133 5477324 5424210 5376101 5341751 5325751 5328400 5346816 5375430 
3878.990 5407435 5435986 5457292 5471854 5485008 5503027 5530947 5570985 
3882.848 5621532 5678328 5733958 5777539 5796444 5781502 5733119 5663491 
3886.705 5590652 5529907 5490746 5476082 5484807 5513128 5555345 5603172 
3890.563 5646438 5676617 5687728 5680074 5658892 5631434 5604447 5583000 
3894.420 5569944 5566253 5570951 5582429 5597801 5614013 5628580 5640295 
3898.277 5650298 5661980 5679806 5708341 5749738 5803194 5864179 5926550 
3902.135 5982144 6021954 6038383 6026019 5984260 5918556 5838521 5754774 
3905.992 5675878 5607032 5550445 5505980 5472827 5450112 5437530 5434946 
3909.850 5442193 5458466 5480981 5506249 5529336 5546116 5554506 5554506 
3913.707 5548969 5542357 5539706 5545512 5562292 5590014 5625828 5664330 
3917.564 5699143 5724792 5737080 5734025 5716936 5690380 5660906 5637173 
3921.422 5626231 5632776 5656744 5694039 5735805 5771260 5791273 5791642 
3925.279 5775088 5749335 5723986 5706360 5700082 5705185 5719085 5738692 
3929.137 5761422 5784960 5808298 5829420 5844868 5850342 5841140 5814410 
3932.994 5771059 5715694 5654797 5595485 5543700 5502725 5474203 5457997 
3936.852 5453400 5459037 5473465 5495276 5522859 5554842 5589477 5624519 
3940.709 5657516 5685378 5704783 5713478 5710590 5698035 5680108 5662249 
3944.566 5648821 5642981 5644995 5652883 5663189 5671245 5673931 5669231 
3948.424 5657583 5640967 5621968 5602635 5583705 5566253 5551251 5541183 
3952.281 5539505 5549371 5572663 5608743 5653622 5700519 5741210 5768742 
3956.139 5778379 5769011 5743157 5705588 5661913 5617235 5575482 5538766 
3959.996 5508598 5485813 5471150 5465580 5469942 5484672 5509202 5541921 
3963.854 5580013 5619316 5655669 5684841 5703876 5711598 5709416 5700519 
3967.711 5689306 5680208 5675878 5677825 5685277 5696658 5710221 5724692 
3971.568 5739229 5753062 5765351 5774585 5779722 5779957 5776096 5770153 
3975.426 5765183 5763135 5764646 5768742 5772704 5774114 5771965 5767265 
3979.283 5762866 5762262 5767399 5778077 5791441 5803127 5808835 5806753 
3983.141 5797385 5783751 5769716 5758300 5750879 5746985 5745205 5744400 
3986.998 5744836 5747320 5753028 5761893 5772671 5782375 5787546 5786673 
3990.855 5780360 5771932 5765653 5765385 5772805 5786303 5801851 5814477 
3994.713 5820488 5818473 5809977 5798963 5789863 5786169 5789594 5799433 
3998.570 5814241 5831502 5849637 5867235 5883994 
##END=
