##TITLE=masinsko_3 26.08. 11:18:18 2026 (GMT+02:00)
##JCAMP-DX=5.01  $$ Nicolet v. 970
##DATATYPE=INFRARED SPECTRUM
##ORIGIN=Vojna akademija
##OWNER=Nicolet
##LONGDATE=2026/08/26
##TIME=11:18:49
##SPECTROMETER/DATA SYSTEM=Nicolet iS20
##DATA PROCESSING=
Ratio against background
%Transmittance->Absorbance
Truncated
ElementMultiply or ElementDivide
##COMMENTS=
Number of sample scans: 8
Collection length: 11,90 sec
Sample gain: 8,0
Background collected on: Wed Aug 26 11:06:29 2026 (GMT+02:00);
Number of background scans: 8
Background gain: 8,0
Sample spacing:  1,000
Number of scan points: 12415
Resolution points: 8286
Number of FFT points: 65536
Apodization: N-B strong;
Phase correction: Mertz;
Laser frequency: 15798,00 cm-1
Number of rejected sample scans: 0
Number of rejected background scans: 0
Bench serial number: BER2010005;
##RESOLUTION= 4,000
##XUNITS=1/CM
##YUNITS=ABSORBANCE
##FIRSTX=400.156891
##LASTX=4000.123047
##FIRSTY=0.000757
##MAXX=4000.123047
##MINX=400.156891
##MAXY=0.280265
##MINY=-0.003017
##XFACTOR=1.000000
##YFACTOR=1.000000E-009
##NPOINTS=7468
##DELTAX=0.482117
##ZPD=6100
##XYDATA=(X++(Y..Y))
400.157 757308 2044536 2381099 2029023 1269661 341083 -602455 -1463084 
404.014 -2183469 -2714817 -3003956 -3016822 -2768353 -2341884 -1861715 
407.389 -1447728 -1159137 -956519 -706770 -230982 596324 1789008 3205591 
411.246 4591213 5631803 6074267 5795470 4852551 3454507 1894755 443659 
415.103 -742693 -1608326 -2177304 -2499384 -2613388 -2528637 -2233643 
418.477 -1752002 -1180550 -658106 -281283 -48869 106174 263827 474838 751201 
422.816 1064541 1363782 1598341 1752511 1854489 1965645 2142787 2412284 
426.673 2759536 3143376 3514662 3842940 4128781 4398945 4686090 5007445 
430.530 5347084 5659396 5879762 5946536 5819077 5479606 4925098 4159356 
434.387 3198114 2083388 895442 -235254 -1164688 -1785364 -2057084 -2021039 
438.244 -1769063 -1409287 -1021248 -649107 -300521 34957 358956 644039 
442.101 837574 879737 746521 470459 141372 -137186 -287508 -288799 -183788 
446.440 -60995 -16732 -108864 -335451 -633987 -918563 -1105665 -1144563 
450.297 -1019628 -738525 -319360 215921 841225 1520462 2198531 2803854 
454.154 3267782 3534370 3583946 3446424 3214470 3033387 3068757 3446625 
458.011 4168789 5093092 5979086 6603801 6809199 6539046 5839730 4855969 
461.868 3810415 2949579 2495922 2551178 3072461 3884627 4754556 5438704 
465.725 5740337 5563903 4921747 3932838 2767006 1604760 577114 -251547 
469.582 -862681 -1267183 -1487091 -1552038 -1500398 -1385210 -1263483 
472.957 -1170967 -1104178 -1017612 -849156 -547493 -103067 442996 1003330 
476.813 1476308 1778594 1878515 1810202 1657342 1517769 1460749 1518534 
480.670 1683286 1928102 2222310 2541646 2864186 3150018 3336893 3345674 
484.527 3108735 2616275 1940416 1230118 651605 344929 364362 666339 1122041 
488.866 1570241 1871527 1952398 1833193 1610812 1420922 1374186 1529473 
492.723 1873623 2342188 2848244 3320432 3717634 4023190 4234063 4353861 
496.580 4389707 4358279 4292418 4238948 4242996 4337864 4529603 4794120 
500.437 5077269 5311998 5437429 5411159 5222115 4882540 4415614 3845514 
504.294 3197847 2509452 1833992 1253478 865428 756113 978755 1522690 2310908 
508.633 3212300 4084562 4797771 5251258 5392875 5214067 4755226 4092856 
512.490 3335490 2597242 1972102 1530105 1300135 1273284 1404567 1628040 
516.347 1869697 2067674 2191205 2242559 2249753 2246956 2260078 2294119 
520.204 2335359 2358611 2341954 2275466 2166429 2036114 1915389 1836355 
524.061 1823045 1886935 2024762 2219712 2445604 2675681 2888968 3072728 
527.918 3223149 3341801 3432698 3501434 3555382 3604827 3661260 3736316 
531.775 3837056 3962329 4100048 4230315 4329263 4373808 4349041 4252934 
535.632 4096770 3901678 3696213 3511422 3374691 3309213 3328178 3430026 
539.489 3595973 3790560 3968047 4078340 4084361 3970221 3749651 3461687 
543.346 3164369 2917822 2765905 2730160 2801453 2944475 3102761 3217441 
547.203 3241242 3147882 2941339 2655078 2351049 2102532 1986282 2059018 
551.059 2338856 2800686 3378465 3983830 4516411 4894939 5070095 5035233 
554.916 4825412 4505262 4152699 3834282 3600249 3474446 3456410 3525819 
558.773 3651336 3800554 3944641 4066233 4159590 4228442 4280673 4322904 
562.630 4354999 4369859 4357141 4311894 4240821 4168455 4130621 4163069 
566.487 4288102 4499705 4760016 5004562 5166049 5190762 5061245 4800586 
570.344 4467031 4132059 3856044 3676063 3594135 3582275 3592298 3576295 
574.201 3498729 3349581 3147381 2938404 2782879 2733061 2820429 3041929 
578.058 3361936 3719606 4047370 4286060 4396033 4370830 4236371 4042353 
581.915 3840165 3669814 3546630 3461854 3389084 3296693 3161532 2974967 
585.772 2747632 2505953 2286658 2123774 2043604 2055455 2147349 2285892 
589.629 2422880 2510785 2512652 2420481 2259179 2085352 1964247 1948404 
593.486 2059450 2280230 2563144 2845776 3075831 3220545 3277263 3267147 
597.343 3224351 3178221 3144211 3122517 3103362 3077967 3045332 3014936 
601.200 3002424 3020574 3071893 3144845 3217107 3264043 3264911 3213669 
605.057 3119948 3009698 2915687 2870690 2898842 3006862 3181659 3391521 
608.913 3596942 3756569 3842940 3849124 3790560 3698486 3608869 3549235 
612.770 3527355 3529226 3524048 3478788 3367178 3182259 2937970 2667446 
616.627 2411951 2209388 2088482 2061048 2122509 2253683 2426678 2608442 
620.484 2766839 2880063 2938037 2946276 2921791 2886934 2857882 2838038 
624.341 2815960 2772875 2694251 2581476 2456734 2359877 2333193 2402255 
628.198 2566277 2795050 3040694 3249087 3382539 3427588 3395963 3314021 
632.055 3209196 3100492 2992182 2880396 2760837 2637110 2522250 2434542 
635.912 2388629 2389928 2431210 2496655 2567577 2630609 2680349 2717823 
639.769 2747132 2771207 2789648 2798652 2794784 2775642 2742264 2697252 
643.626 2643544 2584842 2526382 2476427 2447437 2453202 2503520 2599509 
647.483 2729993 2873659 3003525 3098256 3149484 3164403 3161065 3158862 
651.340 3170678 3196112 3223249 3234465 3217040 3167206 3093417 3009564 
655.197 2930464 2863052 2803821 2739996 2656578 2541980 2394926 2226373 
659.054 2059950 1927569 1859048 1878415 1993238 2192071 2442072 2695518 
662.911 2901477 3015103 3014869 2904879 2712589 2476827 2247422 2079559 
666.767 2029056 2145384 2436941 2842641 3242844 3541085 3706272 3754831 
670.624 3713791 3601252 3426052 3194242 2918656 2624142 2343320 2116682 
674.481 1979725 1956092 2054523 2264541 2556878 2885066 3197780 3446157 
678.338 3596007 3637603 3586351 3481694 3371486 3303037 3303438 3373890 
682.195 3490512 3617556 3720542 3778127 3790159 3773982 3754196 3749517 
686.052 3765125 3790794 3808710 3800086 3757338 3686923 3609705 3550104 
689.909 3531197 3566908 3660325 3804599 3986104 4188929 4397237 4598580 
693.766 4784873 4953685 5107944 5254780 5403308 5560178 5727914 5903777 
697.623 6082533 6259682 6436331 6618772 6817714 7040084 7284806 7537521 
701.480 7774225 7967049 8092810 8143010 8126096 8067054 7996275 7945282 
705.337 7938466 7991584 8115327 8317725 8605379 8980926 9441446 9974120 
709.194 10555995 11160576 11762358 12344930 12906507 13459241 14024075 
712.569 14621993 15271251 15982872 16763432 17618508 18554314 19576464 
715.943 20684904 21868724 23101798 24343218 25548204 26672612 27684972 
719.318 28570800 29327822 29957710 30456952 30813006 31007762 31024416 
722.693 30855766 30507316 29996760 29350226 28595854 27765568 26892098 
726.068 26008104 25147846 24340520 23608016 22963404 22410696 21947376 
729.443 21567104 21261516 21020584 20831090 20677328 20540054 20400600 
732.817 20245050 20066338 19867928 19658828 19452218 19257658 19079282 
736.192 18915826 18762812 18614728 18466522 18312974 18146594 17956416 
739.567 17731044 17461912 17148790 16804312 16451536 16116066 15819823 
742.942 15572031 15368181 15193386 15030804 14869723 14710071 14561718 
746.317 14438284 14351355 14303515 14287934 14288585 14287043 14264513 
749.692 14206069 14101525 13946160 13739924 13488942 13206986 12913368 
753.066 12629226 12374179 12158535 11983188 11839848 11717082 11605377 
756.441 11501662 11409502 11337564 11293591 11280941 11297230 11335796 
759.816 11386644 11439675 11486317 11518164 11527112 11506936 11454950 
763.191 11375896 11282301 11193894 11131102 11106899 11121584 11160746 
766.566 11200490 11214464 11186108 11113527 11011764 10905235 10821729 
769.940 10781035 10789730 10841092 10917535 10997321 11058904 11087524 
773.315 11077224 11031137 10959703 10876968 10795505 10719015 10639586 
776.690 10536984 10386247 10165787 9871235 9522181 9164405 8855043 8648135 
780.547 8576551 8638434 8798472 8997332 9174422 9277854 9281239 9184676 
784.404 9007751 8777034 8517853 8249743 7986217 7738402 7518270 7336024 
788.261 7199230 7107474 7053049 7021866 6999372 6975365 6946577 6915469 
792.118 6887056 6865074 6849354 6837472 6826095 6813810 6801862 6791529 
795.975 6783721 6777158 6771201 6769181 6781196 6822292 6908231 7046819 
799.832 7232717 7445053 7653412 7830292 7959354 8042684 8097907 8149999 
803.689 8218000 8306039 8403522 8491769 8555667 8592604 8615281 8647324 
807.546 8713037 8826063 8986440 9181563 9394244 9608351 9815175 10011992 
811.402 10196892 10365547 10507585 10609739 10662473 10662914 10618228 
814.777 10541159 10445707 10340742 10228067 10105619 9971036 9826562 9678613 
818.634 9535017 9399898 9271592 9141868 9001222 8843443 8669768 8489200 
822.491 8313436 8152227 8010112 7885388 7774629 7675501 7589444 7520900 
826.348 7473401 7445120 7428570 7411246 7382463 7336159 7274900 7206271 
830.205 7138259 7073761 7007521 6929407 6830370 6708910 6576047 6451397 
834.062 6359934 6322176 6347459 6432733 6564341 6723212 6887965 7040825 
837.919 7167463 7257615 7306607 7316783 7300339 7276686 7271160 7305259 
841.776 7387452 7509100 7644880 7761845 7828572 7829077 7766837 7663259 
845.633 7545579 7439525 7358805 7304248 7269205 7246631 7235783 7242993 
849.490 7278235 7348695 7453884 7584150 7723730 7856237 7970930 8063543 
853.347 8134536 8184572 8210808 8206959 8164584 8079206 7952807 7795274 
857.204 7622320 7450109 7293364 7162983 7066183 7007925 6991392 7016343 
861.060 7077937 7165982 7266443 7363827 7448322 7517596 7579193 7645318 
864.917 7728284 7833463 7956419 8083662 8198821 8288309 8345861 8373728 
868.774 8379504 8371195 8352380 8322116 8276083 8211314 8130586 8043764 
872.631 7966340 7917274 7912989 7962628 8066514 8214150 8386158 8556343 
876.488 8697858 8786265 8804050 8744138 8611260 8420480 8192776 7952302 
880.345 7721301 7516989 7353649 7240230 7182050 7179557 7227529 7315974 
884.202 7430930 7559604 7692296 7826007 7963910 8112457 8275171 8449873 
888.059 8626165 8788801 8923087 9019389 9078154 9107253 9118723 9121532 
891.916 9119162 9109350 9088710 9056501 9017562 8981332 8956639 8946221 
895.773 8944226 8937225 8911858 8860758 8787618 8704991 8629883 8573408 
899.630 8535357 8503290 8458286 8383929 8272875 8131092 7974102 7820947 
903.487 7685315 7573091 7482098 7406831 7342730 7288782 7247305 7219915 
907.344 7204620 7195962 7187035 7175009 7164971 7169552 7203475 7278741 
911.201 7397360 7549692 7716141 7875265 8011800 8120560 8207499 8284897 
915.058 8365384 8455245 8552828 8649216 8733658 8795631 8828836 8831203 
918.914 8803611 8748635 8670849 8576957 8475989 8378896 8296516 8235965 
922.771 8200273 8186260 8187610 8196120 8204020 8206013 8198382 8179305 
926.628 8147939 8105975 8059088 8017504 7996275 8009370 8067763 8172721 
930.485 8315767 8478455 8639009 8779503 8889841 8971692 9035390 9095883 
934.342 9165420 9250166 9347725 9450419 9547515 9630539 9696266 9746347 
938.199 9786774 9823037 9858049 9888860 9906488 9896725 9846492 9747600 
942.056 9602897 9427596 9249455 9100586 9006702 8980250 9013570 9082214 
945.913 9150666 9188568 9179972 9129212 9059208 9002339 8987658 9027846 
949.770 9115914 9227997 9333540 9404672 9428645 9410632 9371695 9339397 
953.627 9339735 9388759 9488076 9624171 9772846 9907166 10001787 10040882 
957.484 10021860 9956219 9866998 9782165 9729167 9724457 9770847 9856219 
961.341 9959780 10057498 10130750 10172028 10185359 10182509 10176574 
964.716 10176878 10184273 10191736 10186173 10154866 10088629 9985309 
968.090 9851169 9699858 9550462 9421941 9330831 9285572 9283676 9312212 
971.947 9352228 9384188 9393838 9377891 9343561 9304934 9275247 9261674 
975.804 9261979 9265939 9261132 9239200 9199804 9150395 9100586 9056771 
979.661 9017528 8974466 8916830 8837932 8740691 8637150 8543872 8473151 
983.518 8427406 8396833 8364404 8312896 8234715 8136089 8035089 7952909 
987.375 7906780 7901550 7929388 7972752 8013049 8038228 8046092 8043797 
991.232 8042819 8053654 8080827 8122721 8172518 8223200 8268890 8307593 
995.089 8340524 8370688 8401664 8436257 8476732 8523834 8576551 8630998 
998.946 8680618 8716282 8728554 8710805 8660810 8582702 8485213 8380822 
1002.803 8282737 8202468 8150168 8132443 8152868 8210436 8299622 8409501 
1006.660 8525017 8630862 8713408 8764965 8785116 8779740 8757662 8726457 
1010.517 8691131 8652495 8609976 8564149 8518563 8480416 8458488 8459029 
1014.374 8484470 8532180 8595037 8663582 8728249 8780788 8814161 8823324 
1018.231 8805877 8763004 8701036 8631978 8570975 8530998 8519915 8536438 
1022.087 8571820 8613829 8653678 8690962 8735078 8800399 8899277 9033529 
1025.945 9190633 9344103 9462169 9520047 9508057 9437246 9334454 9236627 
1029.802 9174693 9166435 9210769 9290108 9376842 9441818 9465454 9440464 
1033.660 9372677 9277515 9174422 9079812 9002947 8944598 8899176 8858120 
1037.517 8815953 8773789 8741129 8732880 8763342 8841415 8963574 9113647 
1041.374 9263773 9383037 9444900 9433555 9349892 9209686 9039450 8867758 
1045.232 8721421 8619472 8570908 8576112 8628024 8716146 8827618 8950281 
1049.089 9072910 9185049 9278091 9345626 9384256 9394007 9380024 9352126 
1052.947 9321657 9301651 9301414 9324603 9366515 9417302 9465150 9500979 
1056.804 9523163 9537659 9555475 9585215 9627761 9672312 9699281 9685356 
1060.661 9613839 9482861 9307642 9116117 8940539 8808345 8731900 8708777 
1064.519 8724362 8759454 8795225 8818996 8823730 8806992 8768312 8709487 
1068.376 8635020 8554112 8479976 8428183 8410582 8431156 8483963 8556275 
1072.234 8630592 8691706 8731765 8748669 8743800 8718040 8668348 8588887 
1076.091 8474671 8327352 8157629 7986421 7840210 7741910 7707676 7741674 
1079.949 7835757 7971267 8123429 8264939 8367749 8409434 8375045 8262744 
1083.806 8085619 7874253 7670307 7514427 7438615 7453581 7546758 7684438 
1087.663 7825231 7931311 7977511 7959152 7888863 7789337 7683628 7590523 
1091.521 7520361 7475896 7454423 7451087 7460356 7476469 7494436 7511561 
1095.378 7527744 7546691 7575282 7620533 7685787 7767849 7855831 7934686 
1099.236 7987365 8002215 7976093 7914608 7830697 7740460 7660021 7600638 
1103.093 7569416 7567055 7588364 7622657 7654794 7670105 7657425 7614126 
1106.951 7548680 7480446 7431873 7422267 7458536 7532093 7618948 7687372 
1110.808 7710070 7669768 7566752 7417347 7249462 7092823 6974422 6914324 
1114.665 6923953 7006713 7158032 7366118 7609810 7860555 8086869 8256867 
1118.523 8348495 8354980 8287498 8172552 8045248 7941503 7886029 7890247 
1122.380 7948522 8042751 8146251 8231439 8277299 8271558 8213780 8114685 
1126.238 7994014 7873882 7775338 7713308 7693881 7715838 7772707 7857451 
1130.095 7964889 8092472 8238565 8399569 8567899 8730683 8871241 8974634 
1133.953 9030586 9037217 9001019 8935195 8855448 8775649 8706680 8655267 
1137.810 8624036 8613659 8623393 8651481 8696539 8757256 8832690 8922613 
1141.667 9025275 9136589 9248812 9351584 9433555 9487670 9515441 9529835 
1145.525 9552528 9607707 9714291 9876454 10080625 10297107 10491869 10633372 
1149.382 10705194 10708827 10662438 10591235 10517939 10457553 10413329 
1152.757 10381564 10356079 10334193 10317328 10310814 10318889 10341997 
1156.133 10376202 10414483 10450255 10480702 10507484 10535387 10568691 
1159.508 10607804 10647633 10679349 10692322 10678534 10636394 10570864 
1162.883 10493634 10419370 10364597 10342065 10359269 10415195 10501000 
1166.258 10600470 10693206 10760417 10788065 10770199 10709880 10616156 
1169.634 10499778 10368872 10226336 10070825 9900081 9715308 9523570 9338246 
1173.491 9176013 9050411 8968478 8928160 8919637 8928262 8940100 8945918 
1177.349 8942264 8931170 8917168 8905534 8898837 8897620 8900697 8906007 
1181.206 8912095 8919299 8928228 8940438 8956504 8975345 8993409 9005113 
1185.063 9003083 8980114 8931205 8855584 8758203 8648168 8538804 8442980 
1188.921 8370113 8325325 8307897 8312997 8332890 8359034 8383118 8398083 
1192.778 8399131 8383861 8354136 8314551 8274327 8242854 8228029 8233161 
1196.636 8255382 8287363 8319719 8345759 8364675 8381598 8405211 8443318 
1200.493 8498255 8564183 8628463 8675412 8691976 8671458 8616364 8536134 
1204.350 8445751 8358865 8287498 8239882 8219689 8227894 8261798 8316374 
1208.208 8383085 8451866 8512110 8555633 8578748 8582567 8572564 8555565 
1212.065 8537317 8520320 8504608 8488795 8472475 8456731 8444062 8435615 
1215.923 8430311 8422812 8405820 8372917 8322319 8258894 8194263 8143415 
1219.780 8119209 8129202 8172788 8241536 8321474 8397982 8459129 8497343 
1223.638 8510149 8499641 8470719 8429467 8382342 8335930 8294759 8263149 
1227.495 8243157 8235627 8240320 8256057 8281352 8314010 8351197 8389301 
1231.352 8424028 8451393 8468826 8475618 8472780 8463116 8449028 8432508 
1235.210 8413825 8392746 8369674 8347043 8329007 8321103 8327993 8352414 
1239.067 8393422 8447777 8510892 8578579 8647324 8715267 8780247 8839386 
1242.925 8888286 8922174 8937225 8932591 8910675 8876551 8836478 8795631 
1246.782 8757324 8723584 8695998 8677204 8671322 8682815 8714929 8767061 
1250.640 8835294 8912027 8988808 9058530 9117741 9165826 9205456 9239436 
1254.497 9270170 9298231 9323418 9344983 9362182 9374708 9382022 9383748 
1258.354 9380260 9373591 9368445 9372236 9392009 9431964 9491260 9562045 
1262.212 9632742 9693014 9736554 9764612 9784233 9805211 9834358 9871912 
1266.069 9912217 9946659 9968391 9976799 9977579 9981308 9998024 10032304 
1269.927 10080625 10133193 10178099 10206593 10216906 10214599 10210359 
1273.302 10214226 10231764 10262433 10300499 10338197 10367956 10386790 
1276.677 10395071 10396903 10397378 10402537 10417198 10445097 10488746 
1280.052 10547847 10618771 10694767 10766905 10826655 10868304 10891237 
1283.428 10900003 10903231 10908735 10921544 10941999 10965548 10985564 
1286.803 10997185 10999496 10996268 10995147 11004866 11032666 11082323 
1290.178 11154049 11245372 11352257 11469442 11591356 11711806 11824424 
1293.553 11923653 12006009 12071040 12121566 12163339 12203448 12248297 
1296.929 12302354 12366747 12440084 12517968 12594501 12663134 12717414 
1300.304 12752762 12767503 12764568 12750681 12735565 12729526 12739694 
1303.679 12767605 12809101 12855958 12897803 12926133 12936546 12929171 
1307.054 12907155 12875003 12836709 12795040 12752489 12711307 12674256 
1310.430 12643963 12621688 12605349 12589113 12564794 12523595 12459519 
1313.805 12371316 12263123 12142554 12018169 11898214 11789219 11695229 
1317.180 11618887 11560492 11517516 11484923 11454678 11418482 11369740 
1320.555 11306344 11231227 11152247 11078415 11018358 10977034 10954844 
1323.931 10948931 10955863 10973295 11001773 11044494 11104689 11183354 
1327.306 11277914 11381372 11484344 11579446 11662690 11736009 11806549 
1330.681 11884490 11980088 12100169 12247650 12420240 12612410 12815619 
1334.056 13021347 13221229 13408969 13581201 13738351 13884919 14027908 
1337.432 14174709 14329129 14488674 14642897 14776914 14876924 14935904 
1340.807 14957921 14955143 14943586 14936521 14944100 14971536 15020171 
1344.182 15088947 15175371 15276502 15388641 15507917 15629733 15749522 
1347.557 15864154 15972560 16076146 16177967 16280569 16384227 16485536 
1350.932 16577816 16653657 16707404 16736984 16744662 16737431 16723759 
1354.308 16712155 16711261 16728615 16771352 16848294 16968110 17138692 
1357.683 17365928 17652392 17998410 18404604 18877378 19431946 20095070 
1361.058 20898498 21868236 23004594 24267038 25574774 26831576 27958114 
1364.433 28908594 29673514 30263404 30698024 31001322 31205988 31360850 
1367.809 31528308 31785912 32206144 32838936 33708816 34817312 36159200 
1371.184 37738444 39579472 41721212 44193804 46983928 49989304 53007500 
1374.559 55789488 58107156 59829220 60922836 61403460 61288636 60575364 
1377.934 59254164 57343764 54923844 52140800 49163516 46157676 43244708 
1381.310 40491376 37933400 35584736 33447884 31514808 29760372 28140528 
1384.685 26594754 25061344 23490308 21864786 20213146 18603038 17112806 
1388.060 15797110 14669903 13712874 12895072 12188113 11572197 11033991 
1391.435 10562988 10148082 9779421 9450317 9161495 8919333 8730176 8593246 
1395.293 8493830 8409772 8321812 8220296 8108001 7995904 7897096 7818181 
1399.150 7757460 7707237 7661505 7620061 7590084 7580239 7595783 7634156 
1403.008 7683899 7727575 7750849 7748724 7731353 7717456 7725416 7762992 
1406.865 7825096 7899458 7973967 8042717 8105942 8167657 8230528 8291416 
1410.723 8342753 8377781 8395820 8407373 8430650 8484841 8580741 8716991 
1414.580 8881048 9055316 9224105 9381513 9531055 9682510 9842492 10007687 
1418.437 10161615 10286249 10377492 10452190 10535965 10650078 10801381 
1421.813 10985767 11193520 11417530 11658469 11925799 12231768 12583348 
1425.188 12975530 13394651 13827756 14272114 14740887 15261196 15866525 
1428.563 16583461 17418178 18351650 19347166 20368756 21395574 22425628 
1431.938 23466770 24527452 25609988 26714612 27850032 29039328 30327530 
1435.314 31772792 33415176 35225720 37090176 38857828 40426168 41785160 
1438.689 42993796 44131740 45275176 46477868 47767928 49147412 50601840 
1442.064 52107328 53639944 55182952 56724364 58254336 59767048 61259980 
1445.439 62741332 64232020 65763152 67362696 69039920 70777584 72535496 
1448.815 74277720 75997552 77720728 79496008 81370088 83364152 85456400 
1452.190 87585120 89675520 91658216 93502408 95216608 96829128 98365208 
1455.565 99815752 101113800 102139320 102801424 103127680 103241176 
1458.458 103268240 103257144 103198696 103068184 102854000 102562400 
1461.351 102206384 101789976 101294248 100668512 99836808 98715800 97251512 
1464.726 95451664 93368792 91056256 88528808 85752344 82691032 79340464 
1468.102 75750296 71995552 68163840 64314356 60430324 56440036 52241160 
1471.477 47789676 43205840 38815036 35005860 31987560 29706262 27937832 
1474.852 26432216 25025330 23647096 22309948 21063746 19957008 19004920 
1478.227 18189746 17477056 16832794 16232515 15663395 15119343 14596224 
1481.603 14088826 13594637 13115420 12660269 12241515 11871958 11558007 
1484.978 11297196 11078686 10889164 10718778 10565636 10435525 10333955 
1488.353 10253273 10168975 10041493 9839781 9564959 9251893 8949638 8693903 
1492.211 8498898 8358021 8253660 8165665 8076776 7975486 7856776 7721976 
1496.068 7576665 7428099 7283559 7150587 7037053 6949978 6891331 6855245 
1499.925 6828485 6793211 6736538 6653661 6551559 6444436 6351024 6288894 
1503.783 6269128 6296862 6368945 6473257 6581598 6650801 6632229 6508067 
1507.640 6308090 6078501 5849872 5635059 5441992 5279196 5154246 5072609 
1511.498 5031947 5021925 5026350 5030204 5022662 4998965 4957472 4897552 
1515.355 4817404 4714862 4592620 4462110 4341143 4247279 4189331 4166247 
1519.213 4168555 4182071 4188929 4171399 4121756 4047504 3968916 3903282 
1523.070 3856545 3825457 3803630 3785179 3765760 3740827 3704467 3650033 
1526.927 3573122 3475615 3366710 3262507 3180958 3134932 3131295 3166639 
1530.785 3230326 3304406 3368981 3404044 3394961 3341066 3259436 3177486 
1534.642 3116010 3084040 3081537 3106565 3158095 3236702 3341434 3462890 
1538.500 3577966 3647159 3626243 3499263 3303337 3104697 2947144 2837071 
1542.357 2755902 2682516 2604175 2521250 2443905 2384797 2350050 2335225 
1546.214 2328996 2320235 2301714 2272702 2238596 2209122 2195168 2202361 
1550.072 2229237 2267572 2308643 2347751 2385830 2427511 2478027 2540380 
1553.929 2614708 2700486 2798952 2916954 3067489 3267214 3530696 3859521 
1557.787 4213151 4465156 4439915 4088241 3585650 3128758 2792783 2566210 
1561.644 2415783 2314439 2244791 2197899 2169193 2155507 2152810 2154874 
1565.502 2155807 2153143 2149080 2149314 2161734 2191771 2239229 2294286 
1569.359 2339623 2359278 2349916 2321367 2288956 2265607 2257147 2264008 
1573.216 2282927 2309009 2335292 2354314 2357345 2334692 2280096 2196600 
1577.074 2096106 1994038 1903641 1833360 1787211 1765619 1765952 1781821 
1580.931 1804512 1825208 1837885 1840647 1835489 1826173 1816124 1806775 
1584.789 1797758 1788309 1778827 1770709 1766750 1769012 1777563 1790006 
1588.646 1801817 1807939 1804778 1791403 1770343 1745192 1720974 1701747 
1592.504 1690038 1686712 1690371 1698421 1706504 1710030 1705073 1690071 
1596.361 1665923 1636188 1606489 1582445 1569110 1570573 1589429 1627142 
1600.218 1683519 1756237 1839549 1924507 2000262 2055422 2083255 2083987 
1604.076 2066741 2044936 2033317 2040807 2067374 2103098 2130966 2134862 
1607.933 2104097 2039842 1953929 1863407 1782986 1720309 1674737 1640313 
1611.791 1609981 1579020 1546631 1514477 1483689 1453302 1418263 1370895 
1615.648 1304555 1219253 1126061 1043384 985496 955642 948270 954646 968825 
1619.988 988286 1013326 1046207 1087992 1136060 1183037 1218190 1233441 
1623.845 1228158 1209185 1185927 1165196 1150279 1140811 1135229 1132771 
1627.703 1134033 1141010 1153966 1169714 1182804 1186957 1177920 1156292 
1631.560 1127323 1100449 1086929 1096861 1137455 1210016 1307580 1412545 
1635.417 1502408 1560397 1586535 1592787 1591091 1585704 1574929 1554545 
1639.275 1521958 1477438 1424712 1369366 1317184 1272818 1238891 1217326 
1643.132 1210348 1221878 1256901 1320441 1413908 1529905 1648927 1742597 
1646.990 1787876 1784549 1753875 1723070 1709697 1721107 1757834 1817488 
1650.847 1895354 1983220 2065376 2110356 2079726 1965379 1816091 1690105 
1654.704 1608019 1560797 1532599 1511252 1490405 1468562 1449246 1438342 
1658.562 1442830 1467863 1514211 1578521 1651920 1723569 1780923 1814527 
1662.419 1820616 1803481 1773537 1741433 1715286 1698986 1694396 1702945 
1666.277 1726895 1767815 1825906 1897917 1975297 2045235 2096472 2124640 
1670.134 2136094 2141022 2148315 2160336 2174088 2184112 2185644 2176286 
1673.992 2157272 2133630 2112421 2099935 2097071 2100301 2104996 2108259 
1677.849 2109324 2108591 2106694 2102532 2093742 2077195 2050562 2012878 
1681.706 1965545 1911728 1856286 1807473 1775899 1768580 1782686 1807141 
1685.564 1834125 1860845 1888798 1918717 1949868 1978693 1999563 2006087 
1689.421 1994104 1962982 1916720 1862176 1807972 1762026 1730987 1720508 
1693.279 1735478 1779758 1855188 1957823 2073133 2177219 2249653 2286425 
1697.136 2300082 2306844 2318936 2337724 2353314 2344886 2293853 2203127 
1700.994 2101333 2020035 1976928 1974365 2006820 2064844 2135362 2202161 
1704.851 2245257 2249520 2211786 2143686 2064844 1994803 1946374 1923476 
1708.708 1923975 1940316 1963714 1985250 1999097 2003624 2001627 1997998 
1712.566 1998964 2009349 2032319 2067674 2113353 2166030 2220944 2272002 
1716.423 2310375 2323399 2298883 2233367 2136061 2025727 1919848 1829101 
1720.281 1755904 1698986 1654648 1619526 1591391 1570274 1557338 1555044 
1724.138 1563922 1582711 1606622 1630035 1646665 1652087 1645335 1628705 
1727.995 1608318 1592122 1589495 1607354 1648661 1710462 1785913 1865471 
1731.853 1937388 1988978 2005122 1973766 1896020 1795529 1707468 1654082 
1735.710 1637352 1647131 1671045 1697256 1716916 1721939 1706271 1668351 
1739.568 1611777 1545068 1477704 1418230 1373587 1348692 1347861 1372158 
1743.425 1419426 1482126 1550023 1612242 1659803 1688741 1698687 1693498 
1747.283 1679061 1662697 1651155 1648561 1656876 1674272 1696159 1716117 
1751.140 1728160 1728625 1718147 1700217 1680325 1663495 1652552 1648627 
1754.997 1650191 1653616 1654980 1652020 1645900 1641477 1643805 1655579 
1758.855 1675137 1697090 1713390 1716350 1702446 1675270 1645634 1626610 
1762.712 1626776 1645568 1674538 1701581 1717315 1715751 1696458 1663961 
1766.570 1627674 1599040 1587699 1599339 1634193 1688342 1756636 1835057 
1770.427 1919249 2002293 2072567 2114984 2118947 2084919 2026693 1962117 
1774.285 1905238 1864339 1841346 1833992 1837220 1845738 1855122 1862609 
1778.142 1867367 1868832 1866036 1856919 1838817 1810435 1772439 1729191 
1781.999 1685914 1648062 1619792 1601767 1592156 1585305 1574298 1552849 
1785.857 1518035 1471255 1417266 1361821 1309707 1263348 1223174 1187987 
1789.714 1157754 1135562 1129150 1150511 1208421 1302129 1416368 1527578 
1793.572 1612775 1658739 1662597 1630235 1572203 1501410 1430131 1366607 
1797.429 1315091 1276308 1249291 1233773 1230218 1239356 1259725 1286244 
1801.286 1311036 1325792 1326391 1314160 1295549 1279066 1272187 1278202 
1805.144 1294785 1315057 1329149 1328651 1307979 1267169 1211245 1148817 
1809.001 1089354 1040893 1008411 992536 989116 990112 986393 969954 937279 
1813.341 890395 837043 788178 755516 747816 766735 804975 847334 877247 
1817.681 881962 859485 819249 779813 761424 778153 833889 921208 1024652 
1822.020 1124865 1205696 1255937 1271223 1253445 1210680 1153767 1093606 
1825.878 1039199 995459 964010 944219 934124 931136 932032 934822 938873 
1830.217 946145 959760 982175 1013459 1050126 1086099 1113437 1124034 
1834.075 1111344 1072580 1010005 931235 845973 766237 703143 664613 655222 
1838.414 675100 719936 783199 857526 936050 1012762 1083076 1142671 1187655 
1842.754 1214933 1222875 1214003 1194466 1174166 1162538 1164863 1181542 
1846.611 1208886 1240519 1267967 1283818 1281159 1255738 1207192 1138053 
1850.469 1053381 959859 865594 779780 712236 671748 662755 683463 725512 
1854.808 776095 821473 849758 855169 838039 805506 767996 737228 722060 
1859.148 726707 751400 791995 842221 893350 937179 965604 972113 952985 
1863.487 906897 836312 746222 644769 540984 444123 363732 310245 295192 
1867.827 329609 419347 559198 731386 911147 1072679 1196626 1272320 1294885 
1872.167 1266073 1192838 1086364 960457 830137 710776 613844 548582 519089 
1876.506 524132 556876 606643 661660 710344 745990 766735 776792 783829 
1880.846 795713 817556 848363 880932 903776 904738 874657 811946 723620 
1885.185 623964 529804 457059 417291 416860 456130 530733 632425 749376 
1889.525 867719 974338 1057234 1108753 1126625 1114002 1079655 1036608 
1893.382 1001138 987090 1002234 1042952 1094137 1132937 1139149 1103405 
1897.240 1031925 943754 865262 821739 826585 877347 955011 1034150 1089753 
1901.579 1108222 1091480 1054776 1019902 1003828 1013260 1040893 1069358 
1905.437 1077562 1049661 979120 871072 738589 599045 468171 356370 267871 
1909.776 202595 157415 127982 110814 103191 104417 115487 138654 177435 
1914.116 234188 310278 404158 511692 625922 738423 839200 918750 970751 
1918.456 993466 989880 965604 926387 877048 821905 766569 719538 690498 
1922.795 689104 720367 782402 865262 954712 1033088 1083475 1093207 1056902 
1927.135 978622 871072 753790 646661 564838 514213 489533 476994 459348 
1931.474 425218 371293 307460 249206 215424 218441 258588 324304 397160 
1935.814 458552 496001 507744 502470 496300 503962 535610 591215 661527 
1940.154 731386 784029 808095 802651 779946 760462 766104 807663 878841 
1944.493 956472 1010105 1008511 932364 782070 578740 359885 166265 33632 
1948.833 -19979 5003 92122 220397 370165 527316 683230 828511 948967 1027242 
1953.655 1046041 996854 884551 731951 570379 432946 342044 300828 295788 
1957.994 302950 302088 284151 254742 230839 232232 273209 356270 474572 
1962.334 614673 761391 898430 1009939 1079455 1095101 1054411 971415 878044 
1966.673 817456 832594 945115 1142970 1380867 1602798 1760928 1830665 
1970.531 1817655 1749251 1656843 1556374 1437245 1266970 1009108 647723 
1974.388 204882 -256448 -645170 -878918 -916679 -772065 -505728 -200215 
1978.246 69885 263628 376068 428302 450923 470692 501872 548549 610161 
1982.585 685487 771847 863867 951524 1019504 1052152 1040992 986824 901418 
1986.925 802053 706096 621542 547686 479017 415633 368507 361377 419513 
1991.265 557407 765142 1008145 1235003 1399980 1480830 1486249 1450709 
1995.122 1419260 1430430 1497786 1606955 1717282 1782586 1761161 1637818 
1998.979 1426607 1169016 916592 715986 597552 565601 598182 650211 669956 
2003.319 607639 430193 131827 -262872 -698863 -1106095 -1405456 -1537610 
2007.176 -1476095 -1230444 -840062 -364487 127883 576019 930804 1161408 
2011.034 1260490 1238990 1128419 969689 815531 715389 705433 804510 1008644 
2015.373 1296679 1636454 1997566 2353614 2685883 2983040 3233998 3423748 
2019.231 3533569 3542889 3438142 3220979 2915720 2562477 2212285 1910197 
2023.088 1683253 1539881 1470124 1455596 1474612 1509589 1550821 1592255 
2026.946 1631399 1665191 1689539 1701215 1699851 1688674 1672808 1656178 
2030.803 1638982 1614703 1571604 1496888 1383526 1233707 1061353 886510 
2034.661 731386 610227 526255 469431 419580 356602 268070 157481 45926 
2039.000 -35518 -54502 9608 157912 368275 603193 825755 1008179 1139681 
2043.340 1225001 1274679 1297543 1292658 1248760 1151740 994994 786784 
2047.197 553823 335910 174949 96861 105279 179822 286803 388736 457888 
2051.537 483661 471023 438253 410426 414140 469398 586702 764113 986758 
2055.876 1225932 1444725 1605092 1673473 1630335 1477172 1239190 960590 
2059.734 696439 501242 409928 435533 564805 766569 998780 1219785 1399149 
2064.073 1519265 1577823 1582811 1547795 1485052 1404667 1312365 1210547 
2067.931 1101047 985562 867984 754288 652933 571872 517298 491357 489101 
2072.270 499617 508706 501740 470824 419414 364395 334119 357928 459082 
2076.610 642977 891457 1163302 1405830 1568844 1618196 1548493 1383526 
2080.467 1169980 958697 795879 707258 695310 741908 817821 894545 948502 
2084.807 967597 948336 894711 814203 718310 622603 545231 505289 517663 
2089.146 586404 701417 839333 971150 1069690 1122539 1134366 1126326 1125928 
2093.486 1156923 1230185 1339319 1463807 1578787 1666422 1719743 1745691 
2097.344 1758499 1774036 1801351 1841479 1888732 1935257 1974066 2001960 
2101.201 2018570 2023697 2015308 1989111 1939185 1861378 1754374 1621322 
2105.058 1468728 1306217 1144099 992636 861444 759565 692888 663916 668894 
2109.398 700454 748347 804045 864963 935187 1021895 1132240 1265940 1413177 
2113.738 1553481 1661732 1715652 1701547 1618994 1479500 1304921 1119084 
2117.595 943521 794983 681870 606312 562814 541515 529141 511924 481804 
2121.935 440243 399979 382004 410990 502470 655886 848529 1042919 1193336 
2126.274 1261221 1228125 1099020 901651 676062 465915 305039 212076 191921 
2130.614 238166 336407 466811 609265 741377 844612 909586 938474 945315 
2134.953 950893 975068 1025083 1091746 1152106 1180346 1159049 1087992 
2138.811 982773 868847 766569 680907 601135 508706 393114 264224 154896 
2143.150 111841 176839 364229 650941 978323 1276208 1478802 1550787 1495326 
2147.490 1349656 1167222 997784 877214 820344 825755 883024 978256 1093606 
2151.830 1206328 1291694 1325094 1290697 1191575 1051554 910715 811780 
2155.687 785190 835615 942160 1063080 1159249 1201211 1182538 1110647 998315 
2160.027 849824 663883 439413 185756 -69642 -284693 -419009 -444067 -354654 
2164.366 -168884 78998 351396 618821 862407 1074539 1254342 1401808 1515441 
2168.706 1590194 1622752 1610247 1551585 1447118 1301564 1126526 948336 
2172.563 805970 752960 839433 1092742 1499581 2000495 2498921 2883898 
2176.421 3072160 3028382 2779977 2403788 2005755 1681423 1486349 1429333 
2180.278 1479034 1583310 1690803 1769644 1811399 1822246 1811433 1780158 
2184.135 1718246 1610613 1444758 1219153 948403 659802 389300 173491 49306 
2188.475 42612 167425 417391 764577 1157322 1528808 1814061 1959121 1939185 
2192.815 1764122 1475410 1130977 785854 482301 237205 49405 -91009 -191936 
2197.154 -253335 -265918 -218695 -107307 60738 265517 478918 675863 842520 
2201.494 980880 1107425 1246068 1419227 1636754 1890695 2154275 2389162 
2205.351 2549712 2600008 2521783 2321301 2030721 1703942 1406362 1194865 
2209.209 1107923 1154531 1313761 1542075 1785181 1995935 2138225 2197732 
2213.066 2177685 2093609 1965812 1816157 1664925 1529872 1425410 1361090 
2216.924 1337990 1346199 1367305 1378474 1359361 1301564 1211145 1111311 
2220.781 1031161 1000573 1039664 1152405 1328351 1544968 1777163 1998864 
2224.638 2190273 2336824 2427378 2455167 2417215 2317936 2169759 1994903 
2228.496 1821980 1677864 1583443 1547529 1565219 1619725 1689074 1752178 
2232.353 1793100 1803913 1784383 1736975 1665624 1573400 1462777 1338621 
2236.211 1210248 1092144 1002964 962914 988219 1085135 1247397 1456394 
2240.068 1684051 1898116 2070537 2182314 2226839 2209755 2147782 2062680 
2243.926 1975564 1904606 1861378 1851095 1874222 1927037 2003225 2094208 
2247.783 2189640 2278231 2349317 2394559 2410885 2401289 2374536 2343520 
2251.640 2321134 2315405 2327097 2349583 2369072 2370705 2343387 2284126 
2255.498 2199364 2103264 2014776 1951333 1922644 1930199 1965745 2015142 
2259.355 2061914 2094308 2106594 2101966 2088482 2078227 2081923 2106094 
2263.213 2151811 2214450 2286158 2355680 2412384 2446804 2450969 2421047 
2267.070 2357246 2264708 2153110 2035814 1927769 1841745 1787510 1768912 
2270.927 1784583 1829933 1898915 1985649 2083987 2188075 2289956 2378900 
2274.785 2443705 2472828 2459799 2405621 2320301 2221844 2131566 2070537 
2278.642 2052626 2081557 2150646 2245590 2347318 2437540 2504353 2542380 
2282.500 2554245 2547412 2531915 2515884 2503687 2495755 2489290 2480526 
2286.357 2467297 2450636 2434942 2425912 2428677 2445004 2472728 2506286 
2290.215 2539613 2568677 2594242 2621576 2657945 2709921 2778910 2859984 
2294.072 2941639 3009197 3050170 3057011 3030884 2979370 2916321 2855681 
2297.929 2808256 2780811 2774175 2785413 2809524 2840673 2873158 2902444 
2301.787 2924993 2938904 2943908 2941106 2933567 2924526 2915487 2906247 
2305.644 2894939 2878995 2857616 2833402 2812625 2804021 2814559 2847076 
2309.502 2897407 2955450 3007028 3040060 3048369 3034121 3007095 2981806 
2313.359 2971063 2982139 3014602 3060681 3110003 3152187 3181792 3199416 
2317.217 3211099 3225552 3251023 3292854 3351751 3424249 3504073 3584714 
2321.074 3661294 3730701 3792198 3845948 3891548 3927355 3950426 3957849 
2324.931 3948419 3923510 3888405 3851698 3823518 3812120 3821713 3850227 
2328.789 3890377 3931200 3963634 3983596 3993561 4000918 4013392 4033524 
2332.646 4056668 4069510 4056099 4004028 3909534 3780867 3637503 3505342 
2336.504 3408452 3362470 3371586 3428323 3517635 3622167 3728328 3826827 
2340.361 3913613 3987040 4046433 4089712 4114632 4119582 4103660 4068407 
2344.219 4016870 3953000 3881551 3808744 3740627 3684551 3647093 3632792 
2348.076 3644019 3680073 3737151 3807674 3882788 3951863 4005700 4038909 
2351.933 4052253 4053256 4053925 4068139 4107674 4177086 4273546 4387029 
2355.791 4501781 4599987 4667535 4697378 4692588 4665592 4637594 4631231 
2359.648 4662846 4738510 4850608 4980530 5103184 5197066 5248173 5254243 
2363.506 5222853 5167524 5101977 5035065 4969605 4903685 4833520 4755695 
2367.363 4668908 4574303 4473056 4367951 4261466 4158620 4065998 3992023 
2371.220 3943839 3923777 3926987 3940194 3945276 3923343 3861760 3758441 
2375.078 3622902 3472976 3330014 3211833 3126589 3072127 3038225 3011166 
2378.935 2978803 2935134 2881897 2826298 2777210 2741297 2720557 2711788 
2382.793 2707987 2701786 2688883 2668980 2647044 2629642 2623809 2632909 
2386.650 2655478 2685016 2712622 2729160 2728260 2708454 2673181 2630409 
2390.508 2588909 2557778 2542913 2546412 2566543 2598442 2635743 2671714 
2394.365 2701119 2720424 2728260 2725192 2713556 2696585 2678181 2662612 
2398.222 2654278 2656712 2672714 2702953 2745331 2794283 2841907 2878528 
2402.080 2895139 2885733 2849478 2790515 2716790 2639043 2566810 2506986 
2405.937 2462798 2434742 2421847 2423946 2441739 2476461 2528048 2593442 
2409.795 2665346 2733328 2787480 2820129 2829867 2821896 2806655 2795817 
2413.652 2798619 2818661 2852846 2892671 2926895 2946076 2943674 2917955 
2417.510 2871424 2809357 2739129 2668280 2605042 2556311 2527482 2521016 
2421.367 2534447 2561577 2592009 2615442 2623209 2611875 2583176 2544546 
2425.224 2505353 2474394 2458700 2461265 2482692 2522016 2577376 2646177 
2429.082 2723558 2802754 2874059 2927329 2954917 2954049 2928596 2888468 
2432.939 2846543 2813826 2796384 2793216 2798018 2801186 2795250 2777610 
2436.797 2751367 2723391 2701653 2692017 2696852 2714389 2741263 2774208 
2440.654 2811258 2852012 2895873 2940839 2982173 3013535 3027815 3020107 
2444.511 2990146 2942006 2883398 2823964 2772441 2734728 2713522 2708654 
2448.369 2718090 2739129 2769040 2805055 2844108 2882698 2916921 2943107 
2452.226 2958419 2961422 2952481 2932833 2904979 2872391 2838638 2809023 
2456.084 2789314 2785913 2804288 2847310 2913652 2996218 3083906 3162667 
2459.941 3218276 3241642 3228757 3183461 3114174 3033087 2951781 2878161 
2463.799 2815727 2764405 2721524 2684383 2651511 2623709 2602875 2590809 
2467.656 2588775 2595909 2610742 2631043 2654978 2681415 2709054 2736528 
2471.513 2760770 2778210 2785613 2781344 2767739 2749633 2734995 2731194 
2475.371 2742364 2768039 2802087 2835603 2858249 2863219 2848811 2819462 
2479.228 2784212 2754468 2740430 2747799 2777276 2824097 2879229 2931899 
2483.086 2971931 2991581 2987511 2960354 2915320 2860050 2802687 2750466 
2486.943 2708554 2678748 2661412 2655878 2662212 2682215 2717857 2771641 
2490.801 2842907 2926895 3015003 3094885 3154624 3184462 3180123 3143843 
2494.658 3084140 3012934 2942540 2883298 2840973 2816727 2807789 2809390 
2498.515 2816927 2826966 2839072 2853847 2873158 2897641 2925694 2952982 
2502.373 2973332 2980104 2969195 2940439 2899375 2855114 2819128 2800620 
2506.230 2804088 2827199 2861685 2896673 2921791 2931632 2927362 2916854 
2510.088 2910983 2919956 2949879 2999622 3062116 3125221 3177052 3207661 
2513.945 3212200 3192273 3154357 3108768 3066654 3039760 3035890 3059747 
2517.802 3110737 3183561 3268149 3351451 3420742 3464961 3478220 3460752 
2521.660 3418672 3362503 3303538 3252959 3217575 3200017 3198681 3208862 
2525.517 3224351 3239206 3249154 3252325 3249053 3242143 3236168 3235967 
2529.375 3246483 3271087 3310683 3363505 3424449 3486504 3541185 3580070 
2533.232 3597042 3588924 3556318 3504106 3441114 3377697 3324539 3290050 
2537.090 3278097 3287011 3309915 3337594 3359197 3367078 3358530 3336459 
2540.947 3308112 3282838 3269384 3272923 3294456 3330515 3375793 3424082 
2544.804 3470872 3512958 3549169 3579068 3601886 3616387 3621398 3615986 
2548.662 3600717 3577431 3549336 3520374 3494687 3476250 3468969 3476083 
2552.519 3500532 3543557 3604225 3677633 3755967 3828833 3885329 3917157 
2556.377 3920668 3897933 3855944 3805468 3758307 3724117 3710182 3720608 
2560.234 3755433 3811785 3884259 3964469 4041718 4104362 4141994 4147748 
2564.092 4120485 4066099 3996370 3925182 3866440 3829568 3816933 3825591 
2567.949 3848054 3876002 3902246 3923276 3938689 3950158 3960557 3972428 
2571.806 3987609 4007473 4032889 4063624 4098308 4133732 4165277 4187725 
2575.664 4197393 4193479 4178725 4159322 4142295 4134467 4139653 4157984 
2579.521 4186955 4222754 4262169 4303762 4347402 4393321 4441054 4488088 
2583.379 4530641 4564157 4585554 4593089 4588400 4574002 4554581 4534592 
2587.236 4518487 4510854 4515373 4534625 4568979 4615324 4667099 4714426 
2591.094 4748057 4760653 4750570 4722499 4686894 4656114 4641479 4649885 
2594.951 4681669 4731610 4790535 4849066 4898859 4934917 4954992 4959918 
2598.808 4952445 4936459 4918463 4905059 4904522 4923087 4964912 5028495 
2602.666 5108112 5194383 5275305 5339872 5380731 5394888 5383717 5352217 
2606.523 5307705 5257698 5210043 5171481 5147339 5141472 5154850 5186134 
2610.381 5230164 5279799 5326455 5362045 5380731 5379959 5360771 5327159 
2614.238 5285501 5243176 5206589 5181439 5171347 5177416 5197937 5228889 
2618.095 5264908 5299253 5325952 5341046 5343227 5333868 5316962 5298280 
2621.953 5283086 5275640 5277888 5288821 5305022 5321692 5334136 5338698 
2625.810 5334908 5324510 5311931 5302506 5301064 5309852 5328870 5354632 
2629.668 5382408 5407703 5426727 5437899 5442059 5441220 5437932 5434141 
2633.525 5430820 5428203 5426056 5423841 5421828 5420285 5420083 5422197 
2637.383 5428102 5439342 5457628 5484169 5519068 5560178 5603977 5645129 
2641.240 5678127 5698337 5703910 5695953 5678564 5656844 5636267 5620626 
2645.097 5611294 5607770 5608576 5612066 5617437 5625224 5637073 5654830 
2648.955 5680208 5713780 5754607 5800407 5847253 5890610 5925979 5949425 
2652.812 5959704 5957923 5948047 5935753 5927255 5927087 5937299 5956680 
2656.670 5981673 6008247 6033108 6055317 6075980 6097654 6122151 6149842 
2660.527 6179282 6207313 6231143 6248791 6260926 6269733 6277868 6287079 
2664.385 6297097 6305333 6308695 6304157 6291516 6273061 6253598 6238269 
2668.242 6231143 6233664 6243984 6257900 6270775 6279112 6281364 6278675 
2672.099 6273901 6270035 6269094 6271514 6275784 6279683 6280860 6278002 
2675.957 6271380 6262371 6252992 6245261 6240219 6237967 6237631 6238303 
2679.814 6239312 6240622 6243278 6248320 6256757 6268354 6281935 6294744 
2683.672 6303686 6305804 6298946 6282709 6258371 6228824 6197599 6168695 
2687.529 6145742 6131022 6125914 6129947 6141171 6156530 6172090 6184289 
2691.386 6190306 6189096 6181399 6170006 6158176 6149404 6146279 6149539 
2695.244 6158176 6169737 6181500 6190339 6194171 6191986 6184222 6171921 
2699.101 6157201 6142549 6130283 6121949 6117950 6117110 6117043 6114489 
2702.959 6106827 6092882 6073897 6053401 6037174 6030723 6038652 6062473 
2706.816 6100812 6149001 6201363 6252387 6297836 6336432 6368743 6397055 
2710.674 6423754 6450523 6477865 6505208 6531746 6557008 6581194 6605416 
2714.531 6631220 6660155 6692961 6729706 6769989 6813271 6859419 6908298 
2718.388 6959910 7013279 7066655 7116871 7160525 7194851 7219073 7234839 
2722.246 7246497 7259300 7278101 7304922 7338855 7375251 7407505 7429885 
2726.103 7438278 7432548 7415291 7391630 7366186 7342158 7320355 7299463 
2729.961 7276820 7249866 7216917 7177771 7133140 7084168 7032339 6979439 
2733.818 6926983 6877260 6832120 6792841 6759388 6729673 6700296 6666817 
2737.676 6626106 6576518 6518998 6456543 6393356 6333540 6280120 6235009 
2741.533 6199347 6173837 6159487 6156530 6164561 6181399 6203179 6224723 
2745.390 6241328 6250202 6251211 6246975 6241765 6239681 6243278 6252757 
2749.248 6266338 6281532 6296458 6310376 6324295 6339323 6356302 6374493 
2753.105 6391372 6404385 6410808 6409799 6402435 6391641 6381083 6374022 
2756.963 6372710 6377922 6388783 6403881 6421131 6439324 6457619 6476116 
2760.820 6495589 6517149 6541636 6569353 6599764 6631186 6661366 6688182 
2764.677 6710391 6727957 6742494 6755989 6770360 6786346 6803409 6820339 
2768.535 6836025 6850802 6866858 6887493 6916142 6954455 7001561 7053891 
2772.392 7106632 7156078 7200780 7242825 7287164 7339664 7404202 7481390 
2776.250 7567696 7656986 7741775 7816460 7878234 7928072 7969445 8007007 
2780.107 8045451 8088084 8136697 8191696 8252647 8318536 8388118 8459873 
2783.965 8532383 8605177 8678691 8754653 8835261 8922884 9018542 9121735 
2787.822 9229790 9339024 9445983 9548836 9647614 9744043 9840662 9939133 
2791.679 10039425 10139366 10236039 10326762 10410648 10489222 10566383 
2795.055 10647090 10735589 10834740 10944752 11063730 11188522 11315662 
2798.430 11442533 11567433 11689749 11809647 11927842 12045524 12164294 
2801.805 12286164 12413387 12547946 12691212 12843534 13003696 13169824 
2805.180 13339466 13511022 13684525 13861177 14044095 14236436 14440852 
2808.556 14658045 14886215 15121162 15357231 15588791 15811611 16024435 
2811.931 16229110 16430682 16635684 16850982 17082686 17334238 17607086 
2815.306 17900270 18211792 18538752 18878346 19228736 19588354 19956452 
2818.681 20333026 20718682 21114248 21521316 21941172 22375214 22824150 
2822.057 23288754 23770026 24269666 24790686 25337302 25914924 26528430 
2825.432 27182378 27880168 28623882 29415212 30256654 31152052 32107558 
2828.807 33130858 34230100 35413332 36686968 38055704 39523256 41093348 
2832.182 42771576 44565824 46486976 48548520 50765380 53150936 55716896 
2835.558 58470892 61415560 64548640 67863520 71350544 74997416 78792352 
2838.933 82723256 86778520 90948224 95221928 99589608 104042336 108572248 
2842.308 113173808 117844504 122582288 127385168 132246688 137153360 
2845.201 142085232 147014432 151906304 156725072 161431200 165982848 
2848.094 170336464 174439184 178232048 181650784 184623680 187083168 
2850.987 188968752 190231808 190843168 190794480 190100240 188795392 
2853.880 186935568 184591088 181836240 178752048 175413872 171888832 
2856.773 168240272 164522016 160783184 157071360 153427584 149891760 
2859.667 146499424 143279632 140257248 137451120 134873264 132531272 
2862.560 130427408 128558856 126919720 125500608 124289976 123273432 
2865.453 122434984 121755208 121210552 120774072 120413096 120090944 
2868.346 119769960 119408896 118969872 118418552 117725048 116868816 
2871.239 115837904 114630824 113256496 111734168 110091744 108361272 
2874.132 106580272 104786936 103018328 101313416 99707936 98235368 96925880 
2877.507 95801888 94878400 94162056 93651528 93340696 93220848 93283560 
2880.882 93521192 93927320 94495384 95217016 96083112 97083504 98208824 
2884.258 99452776 100812088 102285304 103871936 105567504 107363696 
2887.151 109247104 111200088 113204808 115246688 117314232 119401608 
2890.044 121506480 123627240 125762520 127908304 130059080 132208048 
2892.937 134348400 136473440 138577152 140654544 142701792 144717760 
2895.830 146704624 148668192 150618000 152565248 154519904 156489424 
2898.723 158477024 160482016 162501280 164530928 166568656 168614528 
2901.616 170670752 172742544 174837136 176963104 179130720 181350304 
2904.509 183630432 185977312 188392656 190874944 193419792 196023872 
2907.402 198686784 201413344 204212400 207095040 210072448 213152160 
2910.295 216337792 219628896 223022864 226514816 230098144 233764112 
2913.188 237498432 241281920 245091056 248896688 252669120 256376944 
2916.081 259984784 263455184 266742288 269793344 272553280 274964608 
2918.974 276974592 278540832 279627616 280208704 280265056 279782624 
2921.867 278755776 277188416 275096864 272507776 269458176 265990672 
2924.760 262148016 257975552 253519632 248826960 243950144 238940592 
2927.654 233846848 228712528 223570160 218443088 213347664 208294944 
2930.547 203294192 198354976 193484672 188690800 183979360 179356016 
2933.440 174828816 170408816 166109504 161947040 157934832 154082960 
2936.333 150396640 146876400 143521808 140333872 137317152 134480880 
2939.226 131836552 129395168 127166944 125157472 123369120 121801784 
2942.119 120453184 119321104 118401840 117691064 117183200 116870120 
2945.012 116743336 116792280 117006528 117374408 117882320 118514704 
2947.905 119251288 120066880 120933424 121818544 122686696 123504200 
2950.798 124235672 124848136 125312864 125604632 125705376 125604840 
2953.691 125299168 124790984 124086528 123194008 122121296 120877568 
2956.584 119473200 117920048 116233248 114428792 112521112 110522952 
2959.477 108442328 106283624 104049152 101740384 99359712 96910680 94397736 
2962.853 91826184 89201688 86531000 83822776 81088648 78342608 75601056 
2966.228 72880848 70197976 67567120 64999780 62505224 60090208 57758064 
2969.603 55510360 53346008 51262888 49258552 47331000 45479072 43702672 
2972.978 42001540 40374348 38818372 37330660 35907804 34548220 33252712 
2976.354 32023940 30865974 29780918 28768552 27823958 26939054 26103096 
2979.729 25305584 24538180 23795856 23078002 22386624 21725882 21099432 
2983.104 20509762 19956834 19437770 18947704 18480974 18031842 17596528 
2986.479 17174230 16766874 16378619 16014431 15677994 15370344 15089016 
2989.854 14828613 14582346 14343616 14107515 13872329 13638707 13409516 
2993.230 13187550 12975120 12773099 12580722 12396476 12218716 12046410 
2996.605 11879382 11718308 11564711 11420149 11285667 11161766 11047382 
2999.980 10940776 10838544 10737185 10633813 10526731 10416485 10305759 
3003.355 10198656 10099278 10010907 9933472 9864490 9799382 9732657 9659437 
3007.213 9577559 9487568 9392009 9295185 9200820 9111211 9026865 8946762 
3011.070 8869347 8793230 8718343 8645633 8576788 8513562 8457035 8407136 
3014.928 8362986 8322657 8283986 8244576 8201758 8152632 8094296 8024626 
3018.785 7943021 7850973 7752771 7654761 7563852 7486076 7424087 7376869 
3022.643 7339698 7306405 7270385 7228203 7179759 7128289 7078611 7035201 
3026.500 7000450 6973984 6952873 6933682 6913247 6889917 6864199 6836832 
3030.357 6808963 6780894 6751513 6719544 6683606 6643433 6599495 6552399 
3034.215 6502619 6449816 6393423 6333607 6271716 6210606 6155051 6109448 
3038.072 6076720 6057064 6048026 6044834 6042348 6036837 6026758 6012547 
3041.930 5996051 5978818 5961249 5941934 5918858 5889771 5854070 5812730 
3045.787 5767768 5722039 5677792 5636133 5597331 5560983 5527289 5496819 
3049.645 5470713 5450112 5435517 5426089 5420150 5415152 5408978 5400188 
3053.502 5388279 5373887 5357919 5341147 5324677 5308845 5294054 5280738 
3057.359 5269201 5259643 5251828 5245356 5239386 5233618 5228051 5223122 
3061.217 5219332 5217052 5215476 5212793 5206220 5193377 5172554 5144690 
3065.074 5112470 5080890 5054474 5037545 5031646 5035467 5044786 5054004 
3068.932 5057591 5050551 5030238 4996585 4951707 4899194 4844040 4791507 
3072.789 4745846 4710206 4685956 4672023 4665961 4664052 4662478 4658157 
3076.646 4649383 4636522 4620782 4604106 4587596 4571457 4555083 4537371 
3080.504 4517784 4496826 4476471 4458695 4445338 4436200 4430074 4423815 
3084.361 4414174 4399145 4378494 4354363 4329430 4306707 4287633 4271939 
3088.219 4257116 4240721 4220947 4197527 4172470 4148550 4128981 4115602 
3092.076 4108845 4107540 4109881 4114030 4118478 4122860 4126573 4128881 
3095.934 4128179 4122860 4111353 4093057 4069477 4043122 4018241 3999112 
3099.791 3988478 3987876 3996236 4011185 4029143 4046801 4061785 4072755 
3103.648 4079611 4082622 4082187 4078207 4070213 4057604 4040079 4018575 
3107.506 3995100 3972495 3954438 3943103 3940094 3944407 3953937 3964971 
3111.363 3974534 3980520 3982827 3982626 3981690 3981590 3982526 3983496 
3115.221 3982292 3976641 3964971 3947182 3924580 3900073 3877172 3859487 
3119.078 3849960 3850060 3860222 3878141 3900474 3922340 3938656 3946079 
3122.936 3943237 3932236 3916890 3902279 3891648 3886031 3882521 3876370 
3126.793 3863331 3841235 3811719 3780065 3753360 3737084 3733709 3740259 
3130.650 3750887 3758273 3757338 3747311 3732239 3719505 3716331 3727359 
3134.508 3752324 3786115 3820811 3848656 3863565 3863365 3849625 3825624 
3138.365 3796176 3765092 3735748 3710583 3691635 3681009 3680307 3690499 
3142.223 3710917 3739591 3772378 3805100 3833847 3856712 3873661 3886499 
3146.080 3897766 3909769 3922975 3935747 3944909 3946146 3935647 3911774 
3149.938 3875500 3830906 3784176 3742365 3711752 3696581 3698720 3717400 
3153.795 3750185 3793234 3842672 3894021 3942869 3984767 4015064 4030581 
3157.652 4029845 4014428 3988880 3959487 3933741 3916455 3909668 3910638 
3161.510 3913547 3910604 3895091 3864100 3818939 3766027 3714259 3673924 
3165.367 3652773 3654611 3678135 3717567 3764089 3807674 3840901 3859287 
3169.225 3862930 3856178 3845881 3838828 3839597 3849258 3864635 3879813 
3173.082 3887569 3882554 3862730 3830738 3792532 3756636 3731537 3722848 
3176.939 3732639 3758039 3792332 3826259 3850695 3858952 3848556 3821546 
3180.797 3784678 3747010 3717233 3702228 3703999 3720107 3743735 3766729 
3184.654 3781837 3785079 3776589 3760546 3742632 3728028 3720374 3720007 
3188.512 3725053 3732639 3739758 3744203 3745172 3742164 3735614 3725554 
3192.369 3712955 3699020 3686389 3677834 3676230 3682646 3696213 3713423 
3196.227 3729866 3740961 3743802 3738120 3726256 3712053 3699187 3690231 
3200.084 3685587 3684050 3683448 3681443 3676297 3667342 3654076 3636801 
3203.941 3615551 3590627 3563333 3535072 3508082 3484500 3465629 3451334 
3207.799 3439544 3426787 3409888 3385911 3354322 3316859 3277764 3242243 
3211.656 3215271 3200818 3200985 3215104 3240641 3273324 3308012 3339631 
3215.514 3363906 3378097 3380869 3372921 3356459 3334856 3312218 3292320 
3219.371 3277630 3268716 3264477 3262173 3258401 3250456 3237136 3219477 
3223.229 3200651 3184562 3175450 3175651 3185130 3201519 3220345 3236502 
3227.086 3245214 3243913 3231861 3210431 3182460 3151853 3121984 3095853 
3230.943 3075497 3062116 3056110 3057345 3064886 3077733 3093951 3112272 
3234.801 3130527 3146747 3159263 3166439 3167573 3162834 3153589 3142642 
3238.658 3133264 3128725 3131462 3141240 3156192 3172013 3183227 3185297 
3242.516 3175217 3153022 3121917 3086843 3054709 3030551 3018406 3019340 
3246.373 3031852 3052606 3077967 3104463 3129459 3151052 3167874 3178988 
3250.230 3183127 3178922 3165471 3142842 3112005 3076064 3038592 3004059 
3254.088 2976334 2957619 2948078 2946710 2950813 2957852 2966026 2974199 
3257.945 2982506 2991247 3001223 3012867 3026847 3043764 3063885 3087143 
3261.803 3112005 3135533 3153188 3159730 3151153 3125988 3086676 3039059 
3265.660 2992048 2954516 2932466 2928196 2939605 2961289 2986343 3009130 
3269.518 3026580 3038058 3045065 3049804 3054242 3059380 3065587 3072728 
3273.375 3080836 3089780 3099324 3108701 3115976 3119948 3119547 3115976 
3277.232 3111571 3110870 3118112 3136134 3164470 3200050 3237336 3269518 
3281.090 3290951 3298396 3291385 3271988 3244246 3212768 3182159 3156025 
3284.947 3137536 3128491 3129926 3141507 3161799 3187600 3214971 3238905 
3288.805 3255329 3260471 3252959 3233197 3203722 3168808 3133397 3102761 
3292.662 3081070 3070892 3072594 3084641 3103862 3126556 3148449 3166672 
3296.520 3179022 3184162 3181859 3172113 3155692 3133597 3107867 3081337 
3300.377 3057445 3039960 3032119 3035189 3048736 3070158 3095786 3120982 
3304.234 3142909 3160064 3173248 3184963 3198114 3214804 3234699 3255296 
3308.092 3271888 3279366 3273791 3254328 3223750 3188334 3154957 3130928 
3311.949 3120415 3123519 3137102 3155725 3173448 3185364 3189569 3185864 
3315.807 3175818 3161432 3144344 3125855 3106699 3088678 3073528 3063918 
3319.664 3061249 3065820 3075597 3086910 3095653 3098556 3094118 3083573 
3323.521 3070125 3057178 3047668 3043063 3042796 3045799 3050604 3056143 
3327.379 3062784 3071159 3081771 3094885 3109536 3124753 3139037 3151887 
3331.236 3163468 3174983 3188067 3204356 3225152 3250723 3280134 3310883 
3335.094 3339530 3361936 3374591 3375159 3363872 3343070 3316893 3290317 
3338.951 3267381 3250689 3241042 3237470 3238638 3243378 3251457 3262540 
3342.809 3276562 3292119 3306843 3317527 3321500 3317727 3306843 3291318 
3346.666 3274525 3259369 3247351 3238471 3231528 3225419 3219110 3212801 
3350.523 3207060 3202520 3200250 3200851 3205858 3217141 3237002 3266613 
3354.381 3304706 3346475 3384141 3407851 3409287 3384943 3337393 3275894 
3358.238 3213035 3162600 3134298 3132029 3153055 3189870 3232763 3272622 
3362.096 3304039 3325340 3338462 3347477 3356760 3370283 3390353 3417035 
3365.953 3449096 3482629 3513125 3535706 3546530 3543490 3527623 3502403 
3369.811 3472475 3442884 3417169 3396263 3379266 3363605 3346676 3327610 
3373.668 3306542 3284908 3264877 3248386 3236034 3228123 3223884 3222849 
3377.525 3224751 3229859 3238171 3249788 3263809 3279032 3293488 3305174 
3381.383 3312452 3314489 3311851 3306609 3302235 3302970 3312786 3334255 
3385.240 3366577 3405547 3444788 3476016 3492316 3490078 3469670 3435236 
3389.098 3393425 3351350 3314021 3283840 3260604 3242744 3228991 3219243 
3392.955 3215238 3218776 3230660 3249688 3271521 3290450 3300499 3297394 
3396.813 3280401 3252158 3218376 3185430 3158896 3142108 3134932 3135200 
3400.670 3140172 3147114 3155658 3167440 3185263 3212935 3252325 3302202 
3404.527 3357962 3412660 3457980 3486704 3495322 3484333 3458915 3426653 
3408.385 3395595 3372120 3357995 3351551 3348011 3341667 3328078 3305908 
3412.242 3276795 3245815 3218376 3199817 3193474 3200217 3218509 3245682 
3416.100 3278498 3314055 3350082 3384843 3416668 3444387 3466397 3481694 
3419.957 3489944 3491547 3488241 3482295 3475816 3470471 3466764 3464293 
3423.814 3462656 3461053 3459182 3457947 3458147 3460418 3464526 3469202 
3427.672 3472475 3472075 3466630 3456010 3441782 3426620 3413027 3402375 
3431.529 3394961 3389084 3382906 3375059 3366110 3357895 3353588 3356092 
3435.387 3366510 3383641 3403577 3421443 3432297 3433833 3426319 3413094 
3439.244 3399169 3390052 3388850 3396364 3410690 3427722 3442650 3451768 
3443.102 3453238 3447794 3437574 3425518 3414063 3404645 3396998 3389952 
3446.959 3382672 3374424 3366110 3359565 3357027 3360266 3370384 3387113 
3450.816 3409688 3436806 3467499 3500432 3535105 3569981 3603390 3632157 
3454.674 3652806 3662430 3658921 3642147 3614081 3577932 3537444 3496057 
3458.531 3456578 3420274 3387715 3358964 3333854 3312886 3296393 3285175 
3462.389 3280468 3283306 3294523 3314255 3341534 3374224 3408686 3441348 
3466.246 3468568 3488508 3501735 3510854 3518937 3529226 3542554 3557888 
3470.104 3572019 3581206 3583110 3577364 3566106 3552843 3541586 3535005 
3473.961 3534103 3538278 3545895 3555082 3564001 3571184 3574491 3571551 
3477.818 3559491 3535740 3499163 3451133 3395462 3338796 3288013 3250355 
3481.676 3230226 3228857 3244313 3271654 3304940 3337560 3364573 3382105 
3485.533 3389317 3387815 3381971 3377897 3380468 3393291 3415933 3444587 
3489.391 3473979 3498996 3516866 3527956 3534403 3539782 3545862 3552576 
3493.248 3557921 3559124 3555182 3546964 3537844 3531798 3530696 3533301 
3497.105 3534938 3529393 3512223 3482462 3443819 3403143 3369348 3349013 
3500.963 3345774 3358830 3384008 3415866 3449196 3480692 3508048 3529226 
3504.820 3542287 3544292 3533502 3509718 3475715 3436238 3398100 3367679 
3508.678 3348312 3340933 3343203 3351551 3363472 3377229 3393892 3414063 
3512.535 3437607 3463324 3488374 3510486 3528558 3543356 3557153 3572253 
3516.393 3589592 3607600 3622301 3628883 3623570 3605662 3577598 3544859 
3520.250 3514294 3491714 3480124 3479189 3485134 3491514 3491046 3478855 
3524.107 3453304 3416801 3375059 3335724 3306142 3291819 3294957 3314555 
3527.965 3346041 3383373 3421343 3456210 3486470 3512223 3533502 3549703 
3531.822 3559324 3560360 3551340 3532566 3506612 3477152 3449397 3428523 
3535.680 3417636 3418538 3430894 3452903 3482162 3516165 3552042 3586318 
3539.537 3615317 3635866 3646124 3646057 3638673 3628549 3620931 3618759 
3543.395 3622835 3630453 3635999 3634329 3622601 3602154 3578801 3560193 
3547.252 3553378 3561796 3584647 3617690 3655179 3690900 3719606 3737753 
3551.109 3744103 3739324 3726758 3710483 3694910 3682445 3673557 3666239 
3554.967 3657785 3645389 3627947 3605896 3582275 3561028 3546530 3541586 
3558.824 3547164 3561396 3581908 3605228 3629451 3654243 3680274 3708344 
3562.682 3738655 3769470 3797680 3818939 3829067 3824889 3806036 3775687 
3566.539 3740059 3707675 3684584 3672922 3670884 3674626 3681176 3688828 
3570.396 3697650 3708711 3722948 3741362 3763654 3788254 3812487 3833881 
3574.254 3850027 3860289 3865638 3868045 3870085 3873160 3877239 3881016 
3578.111 3881718 3877406 3867243 3852166 3835418 3820744 3811284 3808610 
3581.969 3812588 3821780 3834750 3850795 3870185 3894724 3925850 3963867 
3585.826 4006503 4047972 4080147 4095031 4089779 4068039 4038173 4008342 
3589.684 3983764 3965907 3953201 3942334 3929394 3911607 3887235 3857615 
3593.541 3826293 3799351 3783374 3783474 3802025 3837925 3887335 3944842 
3597.398 4004998 4063022 4114632 4157148 4188494 4207765 4214791 4211278 
3601.256 4200170 4185550 4172302 4164441 4164942 4174242 4191003 4212281 
3605.113 4234364 4253938 4269330 4280673 4290511 4301621 4315743 4332074 
3608.971 4347234 4357041 4358981 4352522 4339303 4322068 4303695 4285793 
3612.828 4268326 4250089 4229813 4207932 4186386 4167786 4155375 4150758 
3616.686 4153669 4161932 4171700 4178424 4179060 4173406 4164641 4156914 
3620.543 4153635 4156211 4164541 4177220 4193245 4211746 4231921 4253168 
3624.400 4274449 4295162 4315174 4336692 4363667 4402158 4458494 4534391 
3628.258 4620180 4693760 4728260 4712618 4653669 4569280 4476036 4387899 
3632.115 4314237 4260696 4229345 4217501 4217802 4220244 4216229 4201107 
3635.973 4175380 4143901 4115000 4097907 4099914 4124900 4171767 4234832 
3639.830 4304867 4370930 4422710 4451230 4451565 4423915 4373641 4309786 
3643.688 4243230 4185416 4146075 4134969 4160794 4231486 4351318 4517684 
3647.545 4717139 4921948 5095842 5200888 5210647 5122998 4961594 4766884 
3651.402 4577953 4422810 4313969 4252432 4233728 4250190 4292385 4348305 
3655.260 4405003 4450795 4478480 4488925 4489193 4486682 4485845 4486414 
3659.117 4485309 4478279 4462578 4437171 4404166 4367014 4329162 4293355 
3662.975 4260663 4231486 4206125 4185717 4171700 4166314 4170897 4186219 
3666.832 4211947 4246744 4289507 4339102 4393757 4451263 4506869 4555418 
3670.689 4593222 4620715 4641579 4661037 4684583 4715867 4756365 4803132 
3674.547 4846118 4870745 4866322 4836502 4797135 4762462 4739147 4724174 
3678.404 4710139 4686492 4644292 4579761 4495520 4400116 4305101 4222754 
3682.262 4162032 4128580 4123462 4143265 4180733 4226936 4273846 4314739 
3686.119 4345862 4366646 4379866 4390778 4406509 4432919 4470044 4511088 
3689.977 4545005 4561914 4556891 4532416 4496725 4461507 4437171 4430911 
3693.834 4445405 4478379 4522974 4568845 4605579 4624332 4620715 4596303 
3697.691 4557460 4512997 4470847 4437438 4415513 4403832 4397338 4389405 
3701.549 4373708 4347603 4314505 4281610 4257919 4250324 4263340 4297672 
3705.406 4351284 4419697 4497763 4580431 4663951 4746349 4826852 4903919 
3709.264 4973928 5028528 5056217 5044585 4986496 4884752 4754288 4615759 
3713.121 4488054 4383916 4308682 4261600 4239449 4237509 4251830 4279234 
3716.979 4317617 4365006 4420032 4480154 4542259 4602766 4657789 4703741 
3720.836 4738510 4762227 4777269 4788190 4798844 4811876 4826484 4839283 
3724.693 4845012 4839550 4821257 4792813 4759648 4728863 4705650 4691918 
3728.551 4688166 4693693 4709268 4737773 4783232 4849703 4937196 5039456 
3732.408 5142109 5225503 5270039 5260783 5191734 5070330 4920205 4775024 
3736.266 4663650 4599786 4579091 4587998 4611741 4639637 4665458 4687899 
3740.123 4709402 4735563 4773282 4829399 4909113 5012774 5132788 5246999 
3743.980 5321793 5329105 5269604 5171783 5070766 4990083 4938135 4914844 
3747.838 4915916 4934582 4964141 4997926 5031713 5063223 5089338 5105497 
3751.695 5104156 5080554 5033891 4969403 4895475 4821492 4755226 4701933 
3755.553 4665592 4647842 4648646 4665894 4694966 4729667 4760921 4780150 
3759.410 4780049 4756901 4713254 4656148 4594964 4537605 4489594 4452937 
3763.268 4427195 4410760 4401890 4400551 4409154 4431313 4471516 4531645 
3767.125 4610602 4702669 4797771 4882104 4939073 4955662 4928114 4864613 
3770.982 4780987 4694262 4617702 4557762 4516445 4493043 4485109 4489996 
3774.840 4505196 4528464 4558163 4592787 4630930 4670951 4710809 4747354 
3778.697 4777235 4797738 4807387 4807420 4800519 4790167 4778877 4768291 
3782.555 4758509 4748828 4737405 4722365 4701564 4674669 4642852 4609129 
3786.412 4579058 4558766 4553744 4568108 4602599 4653870 4713957 4772444 
3790.270 4818711 4844107 4845548 4825479 4792009 4755159 4725313 4709837 
3794.127 4711345 4727490 4750938 4772311 4781624 4773852 4750771 4720958 
3797.984 4694698 4682540 4692554 4728897 4790770 4868132 4941720 4985525 
3801.842 4983011 4936492 4863876 4786012 4718580 4671286 4648143 4649550 
3805.699 4671856 4706622 4741257 4763467 4767755 4755762 4734826 4712818 
3809.557 4696440 4689774 4694966 4712015 4740152 4776900 4820017 4867462 
3813.414 4917290 4966622 5011869 5046093 5062150 5055781 5030171 4994909 
3817.271 4962868 4945072 4947853 4975000 5025411 5092690 5160818 5206925 
3821.129 5212256 5174231 5108849 5038752 4981670 4945474 4931298 4934917 
3824.986 4949127 4964477 4971481 4963404 4938269 4899597 4853389 4807253 
3828.844 4767185 4737874 4723336 4726686 4749297 4789664 4843471 4903149 
3832.701 4960756 5010093 5048138 5075123 5093763 5108648 5124305 5144355 
3836.559 5169804 5198709 5227381 5250520 5264640 5268865 5264975 5256255 
3840.416 5246127 5235966 5225469 5212525 5193746 5165647 5125579 5073045 
3844.273 5010730 4943564 4877413 4818476 4771105 4737673 4719183 4715163 
3848.131 4724073 4744507 4775627 4818208 4874699 4948959 5045255 5164372 
3851.988 5299454 5428303 5516148 5534437 5483766 5392607 5293517 5206321 
3855.846 5136845 5083236 5040428 5003792 4969939 4938068 4909247 4885724 
3859.703 4869974 4864077 4868266 4881501 4900736 4922484 4943363 4960723 
3863.561 4972989 4979525 4980028 4974766 4964074 4949127 4931432 4912331 
3867.418 4893900 4878184 4868433 4868668 4882741 4912297 4955729 5008987 
3871.275 5068385 5130709 5192505 5247972 5288419 5304217 5288016 5240460 
3875.133 5170542 5091215 5014115 4947284 4894704 4857477 4835329 4827724 
3878.990 4834022 4853724 4886159 4929220 4979793 5034394 5089874 5144489 
3882.848 5197200 5246194 5288419 5318505 5328501 5312434 5270174 5209909 
3886.705 5144053 5084208 5038283 5009389 4998496 5004462 5025109 5055781 
3890.563 5090042 5121053 5142612 5152201 5151229 5143617 5133492 5124640 
3894.420 5120115 5120953 5127792 5140298 5156995 5175907 5194584 5210378 
3898.277 5221244 5226676 5228085 5228722 5232612 5243612 5264170 5294523 
3902.135 5331721 5369593 5399954 5412468 5399417 5358054 5292343 5211351 
3905.992 5125747 5045657 4977715 4926170 4892191 4875068 4872286 4880731 
3909.850 4897552 4919803 4945306 4972085 4998227 5022160 5042808 5059301 
3913.707 5072240 5081191 5086086 5085985 5079616 5065704 5045087 5021255 
3917.564 5000104 4988072 4991055 5010763 5045456 5088768 5133022 5171380 
3921.422 5199380 5216448 5225167 5229762 5234054 5239822 5246228 5250185 
3925.279 5247905 5237274 5217924 5192136 5162796 5133324 5106671 5084812 
3929.137 5069223 5060709 5058664 5061614 5066944 5071335 5071302 5065134 
3932.994 5052898 5037612 5023098 5013579 5012104 5019746 5035936 5058195 
3936.852 5084208 5111297 5137750 5162595 5185027 5203336 5215677 5218058 
3940.709 5208132 5184055 5147607 5104223 5062351 5030707 5013981 5012774 
3944.566 5022763 5037612 5050954 5058865 5061011 5060508 5062720 5073246 
3948.424 5095473 5127993 5165680 5200754 5226274 5237944 5235798 5223759 
3952.281 5208467 5196462 5193042 5199782 5215274 5234960 5253069 5264539 
3956.139 5265847 5256423 5238212 5214939 5190862 5169436 5153073 5142142 
3959.996 5135638 5131379 5126753 5119042 5106235 5087561 5063726 5036171 
3963.854 5008015 4982542 4962667 4950668 4947585 4953316 4966387 4984519 
3967.711 5005400 5027087 5048272 5068117 5086455 5102982 5117432 5129535 
3971.568 5138790 5145126 5148848 5150491 5150860 5150458 5149384 5147104 
3975.426 5142511 5135067 5124070 5110827 5096881 5084913 5077839 5077604 
3979.283 5085281 5100233 5120718 5143819 5167055 5187643 5203873 5214805 
3983.141 5220338 5220439 5215844 5206891 5194919 5180903 5166250 5152570 
3986.998 5140969 5132754 5128496 5129033 5134866 5146501 5164238 5187844 
3990.855 5216113 5246999 5277653 5305055 5326589 5340275 5344971 5340979 
3994.713 5329071 5311126 5288553 5263567 5238179 5214336 5194148 5179730 
3998.570 5172185 5172788 5181372 5196999 5217890 
##END=
