##TITLE=masinsko_1 24.08. 09:50:16 
##JCAMP-DX=5.01  $$ Nicolet v. 970
##DATATYPE=INFRARED SPECTRUM
##ORIGIN=Vojna akademija
##OWNER=Nicolet
##LONGDATE=2026/08/24
##TIME=09:51:10
##SPECTROMETER/DATA SYSTEM=Nicolet iS20
##DATA PROCESSING=
Ratio against background
%Transmittance->Absorbance
Truncated
ElementMultiply or ElementDivide
##COMMENTS=
Number of sample scans: 8
Collection length: 11,90 sec
Sample gain: 8,0
Background collected on: Mon Aug 24 09:49:29 2026 (GMT+02:00);
Number of background scans: 8
Background gain: 8,0
Sample spacing:  1,000
Number of scan points: 12415
Resolution points: 8286
Number of FFT points: 65536
Apodization: N-B strong;
Phase correction: Mertz;
Laser frequency: 15798,00 cm-1
Number of rejected sample scans: 0
Number of rejected background scans: 0
Bench serial number: BER2010005;
##RESOLUTION= 4,000
##XUNITS=1/CM
##YUNITS=ABSORBANCE
##FIRSTX=400.156891
##LASTX=4000.123047
##FIRSTY=-0.002599
##MAXX=4000.123047
##MINX=400.156891
##MAXY=0.280050
##MINY=-0.002920
##XFACTOR=1.000000
##YFACTOR=1.000000E-009
##NPOINTS=7468
##DELTAX=0.482117
##ZPD=6100
##XYDATA=(X++(Y..Y))
400.157 -2599489 -2555945 -2231797 -1548472 -594514 414439 1248228 1729657 
404.014 1817455 1611478 1342178 1269661 1581248 2314039 3341534 4435229 
407.871 5361811 5976601 6246101 6253833 6140398 6049672 6063179 6187987 
411.728 6383504 6607939 6857601 7183498 7669262 8399569 9424108 10743469 
415.585 12310978 14045190 15836386 17498098 18752538 19233100 18597022 
418.959 16783648 14137088 11219292 8471394 6102963 4154940 2599575 1421221 
422.816 624362 223546 214629 541681 1092908 1714920 2268438 2656912 2841240 
427.155 2838738 2711655 2546546 2425645 2416916 2549879 2810024 3142275 
431.012 3464994 3690833 3747712 3606096 3279833 2822030 2301214 1785248 
434.869 1318148 902946 498522 40193 -522375 -1190826 -1900512 -2528966 
438.726 -2916945 -2919610 -2426440 -1393434 148731 2088115 4249654 6426814 
442.583 8385381 9915403 10862155 11141912 10761878 9812904 8465921 6937857 
446.440 5476820 4303193 3534103 3157661 3042730 3018072 2939504 2757302 
450.297 2526016 2380200 2463331 2862652 3547164 4367349 5103653 5552425 
454.154 5601292 5229192 4486715 3450733 2220611 909453 -332041 -1303126 
458.011 -1815061 -1768865 -1218978 -352800 565469 1276042 1600403 1462511 
461.868 934224 215192 -409840 -693438 -501690 158078 1172903 2383498 3642047 
466.207 4854595 5966019 6938430 7719548 8222221 8348191 8028980 7267656 
470.064 6162041 4899027 3724685 2855414 2418948 2396058 2648977 2985809 
473.921 3270886 3475047 3660525 3925683 4347770 4944971 5662618 6391843 
477.778 7006006 7418290 7602628 7596289 7468985 7300609 7152508 7054699 
481.635 7012269 7009710 7022169 7022203 6987284 6900084 6752456 6544226 
485.492 6280893 5968673 5609750 5200922 4740453 4236773 3718403 3233497 
489.348 2839272 2586409 2492923 2534714 2644244 2737262 2734628 2596042 
493.205 2333526 2004290 1683785 1433455 1287440 1245603 1281060 1355938 
497.062 1439273 1516472 1592222 1685115 1816756 2002259 2243225 2524716 
500.919 2814659 3074263 3265244 3366944 3385978 3356493 3326642 3348713 
504.776 3463558 3686923 4010181 4400685 4815964 5215073 5574643 5890039 
508.633 6165402 6397391 6559262 6597544 6449749 6062473 5426022 4589505 
512.490 3663800 2792016 2106128 1707036 1631964 1852293 2272302 2757969 
516.347 3157193 3336926 3227455 2835036 2245690 1592821 1034981 704072 
520.204 673374 950694 1481262 2170525 2906680 3597309 4175915 4613147 
524.061 4914107 5107642 5231975 5320619 5396733 5467996 5529773 5568166 
527.918 5563534 5492793 5331151 5060441 4678085 4207229 3696113 3217474 
531.775 2847643 2641243 2624275 2783879 3078400 3448628 3839931 4213352 
535.632 4553208 4866222 5170710 5485880 5821159 6170712 6513247 6817075 
539.489 7043081 7156348 7133847 6971223 6689394 6334616 5971327 5659697 
543.346 5443234 5331453 5298682 5292176 5254646 5149015 4970610 4752579 
547.203 4548353 4413103 4378394 4444401 4581603 4747052 4895676 4995714 
551.059 5036003 5019512 4955997 4856873 4732682 4594093 4454879 4331003 
554.916 4232289 4157984 4090515 4002690 3865738 3667475 3422044 3175184 
558.773 2990280 2925327 3016771 3259836 3607566 3979015 4289306 4466361 
562.630 4473659 4318052 4044126 3720508 3418438 3206459 3133431 3226654 
566.487 3491915 3913212 4454778 5060675 5663793 6189600 6569320 6757605 
570.344 6736874 6524885 6166645 5730701 5288956 4902244 4610234 4420300 
574.201 4309351 4231520 4139385 3997106 3798749 3569614 3359732 3221013 
578.058 3187366 3263776 3422579 3612812 3771676 3850227 3827295 3720207 
581.915 3574692 3454006 3413796 3483164 3658620 3902279 4155910 4356605 
585.772 4463515 4469274 4403530 4317617 4267790 4292318 4394593 4540217 
589.629 4668272 4717843 4646569 4454276 4184513 3914683 3719339 3645489 
593.486 3694208 3826259 3978815 4091050 4127275 4081652 3976273 3844477 
597.343 3718035 3615251 3541285 3496892 3486571 3522846 3621966 3792800 
601.200 4027170 4295129 4554481 4757102 4865552 4863206 4754857 4562182 
605.057 4315274 4045263 3777458 3533902 3333854 3191171 3111104 3082805 
608.913 3078167 3054709 2969962 2798252 2542113 2237097 1941182 1721240 
612.770 1625346 1672609 1848566 2114352 2416516 2702553 2934567 3089112 
616.627 3161566 3164136 3123986 3078701 3071259 3142342 3313854 3581173 
620.484 3906559 4229546 4475467 4580933 4512327 4272375 3897532 3439845 
624.341 2954516 2479793 2038744 1643838 1306915 1046240 885215 843350 926387 
628.680 1119649 1391437 1697123 1995169 2255915 2461499 2603475 2673581 
632.537 2659312 2548079 2338723 2055888 1751513 1505633 1398584 1484021 
636.394 1771507 2218713 2745465 3255329 3673457 3961293 4124499 4198765 
640.251 4230851 4254707 4278532 4287165 4255443 4165511 4018876 3839931 
644.108 3668144 3546296 3502436 3543490 3652706 3799017 3944608 4056935 
647.965 4117709 4123930 4089879 4040447 4008442 4023291 4104664 4255376 
651.822 4457858 4674066 4851780 4942458 4909314 4743635 4467734 4132895 
655.679 3803663 3536675 3367812 3296960 3292186 3300433 3274191 3186966 
659.536 3048969 2902110 2808957 2825231 2976768 3249487 3590627 3926519 
663.393 4182874 4313099 4304331 4172335 3944072 3646224 3297161 2909215 
667.250 2511552 2170558 1981722 2017672 2272069 2675047 3141374 3603724 
671.107 4009379 4317617 4504660 4563956 4514168 4391982 4245807 4116170 
674.963 4025163 3976239 3959086 3958317 3960791 3960691 3956311 3947216 
678.820 3931334 3903383 3857648 3792064 3710315 3621900 3539615 3476049 
682.677 3439210 3431829 3450599 3487172 3530061 3566039 3584380 3578066 
686.534 3546262 3495422 3439611 3396330 3381103 3403978 3464526 3553044 
690.391 3653508 3750854 3833881 3899638 3953301 4006168 4072420 4165745 
694.248 4298475 4479786 4715934 5009154 5356880 5751450 6179181 6622069 
698.105 7057158 7459041 7803134 8067020 8235120 8302392 8277434 8184336 
701.962 8062092 7963944 7942414 8041131 8281554 8654320 9122547 9631996 
705.819 10131666 10584513 10980737 11336986 11687502 12065657 12492050 
709.194 12967166 13473903 13986912 14484187 14957407 15412981 15867831 
712.569 16339500 16841646 17380896 17960214 18585954 19271270 20035974 
715.943 20902532 21885520 22986112 24186880 25457022 26751154 28018758 
719.318 29210326 30273174 31158140 31821456 32228448 32366506 32248716 
722.693 31914770 31417698 30815712 30157090 29470740 28772198 28067850 
726.068 27363442 26670850 26005780 25383140 24810470 24284104 23790222 
729.443 23309626 22827012 22334400 21834646 21338424 20862132 20423210 
732.817 20038230 19722136 19485762 19332860 19257000 19240720 19255648 
736.192 19267632 19247266 19175716 19050858 18885788 18702514 18520908 
739.567 18350232 18186638 18017508 17828042 17611088 17371204 17123010 
742.942 16885600 16672317 16487774 16325360 16172774 16017593 15855046 
746.317 15689434 15533397 15400588 15300424 15233741 15192494 15161681 
749.692 15126651 15077868 15014683 14944546 14878329 14825459 14786959 
753.066 14752610 14701571 14609485 14455068 14229624 13940856 13614295 
756.441 13286203 12990415 12751158 12573866 12446869 12347111 12251807 
759.816 12148279 12037722 11933223 11853094 11811486 11811690 11844445 
763.191 11892152 11935675 11960163 11959618 11935675 11894774 11843730 
766.566 11787007 11727771 11668033 11610992 11560832 11519899 11487236 
769.940 11456651 11418618 11362596 11283389 11183082 11072466 10965955 
773.315 10876628 10810655 10764187 10724178 10672796 10594325 10479989 
776.690 10331919 10161784 9989073 9834358 9714359 9637790 9603100 9599069 
780.547 9607030 9608452 9586739 9532477 9444188 9327446 9191411 9045742 
784.404 8899649 8760198 8634243 8529984 8455853 8418352 8418859 8451426 
788.261 8502817 8556207 8598552 8623528 8634412 8638907 8643673 8645903 
792.118 8630694 8572902 8449501 8249371 7984226 7687001 7407977 7196535 
795.975 7084370 7078510 7158268 7286693 7419470 7523159 7581587 7597738 
799.832 7589747 7584116 7608933 7687035 7833396 8051021 8327925 8635223 
803.689 8931441 9171410 9314109 9340886 9260659 9114324 8960158 8863666 
807.546 8876348 9021046 9290785 9651612 10058787 10462542 10823971 11116859 
811.402 11324879 11439811 11458318 11383583 11227419 11014280 10779404 
814.777 10559661 10390014 10291915 10269252 10309593 10389234 10480566 
818.152 10556707 10599452 10598264 10549850 10455958 10321842 10154153 
821.527 9959509 9743399 9509649 9259982 8997502 8728046 8461934 8215097 
825.384 8003227 7839468 7728148 7664270 7634830 7623838 7618476 7611327 
829.241 7601953 7593625 7589916 7592613 7601919 7618442 7646026 7691689 
833.098 7761778 7856641 7965834 8066446 8131262 8133726 8061957 7924799 
836.955 7751591 7582127 7455030 7396349 7411010 7484559 7590152 7700289 
840.812 7791968 7853942 7885421 7893014 7887345 7879584 7882823 7909311 
844.669 7969479 8068843 8204730 8365789 8533498 8690015 8821295 8922309 
848.525 8995878 9046994 9076497 9076597 9032751 8931678 8769833 8562459 
852.382 8339748 8141288 8000392 7929692 7917443 7931109 7931953 7888289 
856.239 7791530 7657897 7523327 7426278 7397158 7445626 7561121 7717119 
860.096 7882384 8032017 8149121 8226645 8261866 8252005 8193453 8083662 
863.953 7926553 7735164 7533779 7354458 7226316 7171405 7194716 7283795 
867.810 7410437 7541735 7649399 7717355 7747240 7756246 7770244 7813222 
871.667 7897973 8019968 8157798 8276961 8342213 8328972 8231507 8067392 
875.524 7874051 7702819 7600706 7603268 7724236 7951221 8248256 8562324 
879.381 8839758 9032447 9112869 9078459 8950314 8767196 8573375 8409569 
883.238 8298542 8243866 8231473 8240422 8250925 8254402 8255787 8270815 
887.095 8316409 8402272 8524848 8667029 8802800 8904012 8951127 8936278 
890.952 8865120 8752895 8621839 8494303 8389908 8323501 8303473 8329074 
894.809 8389874 8467847 8539379 8580674 8575943 8519880 8421022 8296651 
898.666 8169108 8056455 7968163 7904148 7857552 7820103 7784952 7750579 
902.523 7719008 7693207 7673848 7656852 7634696 7598446 7541095 7460390 
906.379 7360996 7254044 7155640 7083393 7054430 7078408 7156954 7278235 
910.236 7420785 7555693 7653513 7693847 7667812 7582464 7457457 7320962 
914.093 7200207 7117006 7084909 7107676 7182218 7299598 7446839 7607045 
917.950 7761305 7892777 7989289 8048725 8080387 8103410 8139060 8202568 
921.807 8295874 8406292 8509068 8577498 8594936 8560060 8487984 8402745 
925.664 8328060 8276725 8246568 8223133 8188219 8129270 8046025 7951086 
929.521 7866695 7816932 7818855 7879989 7996241 8153612 8331573 8508325 
933.378 8662399 8776020 8839116 8850545 8820822 8768143 8715707 8683762 
937.235 8681936 8706512 8741535 8766080 8761178 8719189 8646614 8563033 
941.092 8492815 8459129 8477645 8552422 8677609 8839927 9023245 9208942 
944.949 9379109 9517101 9606725 9637010 9602998 9508837 9367124 9197063 
948.806 9021215 8859709 8730176 8645430 8613051 8636542 8713375 8835261 
952.663 8986406 9146741 9293493 9405790 9470636 9484758 9455431 9396547 
956.520 9325957 9259745 9210194 9186300 9193103 9233717 9308218 9413544 
960.377 9542536 9683594 9824257 9951880 10057735 10138416 10194789 10229729 
964.233 10246284 10245775 10228168 10194483 10148387 10095615 10043052 
967.608 9995108 9951812 9908827 9860320 9803821 9744178 9694572 9672718 
971.465 9695656 9771829 9896453 10050682 10207577 10337212 10414619 10426532 
975.322 10370840 10255308 10092868 9898793 9687456 9470568 9259067 9061035 
979.179 8882976 8729500 8603284 8505587 8437035 8396293 8380551 8383828 
983.036 8397374 8409299 8408251 8386193 8340861 8277772 8207937 8144428 
986.893 8096355 8065602 8045587 8024423 7989626 7933775 7858160 7773213 
990.750 7694151 7636382 7610080 7616722 7649567 7695905 7742146 7777294 
994.607 7795511 7796320 7782928 7760226 7732668 7704539 7680020 7664102 
998.464 7664777 7690846 7750579 7847802 7979468 8132477 8286687 8419839 
1002.321 8512245 8554044 8547962 8508325 8454569 8404805 8369607 8348225 
1006.178 8332148 8311376 8281925 8249911 8230528 8240084 8288410 8370113 
1010.035 8464401 8538161 8560465 8511602 8390719 8216480 8020373 7835386 
1013.891 7684640 7578823 7516214 7489616 7492650 7524035 7587589 7687507 
1017.748 7822600 7983721 8152058 8306074 8424096 8491362 8502580 8460684 
1021.605 8375045 8257272 8120897 7979198 7843989 7726226 7633010 7568235 
1025.463 7532093 7523563 7541971 7587994 7663630 7768490 7897332 8037823 
1029.320 8171472 8279629 8350015 8382477 8390483 8397846 8430683 8504506 
1033.177 8619169 8755126 8880913 8959278 8962457 8878884 8716856 8500486 
1037.035 8262001 8034616 7841661 7693679 7586746 7506640 7433289 7349268 
1040.892 7247946 7135632 7031766 6962166 6950887 7008262 7125898 7275708 
1044.750 7420380 7521709 7553771 7511393 7409055 7274731 7136137 7014491 
1048.607 6916917 6839593 6773388 6712208 6656083 6611505 6586139 6584457 
1052.464 6604844 6641280 6686332 6736874 6794760 6865916 6955230 7062681 
1056.322 7180163 7295319 7394731 7470233 7520833 7551546 7568471 7572990 
1060.179 7559334 7517057 7436592 7315974 7165274 7006343 6867666 6774566 
1064.037 6743672 6777831 6866892 6991123 7127616 7257447 7366590 7449401 
1067.894 7505493 7538465 7552827 7551984 7537285 7508157 7463659 7405516 
1071.752 7340102 7280223 7243701 7246396 7297711 7393316 7514528 7629671 
1075.609 7706327 7718671 7656379 7527912 7355974 7169485 6991863 6839020 
1079.466 6716314 6623145 6558152 6521622 6515400 6538407 6584693 6642121 
1083.324 6696561 6737783 6763662 6782913 6808761 6852821 6917556 6993749 
1087.181 7062917 7107474 7118926 7102119 7073963 7055373 7060256 7088411 
1091.039 7125157 7145906 7129636 7065173 6957183 6823907 6690874 6580555 
1094.896 6508370 6479243 6489502 6529594 6586745 6647134 6697302 6725332 
1098.754 6723582 6691514 6636334 6571742 6514020 6474434 6455870 6451868 
1102.611 6450893 6441409 6418206 6384949 6351427 6328262 6321470 6329842 
1106.468 6347561 6368474 6391977 6424360 6476587 6559161 6674723 6816233 
1110.326 6966880 7107676 7221229 7298149 7337373 7343101 7320995 7275338 
1114.183 7210246 7131455 7048739 6975668 6925198 6905167 6913819 6940752 
1118.041 6970752 6991358 6999945 7003952 7016882 7050389 7106868 7175851 
1121.898 7238310 7273821 7271631 7235278 7181612 7131220 7101378 7096663 
1125.755 7108956 7122294 7123170 7106969 7081338 7060290 7057528 7077331 
1129.613 7112392 7145670 7160491 7149880 7121149 7094776 7096831 7150082 
1133.470 7263983 7431840 7632234 7838490 8024187 8170459 8269025 8318772 
1137.328 8323670 8288917 8220330 8124948 8012307 7896016 7792474 7718974 
1141.185 7690036 7712499 7783434 7889740 8012374 8129405 8223640 8287363 
1145.043 8324007 8347279 8376024 8428183 8512785 8627010 8756681 8882537 
1148.900 8987218 9063843 9118756 9171275 9244446 9355410 9508498 9691048 
1152.757 9877370 10035931 10141909 10182984 10162633 10095683 10003008 
1156.133 9902149 9802703 9706668 9610485 9510429 9407246 9306694 9220009 
1159.990 9160311 9137165 9154254 9207115 9284353 9368681 9441750 9488347 
1163.848 9498609 9471516 9415304 9345931 9282085 9240858 9232396 9256124 
1167.705 9300669 9346033 9370950 9355884 9290615 9175979 9023312 8850410 
1171.562 8677677 8523902 8401562 8316003 8264804 8240185 8230326 8222558 
1175.420 8206080 8173227 8121032 8050514 7967116 7877694 7790214 7711824 
1179.277 7648185 7603032 7578890 7576564 7595580 7632639 7681841 7732702 
1183.135 7771189 7781916 7750208 7667239 7532801 7357929 7162377 6973546 
1186.992 6820743 6727217 6707632 6764100 6886989 7056888 7249731 7441311 
1190.849 7608461 7733511 7804585 7816561 7771054 7677086 7549388 7406291 
1194.707 7267791 7151261 7067329 7019610 7004120 7011730 7032574 7058943 
1198.564 7088276 7121418 7161131 7209135 7263714 7320085 7371308 7411954 
1202.422 7439997 7458637 7473974 7492616 7518203 7549658 7581486 7605460 
1206.279 7616318 7612170 7597738 7581587 7574237 7582835 7608259 7645149 
1210.137 7682954 7709362 7714590 7694185 7651085 7593557 7532599 7479503 
1213.994 7442862 7426582 7430761 7452536 7488031 7532430 7581554 7630042 
1217.851 7671757 7701031 7712499 7704067 7678131 7642047 7605898 7579429 
1221.709 7568741 7572720 7584217 7591703 7585465 7562402 7528958 7498718 
1225.566 7489851 7516720 7582936 7679750 7787448 7882519 7943494 7959726 
1229.424 7932662 7876716 7811163 7755942 7725147 7723494 7747577 7788021 
1233.281 7833463 7873140 7899120 7907691 7898850 7876446 7847835 7822465 
1237.139 7810151 7819024 7853199 7911099 7986353 8068404 8146893 8212428 
1240.996 8259738 8287634 8298441 8296684 8287869 8277603 8271456 8273415 
1244.853 8286384 8310734 8344307 8383186 8422947 8460482 8494775 8527315 
1248.711 8560634 8595240 8629241 8657126 8671322 8665374 8636845 8588514 
1252.568 8529579 8471732 8425987 8401326 8401225 8425954 8472070 8534918 
1256.426 8607982 8682917 8751001 8802123 8828599 8828126 8805842 8774093 
1260.283 8749447 8746843 8774161 8829005 8901949 8980419 9056467 9130397 
1264.141 9210330 9309335 9438465 9599645 9784470 9974053 10145776 10276919 
1267.998 10352957 10368872 10329578 10247064 10138178 10022029 9915810 
1271.373 9835205 9790672 9786639 9820293 9881912 9958491 10034474 10097446 
1275.231 10139501 10158020 10154798 10135567 10106772 10074521 10045120 
1278.606 10023827 10015112 10021419 10042103 10072622 10105077 10131836 
1281.981 10147471 10152424 10152932 10160089 10185054 10234105 10306912 
1285.356 10395512 10488000 10572426 10641385 10695413 10741770 10790783 
1288.732 10853050 10934558 11035895 11151431 11272541 11389535 11493666 
1292.107 11578425 11641588 11684711 11712997 11735532 11763413 11806855 
1295.482 11873423 11964999 12078262 12204505 12332897 12454166 12561111 
1298.857 12650752 12723384 12780708 12825140 12858757 12884457 12905073 
1302.233 12924495 12946513 12972662 13002364 13032000 13056481 13070993 
1305.608 13072735 13061125 13038008 13005061 12963172 12911456 12848893 
1308.983 12775522 12694521 12611762 12535395 12472545 12427025 12398283 
1312.358 12380725 12366509 12347248 12317318 12274575 12220487 12158501 
1315.734 12093082 12028321 11967383 11912176 11862219 11814686 11764129 
1319.109 11704930 11633522 11550318 11462434 11380862 11319165 11287980 
1322.484 11292775 11331340 11395488 11472402 11549262 11617322 11672186 
1325.859 11714189 11746221 11771856 11793407 11813120 11833651 11858849 
1329.234 11894093 11944360 12012515 12098636 12200006 12313126 12435276 
1332.610 12567181 12712058 12874798 13058871 13263724 13484738 13714618 
1335.985 13945065 14170327 14389166 14603488 14815654 15024596 15223618 
1339.360 15401137 15545279 15648693 15712244 15743406 15753301 15750999 
1342.735 15745193 15742479 15749110 15772197 15818551 15892403 15993495 
1346.111 16116720 16253119 16392831 16529799 16663916 16800316 16946748 
1349.486 17108534 17283756 17463120 17630998 17771774 17876136 17943604 
1352.861 17983456 18011810 18046832 18102514 18188502 18309276 18466384 
1356.236 18661214 18895720 19171144 19486490 19837302 20218180 20626562 
1359.612 21070456 21572780 22173864 22920230 23852772 24979388 26257980 
1362.987 27596412 28883698 30030420 30987338 31748730 32332488 32766502 
1366.362 33080046 33309198 33501066 33713576 34017232 34476256 35133416 
1369.737 36007832 37098440 38399332 39915956 41676240 43724108 46097688 
1373.113 48792584 51716964 54676688 57426272 59735412 61466252 62577776 
1376.488 63076332 62972552 62258960 60924208 58989348 56538376 53723556 
1379.863 50718008 47689040 44756340 41982964 39399992 37017356 34835440 
1383.238 32845118 31021784 29322504 27689282 26064602 24406478 22709026 
1386.614 21012342 19392032 17925994 16660336 15594836 14699344 13936408 
1389.989 13276056 12699979 12197382 11757456 11365998 11005104 10659144 
1393.364 10320247 9993310 9694098 9440802 9242584 9095105 8985797 8902389 
1397.222 8839961 8799553 8782614 8785014 8792892 8788193 8759082 8705396 
1401.079 8638569 8574388 8527517 8504776 8503831 8514238 8523192 8523057 
1404.936 8516164 8512548 8524342 8556849 8606494 8663615 8718411 8765877 
1408.794 8807059 8847163 8890991 8940235 8991919 9042528 9092364 9148128 
1412.651 9221363 9322267 9453095 9605370 9761291 9901640 10012162 10091037 
1416.509 10149472 10208629 10289880 10405218 10549408 10703292 10847479 
1419.884 10978155 11105811 11246698 11411170 11601940 11816525 12053189 
1423.259 12314660 12609783 12948322 13334752 13763180 14221270 14696808 
1426.634 15186558 15700702 16261099 16895900 17629306 18471018 19409704 
1430.010 20419980 21473376 22550238 23641604 24744312 25855066 26967434 
1433.385 28076544 29188708 30325080 31529378 32858272 34357392 36012624 
1436.760 37732732 39388456 40885536 42209488 43407772 44550660 45707496 
1440.135 46930176 48247904 49665100 51166328 52723756 54303380 55877092 
1443.511 57421468 58920428 60367456 61766228 63135184 64507200 65925948 
1446.886 67431576 69042248 70746232 72504880 74278464 76053368 77847440 
1450.261 79701416 81653584 83718184 85867288 88033984 90143152 92126432 
1453.636 93956984 95647328 97231448 98741000 100176448 101482856 102547040 
1457.012 103271272 103660296 103814152 103850640 103824720 103741608 
1459.905 103591560 103373952 103098728 102777712 102408600 101963544 
1462.798 101381568 100579288 99468232 97995800 96173944 94059912 91707328 
1466.173 89127680 86283664 83140680 79701024 76026160 72202672 68328624 
1469.548 64468152 60603816 56655468 52505480 48091048 43514488 39095088 
1472.923 35230676 32148230 29810514 28004620 26489052 25106944 23791866 
1476.299 22552716 21427040 20441512 19587972 18830800 18123794 17430906 
1479.674 16734814 16037982 15356064 14708221 14108987 13564177 13074612 
1483.049 12641814 12269598 11963569 11724469 11543852 11401441 11269549 
1486.424 11121040 10937752 10716027 10464409 10198113 9930082 9669500 
1489.800 9423567 9202817 9018036 8875908 8773857 8700765 8640800 8578477 
1493.657 8501499 8404535 8288849 8161917 8032524 7904891 7774191 7631459 
1497.515 7470974 7299665 7134891 6997049 6898232 6837640 6801962 6773220 
1501.372 6736100 6683606 6617998 6546513 6476418 6409026 6337440 6243950 
1505.229 6104542 5898403 5632844 5366910 5182077 5107173 5102044 5111833 
1509.087 5108011 5086958 5060239 5041233 5039624 5054909 5077034 5091316 
1512.944 5086052 5057491 5009121 4948189 4881166 4809363 4727959 4629992 
1516.802 4515106 4395464 4291548 4223088 4201709 4229713 4299111 4389807 
1520.659 4468002 4497295 4455080 4349577 4208936 4061584 3923610 3801758 
1524.516 3702295 3632692 3601586 3612444 3657919 3718904 3771275 3798047 
1528.374 3792298 3758808 3708645 3653742 3601285 3552576 3502971 3445589 
1532.231 3376060 3298029 3224818 3174282 3155191 3162033 3181558 3202487 
1536.089 3220813 3240207 3271154 3328846 3430727 3587253 3787184 3982292 
1539.946 4101385 4093191 3967880 3778026 3577498 3396898 3245949 3124653 
1543.804 3029583 2957485 2903712 2861084 2820629 2773808 2715356 2644544 
1547.661 2566843 2491523 2433942 2409152 2425345 2477760 2551378 2628009 
1551.518 2694084 2744398 2779544 2802620 2817294 2827232 2836570 2850645 
1555.376 2875760 2918622 2983908 3070926 3167740 3240841 3231094 3095386 
1559.233 2881330 2698919 2604942 2589142 2619009 2667513 2717590 2760236 
1563.091 2792282 2814726 2831568 2846776 2863586 2882397 2901743 2919723 
1566.948 2934967 2947611 2957352 2964124 2967060 2965525 2960488 2954683 
1570.806 2950647 2949145 2948979 2947077 2940005 2925594 2904245 2879029 
1574.663 2857716 2849111 2859150 2884599 2912351 2928196 2926461 2910817 
1578.520 2889769 2870957 2859517 2857315 2863386 2875760 2893038 2916254 
1582.378 2948478 2992549 3049770 3117411 3189135 3257099 3314121 3356493 
1586.235 3383974 3398334 3401406 3394260 3377363 3352219 3322836 3295625 
1590.093 3277630 3274091 3285309 3306977 3331350 3351518 3363705 3369348 
1593.950 3374124 3383974 3401840 3425317 3447159 3459917 3458648 3444420 
1597.807 3423147 3403343 3392757 3395362 3411525 3438509 3473077 3512390 
1601.665 3555817 3602822 3651436 3698118 3737051 3763053 3773080 3767130 
1605.522 3747211 3715562 3673791 3622768 3563534 3499764 3437474 3384308 
1609.380 3346342 3324539 3313955 3304606 3285643 3249988 3196946 3132529 
1613.237 3067489 3013067 2977335 2963290 2967460 2977969 2979471 2960821 
1617.095 2922759 2876761 2835403 2805455 2786547 2773675 2759970 2738696 
1620.952 2703786 2651144 2578809 2489657 2391627 2296318 2214883 2153542 
1624.809 2113453 2092144 2086484 2093309 2110290 2134263 2161967 2188974 
1628.667 2210720 2223809 2226540 2219879 2207057 2193170 2184944 2189806 
1632.524 2214350 2263809 2339589 2436741 2541580 2628142 2667013 2643244 
1636.382 2569910 2476961 2392160 2329262 2289956 2270836 2265940 2269138 
1640.239 2274501 2277132 2274167 2265474 2253683 2243225 2239895 2248787 
1644.097 2272136 2307976 2348517 2377268 2373870 2323266 2229803 2118480 
1647.954 2018837 1949103 1912160 1903075 1914723 1941748 1979125 2022398 
1651.811 2064211 2090146 2083654 2043304 1995036 1967309 1968374 1991175 
1655.669 2025261 2060349 2087583 2101699 2100268 2085319 2062680 2040874 
1659.526 2027358 2027292 2041640 2066841 2095840 2119313 2129368 2122642 
1663.384 2100900 2069471 2034016 1998731 1965812 1936888 1913858 1899314 
1667.241 1896685 1909797 1941448 1992140 2058352 2132432 2205425 2270237 
1671.099 2322900 2362842 2391627 2411118 2423379 2429444 2428744 2418682 
1674.956 2395259 2355780 2301414 2236697 2167362 2097771 2030354 1966876 
1678.813 1908599 1857152 1814594 1783019 1764022 1759431 1770776 1799588 
1682.671 1846370 1905870 1963382 1999563 2004656 1989111 1970738 1961717 
1686.528 1964613 1976463 1990442 1998365 1993006 1970238 1931463 1883440 
1690.386 1835523 1796394 1772439 1765885 1776199 1801185 1837952 1882076 
1694.243 1926271 1960586 1972568 1954994 1912693 1861644 1818620 1793166 
1698.100 1788242 1801551 1826805 1852759 1865604 1856120 1825840 1783385 
1701.958 1735378 1684583 1630468 1573766 1517736 1469326 1438375 1433488 
1705.815 1455496 1495758 1541044 1578321 1599306 1601201 1586236 1558768 
1709.673 1526181 1496257 1476208 1471321 1484354 1515175 1559865 1611245 
1713.530 1659637 1694462 1707735 1696924 1668151 1633627 1606622 1596013 
1717.388 1599838 1606389 1602964 1585371 1558502 1532133 1514244 1510121 
1721.245 1521227 1545434 1577989 1613240 1646732 1676667 1704342 1732650 
1725.102 1762924 1794331 1823045 1843742 1851894 1844906 1823544 1791104 
1728.960 1753376 1716117 1683386 1656144 1632364 1608152 1578687 1540646 
1732.817 1493065 1440469 1394528 1369167 1371360 1397886 1441301 1496257 
1736.675 1561096 1635124 1716816 1800320 1873391 1920381 1927403 1890695 
1740.532 1818520 1729191 1643073 1577091 1543505 1545866 1578521 1627874 
1744.390 1677930 1714255 1728858 1721041 1696525 1665025 1636255 1617996 
1748.247 1613007 1618961 1628838 1634758 1630401 1612575 1582578 1544735 
1752.104 1504835 1467531 1436480 1413476 1399515 1394861 1399515 1412445 
1755.962 1431194 1452604 1472651 1487978 1497221 1499714 1495459 1484686 
1759.819 1467564 1445689 1422086 1401509 1388878 1386783 1394196 1407160 
1763.677 1421354 1433688 1442497 1448282 1452138 1454366 1455230 1453402 
1767.534 1447617 1437743 1425277 1412911 1404301 1401974 1406528 1416601 
1771.391 1428435 1436646 1436846 1428302 1413144 1395825 1380368 1370529 
1775.249 1370230 1383127 1412445 1458854 1519431 1587466 1652918 1703543 
1779.106 1727295 1715984 1668917 1594882 1508791 1427405 1362552 1319843 
1782.964 1299637 1299836 1316786 1345734 1381365 1417498 1448182 1470091 
1786.821 1482027 1485484 1484188 1482359 1483057 1487479 1493298 1495558 
1790.679 1488310 1466733 1431095 1386817 1342643 1303625 1270957 1241781 
1794.536 1213538 1186924 1166159 1158319 1170378 1205098 1258928 1321272 
1798.393 1378041 1413077 1414108 1376812 1306549 1216462 1122539 1038734 
1802.251 972877 926686 898397 885448 885581 898198 923465 961752 1013393 
1806.590 1077662 1152039 1232311 1312498 1383725 1436879 1462710 1454432 
1810.448 1409952 1333968 1237262 1133568 1036841 956439 897201 860016 843151 
1814.787 843848 858655 883290 912873 941795 965139 979485 984168 980714 
1819.127 972511 962283 951391 938873 922336 898330 864863 821971 773108 
1823.467 725711 689569 675730 692655 743003 822668 922536 1032988 1142903 
1827.806 1243244 1323765 1373754 1384490 1353279 1287440 1201111 1111178 
1831.664 1031028 969091 930870 919747 936747 978522 1037372 1099618 1147820 
1836.003 1167289 1148485 1091480 1006286 911014 825025 763880 735801 741211 
1840.343 775365 831333 902481 982540 1064408 1139349 1197490 1229587 1232677 
1844.682 1212641 1181176 1149814 1125728 1107557 1089454 1062947 1022360 
1848.540 966301 900455 833490 774403 728366 695476 673507 659569 654724 
1852.880 663253 691162 742339 814037 897201 976995 1037173 1068062 1068527 
1857.219 1049794 1030264 1031360 1068727 1147056 1259293 1388811 1513845 
1861.077 1613606 1674837 1693231 1672875 1623750 1558735 1491037 1431460 
1864.934 1388479 1366275 1365876 1384822 1418629 1461779 1507761 1550255 
1868.791 1583709 1603130 1605724 1590360 1558269 1510886 1451540 1383592 
1872.649 1308843 1227992 1140312 1043982 940168 834254 736763 661361 619617 
1876.988 616896 648984 702711 759997 805107 829440 835416 833723 838802 
1881.328 862075 905801 962317 1016116 1050824 1053680 1022526 965903 901518 
1885.668 849293 825855 842288 901319 997551 1117988 1245869 1361522 1448149 
1890.007 1496755 1506298 1482359 1434020 1368003 1286842 1189881 1074406 
1893.865 940566 794120 648021 518459 421404 365323 348710 362306 392716 
1898.204 426710 455434 477292 496996 524331 569383 639161 735236 851617 
1902.544 975301 1088823 1174664 1217724 1210149 1153302 1057865 941463 
1906.401 825921 731419 669691 641484 635744 635379 621873 584811 525890 
1910.741 457988 400244 369634 375736 417921 485287 560392 626021 667799 
1915.080 678784 660996 623566 580299 546392 535544 552795 593471 643077 
1919.420 683496 697999 674868 609431 506848 381905 255638 153968 95867 88775 
1924.242 128612 203888 299568 401869 498787 579569 634449 655753 638133 
1928.581 581228 491622 384724 281432 204584 174982 204286 293965 433576 
1932.921 604122 778850 929741 1034848 1079920 1063213 994164 893715 789605 
1937.261 709979 678750 705300 783232 888370 988518 1044646 1022758 905701 
1941.600 699492 436594 167756 -52944 -190213 -233234 -196572 -109692 -4572 
1945.940 94276 177004 248808 322149 406181 498622 578972 612516 560392 
1950.279 396530 119928 -237208 -617808 -948419 -1163003 -1226875 -1144629 
1954.137 -959296 -734556 -538491 -416162 -378093 -395572 -414441 -372498 
1957.994 -220384 58386 440243 864100 1249092 1509556 1587965 1468395 1183834 
1962.334 803912 416794 112769 -41415 -14247 187413 526520 945514 1381831 
1966.673 1783851 2108991 2329695 2433475 2416016 2280230 2038377 1714221 
1970.531 1343241 976596 669989 461305 363135 349008 364992 342376 226364 
1974.870 -6427 -335518 -701344 -1025744 -1231732 -1274517 -1146216 -876041 
1978.728 -514300 -124599 240387 546293 775498 923465 991440 977891 880434 
1983.068 698364 439248 121685 -221643 -547294 -810034 -965611 -982405 
1986.925 -851074 -586970 -224060 192783 615768 1006186 1327554 1544137 
1990.782 1626211 1549956 1310538 930239 462897 -14910 -420995 -676864 
1994.640 -734060 -575388 -219391 289223 888204 1506364 2077661 2542246 
1998.497 2854814 2988145 2937970 2721291 2374103 1951632 1513014 1110248 
2002.355 778220 523302 327985 166464 23492 -91837 -142618 -82065 126093 
2006.694 478188 922137 1360325 1687011 1814161 1698687 1356769 856464 296352 
2011.034 -233598 -661414 -950436 -1096940 -1120901 -1055856 -942567 -825379 
2014.891 -738327 -702271 -716462 -752219 -758471 -675408 -457638 -92566 
2018.749 391821 940666 1484055 1962250 2341055 2609108 2774642 2849511 
2022.606 2835870 2718957 2483492 2128936 1686712 1233242 865926 671516 
2026.464 697833 927384 1282090 1642707 1893391 1950767 1791836 1454332 
2030.321 1018142 575920 205081 -36081 -114661 -17825 250996 672047 1204600 
2034.661 1781622 2319702 2724558 2916154 2859217 2570443 2118680 1593453 
2038.518 1085003 652269 313494 50863 -168222 -372531 -565693 -722813 -797598 
2042.858 -746001 -542297 -195645 251958 740182 1201377 1583443 1856786 
2046.715 2010981 2050029 1988479 1844340 1636887 1388811 1123370 859186 
2050.572 612417 391456 198186 34195 -95813 -181735 -205216 -148415 -2783 
2054.912 222253 496897 771216 992105 1120247 1138153 1058596 916061 758736 
2059.251 628742 550771 528411 546392 581692 613877 634051 644039 653762 
2063.591 671682 701185 738157 772013 791132 788443 762851 718973 663784 
2067.931 605051 547454 494143 444986 398785 354612 311439 269363 231237 
2072.270 202860 191789 207004 253880 329543 422797 513417 580299 606146 
2076.610 584048 519288 428070 328913 235845 156586 90001 34029 -8349 -24949 
2081.432 5135 103390 280603 527715 813738 1092510 1312066 1434585 1445822 
2085.771 1360358 1215232 1059194 937710 875753 877679 927583 1001071 1074141 
2090.111 1135694 1190346 1255106 1350753 1491635 1676667 1887301 2087449 
2093.968 2232168 2284426 2221577 2046034 1784815 1483190 1190180 946477 
2097.826 775232 676029 631032 612981 597585 571606 534913 497129 472018 
2102.165 468867 488372 523369 564274 602994 638830 677323 726906 793755 
2106.505 876915 966932 1048233 1105631 1127987 1112939 1065970 997684 917787 
2110.844 832129 742173 645898 542909 438120 342409 271419 241879 264622 
2115.184 341812 465020 616730 772544 909188 1007548 1054809 1047070 986293 
2119.524 879737 738257 577412 415931 275165 179557 149427 198551 327321 
2123.863 521179 752263 982972 1179648 1318314 1391836 1408955 1390240 
2127.721 1358464 1328750 1305785 1283585 1252116 1205829 1150611 1104667 
2131.578 1096064 1150744 1284450 1495392 1765552 2063046 2354580 2613075 
2135.436 2820862 2971163 3062350 3093717 3062617 2965092 2800386 2574743 
2139.293 2304279 2013577 1727361 1467298 1246002 1065837 921473 805373 
2143.150 709183 625158 547221 470061 388736 303448 220695 154034 121817 
2147.490 141969 223049 360913 537103 726773 908225 1070221 1219054 1377576 
2151.830 1575362 1835190 2162234 2536280 2913552 3235300 3444955 3504006 
2155.687 3403577 3164937 2833502 2468929 2126272 1847169 1652386 1540845 
2159.544 1494993 1493497 1517669 1553946 1591856 1620490 1624282 1587466 
2163.402 1496622 1348326 1152338 933194 726574 565336 474606 459115 501143 
2167.741 564340 609431 604122 536705 422764 303448 235315 269927 441437 
2172.081 750139 1164166 1618262 2032918 2338123 2484658 2463864 2307210 
2175.938 2075664 1836355 1651721 1560065 1568711 1658472 1791802 1926438 
2179.796 2024163 2059417 2021167 1914357 1756503 1574397 1400645 1266172 
2183.653 1194632 1198320 1272420 1394030 1525915 1626976 1659071 1598773 
2187.511 1442364 1207225 926387 645267 412748 270192 249703 366451 615536 
2191.850 969722 1381299 1790006 2127437 2339956 2397624 2302247 2086684 
2195.708 1806309 1524785 1295649 1153501 1106594 1142339 1233940 1351185 
2199.565 1471055 1577091 1662231 1727029 1777662 1823145 1877084 1952165 
2203.423 2056654 2189274 2335891 2469030 2552478 2551812 2443472 2222410 
2207.280 1903907 1519830 1113969 728300 400244 160530 29622 23625 151316 
2211.620 410658 783663 1233175 1707435 2141588 2476794 2667246 2689450 
2215.477 2546346 2263942 1885437 1456061 1022028 622305 287267 43871 -87796 
2219.817 -94719 23592 254444 569151 924893 1277504 1583310 1810734 1947239 
2224.156 1996834 1976562 1908866 1814161 1704674 1584507 1452803 1308710 
2228.014 1156757 1009108 881530 791763 750670 758304 803779 868051 931103 
2232.353 977692 1002499 1008942 1007182 1007481 1015917 1032490 1053614 
2236.211 1073344 1087593 1095499 1096529 1089055 1068760 1029766 967929 
2240.068 886378 797904 722292 682699 695974 765175 876616 1002499 1111643 
2244.408 1175628 1180811 1128685 1036276 926952 824129 745260 698695 684525 
2248.747 696937 727271 765872 803082 833192 853974 869578 890727 931899 
2253.087 1004824 1113769 1250421 1395127 1521327 1604826 1632962 1608684 
2256.944 1548925 1476075 1411116 1362619 1325261 1282422 1216196 1113238 
2260.802 973508 809755 644736 504427 410194 375736 404290 490030 618157 
2265.141 768992 919182 1044646 1126991 1156126 1134831 1076997 1005322 
2268.999 943223 906399 898928 911479 926620 924395 892520 828743 741443 
2273.338 644803 554819 483263 436561 417026 425085 461470 526354 617494 
2277.678 728864 847533 957634 1043483 1094536 1108488 1092676 1060921 
2281.535 1027740 1004990 998215 1006086 1023323 1044214 1064209 1081913 
2285.393 1098422 1115530 1134133 1153966 1173634 1191808 1208255 1224104 
2289.250 1241516 1262251 1286510 1313063 1338189 1357699 1367338 1364480 
2293.108 1348891 1322170 1288304 1252980 1222011 1202141 1199118 1217292 
2296.965 1258629 1322170 1402539 1490239 1573433 1639148 1676234 1680492 
2300.823 1654115 1607952 1557604 1520362 1509490 1530404 1580117 1648162 
2304.680 1720508 1784183 1830997 1858483 1868033 1862642 1843875 1811433 
2308.537 1763989 1702712 1632297 1562758 1506763 1474513 1470756 1491735 
2312.395 1526813 1561894 1585405 1592588 1586170 1573932 1564155 1562426 
2316.252 1568678 1579086 1588897 1596279 1603263 1615269 1637319 1670147 
2320.110 1708733 1743329 1763157 1762458 1742531 1713556 1689473 1682221 
2323.967 1697190 1730987 1772772 1807806 1824409 1815725 1781721 1729923 
2327.824 1671345 1617830 1578421 1557904 1555376 1566450 1584074 1602365 
2331.682 1617165 1627641 1634758 1641277 1649692 1660402 1673108 1687144 
2335.539 1701913 1719577 1743662 1778627 1827204 1888632 1956825 2022165 
2339.397 2074965 2107060 2114984 2100967 2069405 2025161 1970039 1903641 
2343.254 1824742 1735046 1641244 1554146 1486282 1445921 1432757 1439572 
2347.112 1455163 1469792 1478502 1482060 1485817 1496922 1520761 1558269 
2350.969 1604061 1648262 1679427 1690703 1684650 1674538 1679827 1720043 
2354.826 1808405 1945941 2122110 2315338 2500188 2650078 2741063 2755735 
2358.684 2686316 2535814 2319335 2064278 1802516 1564654 1374917 1245570 
2362.541 1177787 1165561 1199350 1269329 1366508 1481062 1599871 1706304 
2366.399 1783851 1819485 1809902 1763357 1698021 1634326 1588464 1567381 
2370.256 1566716 1575595 1581181 1576559 1561462 1542109 1525815 1517935 
2374.114 1518600 1523022 1525051 1520695 1510786 1500213 1496157 1503937 
2377.971 1524652 1554013 1584008 1605258 1611976 1601600 1576559 1542641 
2381.828 1506863 1475111 1451540 1437943 1433588 1436912 1444924 1454632 
2385.686 1462278 1464373 1457923 1440835 1412878 1375116 1330412 1283120 
2389.543 1237362 1197921 1168418 1151774 1149614 1161973 1186658 1220017 
2393.401 1256868 1291594 1319411 1337757 1346798 1349756 1352149 1360525 
2397.258 1380069 1413808 1461314 1518633 1578554 1632763 1673074 1692899 
2401.115 1689273 1663096 1618927 1563656 1505167 1450310 1403736 1367338 
2404.973 1340848 1323466 1314393 1313861 1323599 1344970 1377842 1419127 
2408.830 1462345 1499149 1519930 1517769 1489840 1439406 1374252 1304855 
2412.688 1242247 1194333 1164498 1151508 1150843 1157023 1165760 1175694 
2416.545 1187456 1202972 1223473 1247331 1270160 1286377 1290298 1279265 
2420.403 1254542 1221845 1189084 1164697 1155760 1165461 1193735 1237827 
2424.260 1293023 1353445 1413243 1465869 1505134 1526381 1526913 1507960 
2428.117 1474413 1434220 1396290 1367272 1350819 1345402 1347628 1352481 
2431.975 1356868 1360923 1367438 1380169 1402008 1433156 1471055 1511252 
2435.832 1549291 1582146 1608152 1626543 1635689 1632929 1615302 1580716 
2439.690 1530703 1471088 1411249 1362286 1331741 1321638 1327255 1338488 
2443.547 1343374 1333137 1305619 1266438 1226297 1198187 1192340 1212774 
2447.405 1256602 1314924 1377277 1433388 1477372 1508126 1528343 1542641 
2451.262 1554079 1562692 1565020 1555110 1526913 1478702 1414340 1344637 
2455.119 1284350 1249624 1251451 1292591 1364480 1450310 1528875 1580450 
2458.977 1593519 1567347 1512183 1443694 1380069 1335497 1315290 1318314 
2462.834 1337192 1362685 1386783 1404966 1416933 1425609 1434751 1448049 
2466.692 1467099 1491003 1515907 1535924 1544469 1535192 1505333 1456194 
2470.549 1394961 1332872 1282954 1256868 1260025 1291030 1340948 1397387 
2474.406 1447185 1481694 1498418 1501277 1498085 1496323 1501776 1515707 
2478.264 1535857 1558136 1579519 1598674 1616034 1632696 1648395 1660269 
2482.121 1663262 1650557 1616134 1557604 1476840 1380036 1277571 1181741 
2485.979 1103770 1053149 1035579 1051488 1097359 1165328 1245437 1326258 
2489.836 1398351 1455097 1493896 1516838 1529739 1540180 1554811 1577989 
2493.694 1609815 1646998 1683452 1713024 1731519 1737807 1734281 1725299 
2497.551 1715552 1707369 1700683 1692300 1678330 1655911 1625845 1592089 
2501.408 1561861 1543173 1540912 1556540 1586103 1621688 1653018 1671311 
2505.266 1669682 1645634 1600869 1540512 1472983 1408290 1357367 1330379 
2509.123 1334234 1371061 1436447 1519797 1605658 1679261 1728592 1748685 
2512.981 1742265 1718346 1687976 1659770 1638417 1622253 1606689 1586868 
2516.838 1561029 1531634 1505067 1487546 1483190 1490704 1504469 1515175 
2520.696 1513945 1495791 1460283 1412745 1361555 1316985 1287673 1279963 
2524.553 1297410 1339918 1404667 1485385 1574464 1661998 1738539 1796560 
2528.410 1831763 1844440 1838983 1822579 1802915 1786912 1778694 1779925 
2532.268 1790272 1807773 1830731 1857052 1884605 1912027 1937521 1959754 
2536.125 1978360 1993705 2006587 2017738 2027591 2035481 2040575 2042239 
2539.983 2040608 2037079 2033650 2030954 2027492 2019469 2000129 1962716 
2543.840 1902609 1819751 1720309 1615036 1518234 1443927 1402240 1398152 
2547.698 1430297 1492500 1575062 1668019 1762458 1851461 1931330 2000162 
2551.555 2058152 2106128 2145651 2177918 2203227 2220378 2227172 2220278 
2555.412 2196433 2154608 2096505 2027958 1958023 1898183 1859547 1849931 
2559.270 1871660 1920614 1987447 2058518 2120678 2164265 2185211 2185311 
2563.127 2172357 2156706 2147449 2151045 2169560 2200363 2239162 2281095 
2566.985 2323166 2364208 2404454 2444405 2483225 2518784 2547545 2566710 
2570.842 2575676 2576476 2573543 2572343 2576643 2588009 2604342 2621309 
2574.699 2634276 2640543 2640243 2636443 2634009 2637410 2649011 2668680 
2578.557 2694018 2722124 2750700 2779677 2810424 2845409 2886400 2933433 
2582.414 2983774 3033387 3076698 3108367 3125287 3126155 3112439 3088211 
2586.272 3059013 3031385 3011232 3003025 3007896 3024111 3046267 3068089 
2590.129 3083106 3087243 3080336 3066287 3051906 3044565 3051072 3074897 
2593.987 3116010 3171212 3235667 3303638 3369616 3428958 3477552 3511789 
2597.844 3529026 3527656 3507814 3472342 3426386 3376060 3328078 3288313 
2601.701 3260003 3244480 3240307 3244647 3253593 3262741 3268516 3267848 
2605.559 3258868 3241843 3218543 3192774 3169876 3155024 3152855 3166038 
2609.416 3194543 3236201 3286344 3339163 3390119 3434935 3471908 3501568 
2613.274 3525919 3547832 3569647 3592031 3613547 3630319 3638071 3633460 
2617.131 3615752 3588122 3556852 3531097 3518436 3523915 3547699 3585616 
2620.989 3630252 3673791 3710282 3736884 3753862 3763153 3766395 3763521 
2624.846 3752959 3732138 3699655 3656482 3607433 3558556 3517768 3490913 
2628.703 3480926 3486871 3505175 3530963 3559825 3589091 3618625 3649565 
2632.561 3684116 3722848 3764858 3806872 3843541 3869081 3878977 3871656 
2636.418 3849425 3818270 3787352 3765793 3761515 3778461 3815663 3867911 
2640.276 3927154 3984767 4033256 4067671 4085799 4088174 4077002 4055363 
2644.133 4027872 3999213 3974568 3958384 3953736 3961159 3978881 4003259 
2647.990 4030280 4056935 4082822 4109614 4139920 4175781 4216664 4259224 
2651.848 4298208 4328225 4346197 4352556 4351485 4348473 4349543 4358580 
2655.705 4376084 4400451 4428735 4458528 4488256 4517985 4547784 4577149 
2659.563 4604139 4626208 4640742 4647005 4646569 4643321 4642149 4648043 
2663.420 4663784 4689707 4723202 4760184 4796096 4826551 4849502 4863809 
2667.278 4870377 4871013 4867897 4863206 4858381 4854159 4850172 4845146 
2671.135 4837607 4826852 4812747 4796934 4781624 4769530 4763031 4763299 
2674.992 4769999 4781724 4796365 4811541 4825144 4835530 4842030 4844677 
2678.850 4844409 4843236 4843136 4846218 4853355 4863876 4874967 4883076 
2682.707 4884953 4878586 4864580 4845749 4825914 4808425 4794756 4783734 
2686.565 4773081 4759983 4742932 4722499 4701028 4681334 4665358 4653401 
2690.422 4644326 4636857 4630896 4628150 4631934 4645096 4667870 4696540 
2694.280 4723604 4740219 4738510 4715297 4673228 4620782 4569113 4528498 
2698.137 4506100 4503153 4515240 4534625 4552806 4562550 4559905 4545138 
2701.994 4521969 4496893 4477341 4470680 4482028 4512963 4561010 4619878 
2705.852 4679927 4731577 4767587 4784840 4785811 4776666 4766113 4761758 
2709.709 4767822 4784405 4808057 4833486 4855633 4872488 4884718 4895609 
2713.567 4909884 4931667 4963371 5005166 5055178 5110559 5168027 5225201 
2717.424 5280303 5332996 5383381 5432027 5479370 5525276 5569306 5610589 
2721.281 5648351 5681853 5711329 5737215 5760650 5782644 5803731 5824148 
2725.139 5843693 5861895 5878284 5892525 5904012 5911569 5913517 5907236 
2728.996 5890342 5861123 5819480 5767399 5708912 5648620 5591894 5541787 
2732.854 5499738 5464741 5433437 5401698 5365065 5320216 5265914 5203437 
2736.711 5136644 5071872 5016092 4976140 4956199 4957170 4975335 5003255 
2740.569 5032350 5053233 5059301 5047501 5018640 4976241 4925903 4873426 
2744.426 4823301 4779346 4744037 4718580 4703507 4698282 4701296 4709938 
2748.283 4721259 4732548 4741927 4749163 4754757 4760318 4767152 4775929 
2752.141 4786381 4798140 4810368 4822531 4834123 4844778 4853590 4859587 
2755.998 4861564 4859520 4854562 4849770 4848229 4853724 4868333 4891755 
2759.856 4921647 4954824 4987770 5018439 5046261 5072240 5097250 5121656 
2763.713 5144187 5162126 5173258 5176209 5171313 5161925 5153140 5150022 
2767.571 5157163 5176645 5207796 5247536 5290868 5332425 5367547 5393512 
2771.428 5409783 5418641 5424143 5431692 5446857 5473901 5515309 5571622 
2775.285 5641168 5720864 5806988 5895380 5982479 6065061 6140365 6206808 
2779.143 6264052 6313133 6357075 6400014 6446588 6500937 6565350 6640102 
2783.000 6722976 6810780 6899613 6986543 7070258 7150823 7230595 7311729 
2786.858 7396956 7488402 7586915 7691925 7802156 7915081 8027428 8136663 
2790.715 8240152 8336910 8427305 8513123 8596592 8680720 8767704 8858966 
2794.573 8954508 9053625 9154693 9255886 9355512 9452553 9547549 9641957 
2798.430 9739298 9844390 9961950 10095751 10246589 10411870 10585022 
2801.805 10756953 10919063 11065261 11194030 11309030 11418449 11531943 
2805.180 11657788 11800829 11961389 12136046 12319977 12509340 12702846 
2808.556 12902444 13111425 13333214 13569133 13817153 14072261 14327999 
2811.931 14579159 14822373 15058417 15291157 15526494 15770273 16026841 
2815.306 16298320 16584253 16883154 17193222 17513726 17845924 18192098 
2818.681 18555662 18939776 19345918 19773976 20221340 20684384 21158498 
2822.057 21640408 22129060 22626780 23139086 23674212 24242374 24853132 
2825.432 25514224 26230666 27003928 27833180 28716512 29652940 30643832 
2828.807 31693872 32810528 34003508 35282712 36656864 38133548 39718148 
2832.182 41415624 43231456 45172552 47248096 49469596 51848176 54395268 
2835.558 57120168 60028720 63123576 66403844 69865696 73502152 77304048 
2838.933 81259488 85353504 89570648 93893224 98304712 102792568 107347912 
2842.308 111967920 116654208 121410680 126239048 131135416 136087216 
2845.201 141073248 146064720 151025728 155919744 160705696 165338576 
2848.094 169770048 173940784 177784160 181229536 184201008 186630800 
2850.987 188461792 189652464 190182640 190053072 189286144 187921808 
2853.880 186017280 183641248 180864160 177760912 174401296 170848864 
2856.773 167165472 163405984 159622720 155866560 152180544 148604288 
2859.667 145171536 141907696 138834384 135969152 133325456 130915656 
2862.560 128748224 126827552 125153320 123719576 122514448 121519984 
2865.453 120714784 120071944 119560808 119149528 118802440 118482968 
2868.346 118156600 117787096 117341760 116790424 116105176 115264144 
2871.239 114252240 113063272 111702112 110185600 108542296 106806568 
2874.132 105020320 103225496 101461504 99767512 98177792 96723344 95432392 
2877.507 94326136 93420312 92722408 92232000 91942216 91841448 91918016 
2880.882 92160392 92560536 93113464 93815696 94665112 95658608 96791280 
2884.258 98056928 99447776 100955032 102570120 104283528 106085776 107967720 
2887.633 109919384 111931344 113993904 116096816 118230152 120383368 
2890.526 122545648 124708360 126864240 129008576 131139992 133258624 
2893.419 135365200 137459712 139540576 141605392 143650944 145676080 
2896.312 147680880 149668016 151641776 153606544 155567088 157527760 
2899.205 159492336 161465936 163454096 165461712 167493824 169553888 
2902.098 171644016 173765584 175920928 178113200 180347232 182628304 
2904.991 184961184 187349968 189797552 192308272 194888672 197548080 
2907.884 200298176 203150000 206110304 209179328 212350912 215614096 
2910.777 218956896 222370656 225850992 229397456 233009728 236683872 
2913.670 240409456 244168896 247936896 251685120 255381344 258988864 
2916.563 262468720 265775200 268856736 271662080 274138528 276237632 
2919.457 277917472 279137536 279860128 280049984 279674592 278713376 
2922.350 277162880 275041536 272386880 269252800 265700544 261785712 
2925.243 257561328 253072080 248357024 243455680 238406880 233248944 
2928.136 228020624 222755616 217485264 212238864 207041776 201918416 
2931.029 196888672 191965328 187154192 182453728 177858864 173364960 
2933.922 168971680 164684752 160515776 156477360 152581312 148837008 
2936.815 145249264 141823088 138564656 135482416 132588592 129895944 
2939.708 127414432 125151904 123111992 121294880 119701296 118331824 
2942.601 117188272 116271912 115581520 115111176 114849272 114780552 
2945.494 114885960 115145992 115542864 116058768 116677400 117382040 
2948.387 118152288 118967120 119801352 120626816 121414888 122133504 
2951.280 122749776 123232552 123551624 123682744 123609672 123324584 
2954.173 122827936 122127048 121233024 120157664 118913840 117514184 
2957.066 115971128 114298368 112509304 110615400 108626920 106550248 
2959.959 104389872 102148912 99830096 97437000 94973056 92442992 89850880 
2963.335 87202208 84504216 81768728 79011056 76250472 73508112 70803480 
2966.710 68151480 65562428 63040056 60584272 58192616 55862736 53593832 
2970.085 51387960 49249240 47184156 45199796 43302292 41496404 39783468 
2973.460 38161544 36625140 35166720 33778576 32453402 31187154 29978016 
2976.836 28827042 27736042 26706578 25738820 24830714 23977370 23172426 
2980.211 22408532 21678128 20975548 20296916 19640870 19008348 18402358 
2983.586 17825936 17281618 16770354 16290821 15840063 15413770 15007892 
2986.961 14618909 14244928 13884815 13538367 13205756 12887051 12582632 
2990.337 12293117 12019669 11763822 11526329 11307296 11105063 10916686 
2993.712 10738272 10565466 10395512 10227015 10060516 9897979 9742077 
2997.087 9594970 9457937 9330798 9211852 9097880 8984951 8869043 8747553 
3000.945 8619135 8485078 8349239 8216379 8091156 7976970 7875063 7784075 
3004.802 7701436 7624815 7553063 7486616 7426851 7374442 7328240 7285143 
3008.659 7239388 7185284 7118959 7039377 6949372 6853663 6758379 6667658 
3012.517 6583852 6506823 6435625 6368440 6304157 6242135 6180962 6118387 
3016.374 6051486 5977407 5894842 5805678 5715089 5629889 5557124 5501115 
3020.232 5462090 5435718 5414849 5392204 5362582 5324510 5280101 5234222 
3024.089 5191466 5155185 5125847 5101172 5077236 5049848 5015255 4971682 
3027.947 4918664 4857443 4790468 4721427 4653971 4592218 4539514 4497931 
3031.804 4467734 4447347 4433857 4423346 4412467 4398677 4380536 4358647 
3035.661 4334484 4310388 4288102 4268995 4252532 4236605 4218103 4193178 
3039.519 4159590 4117007 4067805 4016903 3969753 3930799 3902146 3882320 
3043.376 3867276 3851832 3832142 3806705 3776923 3746141 3717601 3692738 
3047.234 3670917 3649131 3624539 3595271 3562364 3528792 3498629 3474780 
3051.091 3457513 3444721 3432598 3417770 3398801 3377196 3356226 3339330 
3054.948 3328312 3321934 3316091 3305641 3286611 3257533 3221013 3181625 
3058.806 3145579 3116744 3096988 3084741 3076465 3067989 3056644 3041095 
3062.663 3022510 3003125 2985509 2972164 2963557 2959687 2958620 2958219 
3066.521 2955584 2948044 2933667 2911650 2883465 2851646 2821129 2796418 
3070.378 2781811 2778677 2785613 2797685 2808223 2810624 2799952 2774975 
3074.236 2738462 2696885 2657512 2627709 2611908 2610308 2619709 2633476 
3078.093 2644844 2647344 2637343 2614375 2581042 2542013 2502054 2466031 
3081.950 2437374 2417082 2405154 2399890 2399124 2400156 2400423 2398157 
3085.808 2391894 2381832 2368339 2353148 2338323 2325365 2315371 2308143 
3089.665 2302580 2297117 2289656 2279530 2266906 2253750 2243292 2238762 
3093.523 2242592 2255449 2274867 2295918 2312373 2318403 2310441 2288856 
3097.380 2258080 2225607 2199098 2184345 2182880 2192204 2205025 2213451 
3101.238 2210654 2193769 2164132 2126505 2087283 2051028 2020734 1995768 
3105.095 1974133 1954262 1935890 1920913 1912693 1914224 1926904 1949170 
3108.952 1977328 2006021 2030255 2046633 2053658 2051594 2042173 2027691 
3112.810 2010748 1994204 1981322 1974599 1976063 1985683 2001327 2018337 
3116.667 2031753 2036879 2031753 2017638 1998098 1978060 1961884 1951067 
3120.525 1944743 1939950 1933394 1922877 1908267 1891594 1875554 1862309 
3124.382 1852892 1846437 1841945 1838784 1837685 1840647 1850164 1867667 
3128.240 1892692 1922144 1951167 1974732 1988945 1992373 1986548 1974832 
3132.097 1961884 1951433 1946041 1946141 1950667 1957324 1964413 1970072 
3135.954 1973101 1973167 1969939 1964014 1955959 1946940 1938253 1931430 
3139.812 1927769 1927802 1931330 1937055 1943212 1947239 1947139 1941415 
3143.669 1929932 1913991 1895953 1878815 1865238 1857251 1854789 1856353 
3147.527 1858582 1857784 1850995 1836654 1815791 1791702 1769511 1754041 
3151.384 1749384 1756936 1775467 1801651 1831264 1861111 1889264 1916087 
3155.241 1943412 1973334 2006487 2040941 2072101 2094275 2101733 2091212 
3159.099 2063479 2023630 1979758 1941115 1915289 1906436 1913558 1931330 
3162.956 1952498 1968707 1974166 1967010 1949403 1926404 1905072 1891660 
3166.814 1889830 1900047 1918717 1940449 1958922 1969107 1968973 1959887 
3170.671 1946573 1934226 1928901 1934059 1949536 1972868 1999530 2024562 
3174.529 2044503 2058785 2068473 2076463 2084620 2093742 2101799 2105096 
3178.386 2098803 2079825 2047099 2002992 1952930 1904340 1865504 1842976 
3182.243 1841312 1861943 1902676 1957790 2019536 2078860 2126838 2156107 
3186.101 2162234 2143886 2103597 2046933 1981655 1916354 1859148 1816191 
3189.958 1791037 1783218 1789307 1803680 1819152 1829966 1832561 1825873 
3193.816 1812065 1794531 1776365 1758998 1741899 1721906 1696092 1662198 
3197.673 1621289 1576958 1535757 1503738 1485717 1482758 1492533 1510520 
3201.531 1530703 1548626 1561595 1569176 1572934 1574697 1575595 1576359 
3205.388 1576127 1574397 1570806 1565618 1559899 1554512 1550987 1550122 
3209.245 1552284 1557538 1565751 1576127 1587300 1597410 1604227 1606057 
3213.103 1601767 1592189 1578986 1565485 1554379 1547462 1544536 1544370 
3216.960 1544602 1542940 1538085 1530404 1521293 1512948 1506963 1504403 
3220.818 1505101 1507628 1509988 1510055 1505400 1494228 1475477 1448947 
3224.675 1416534 1381831 1350188 1327687 1319544 1328717 1354010 1390938 
3228.532 1431427 1467730 1492865 1503904 1501776 1490970 1477239 1465403 
3232.390 1458388 1455463 1454100 1450842 1443395 1431959 1418961 1408157 
3236.247 1403803 1408091 1421720 1442896 1468894 1496257 1521958 1543239 
3240.105 1558203 1565352 1563291 1551818 1532033 1506132 1478103 1451872 
3243.962 1430463 1414673 1402805 1390938 1375150 1352813 1324131 1292326 
3247.820 1262384 1239489 1227294 1226031 1233508 1245902 1259426 1272121 
3251.677 1284051 1297344 1314625 1337059 1364513 1394396 1423050 1446387 
3255.534 1460815 1464672 1457690 1440203 1414340 1382462 1347728 1313795 
3259.392 1284383 1262683 1251019 1249856 1258263 1273649 1293090 1312731 
3263.249 1328983 1339186 1340183 1330711 1310604 1282223 1250155 1220383 
3267.107 1199417 1191675 1198520 1217492 1242945 1268233 1287507 1298175 
3270.964 1301265 1300202 1299471 1302030 1308843 1318348 1327753 1334932 
3274.822 1338954 1340881 1342676 1345701 1350121 1354941 1358497 1359627 
3278.679 1358530 1356935 1356835 1359926 1366042 1373188 1378606 1379570 
3282.536 1375283 1366740 1356868 1347928 1341945 1338754 1336760 1333869 
3286.394 1328351 1319478 1308444 1296446 1284682 1274281 1265508 1258496 
3290.251 1254243 1254375 1260290 1272951 1291794 1313495 1333569 1347828 
3294.109 1352780 1347894 1334999 1318148 1301498 1288969 1282655 1283353 
3297.966 1290664 1303791 1322103 1344471 1370097 1396889 1421620 1440968 
3301.823 1451773 1451872 1440636 1419992 1392800 1363117 1334533 1310538 
3305.681 1293156 1283419 1281093 1285147 1292990 1301697 1307812 1308477 
3309.538 1301930 1288271 1270359 1252315 1239854 1238857 1253079 1284317 
3313.396 1329947 1384423 1438674 1482957 1507894 1507528 1479699 1428103 
3317.253 1361389 1289866 1225732 1178452 1153667 1152305 1171873 1206660 
3321.111 1250188 1297078 1343175 1385952 1423482 1453734 1474380 1482525 
3324.968 1476242 1454964 1420590 1378141 1334467 1297078 1272519 1264378 
3328.825 1272320 1292027 1317484 1341214 1357600 1364247 1361821 1353877 
3332.683 1345003 1339319 1339253 1344205 1352248 1360458 1366541 1370164 
3336.540 1372324 1374717 1379404 1386451 1394961 1403071 1408789 1410883 
3340.398 1410085 1408257 1407925 1411216 1419194 1431061 1445456 1459818 
3344.255 1472385 1481661 1487213 1489008 1487147 1482027 1473582 1462178 
3348.113 1448681 1434020 1419626 1407160 1397620 1392335 1391902 1396789 
3351.970 1407094 1422551 1441666 1461912 1480364 1492965 1496589 1489075 
3355.827 1470523 1443129 1410152 1376246 1345368 1320441 1303392 1295017 
3359.685 1295616 1305021 1323566 1351052 1386717 1428801 1474346 1519864 
3363.542 1561428 1595880 1621488 1638483 1648893 1655512 1661699 1670014 
3367.400 1681257 1694629 1707568 1717182 1719810 1712358 1693664 1663695 
3371.257 1624382 1579751 1535093 1496390 1469393 1458388 1464439 1485518 
3375.115 1516140 1548925 1576260 1592355 1595149 1586502 1570972 1554279 
3378.972 1541044 1532532 1527312 1520795 1509091 1489374 1461946 1430662 
3382.829 1401509 1380335 1371360 1375814 1391803 1415304 1441201 1465270 
3386.687 1484686 1498185 1505732 1507960 1506298 1502441 1498584 1496988 
3390.544 1499581 1507062 1518567 1530504 1538185 1537453 1524818 1500911 
3394.402 1468562 1434286 1404866 1385720 1378906 1382595 1390373 1393830 
3398.259 1385853 1362120 1324230 1278667 1235933 1207590 1201776 1222044 
3402.116 1264776 1321771 1381166 1432424 1468994 1489673 1497919 1499349 
3405.974 1499116 1498983 1497520 1490438 1473449 1445090 1407692 1367239 
3409.831 1332240 1310471 1306151 1319478 1347030 1381997 1417897 1449080 
3413.689 1472551 1487213 1492998 1490571 1480730 1464073 1442098 1416135 
3417.546 1388578 1362253 1339652 1322701 1312731 1310139 1314492 1324230 
3421.404 1337491 1351318 1362885 1369998 1371560 1368269 1362253 1356968 
3425.261 1355306 1358497 1366208 1376246 1385520 1392035 1395393 1397454 
3429.118 1400877 1407858 1418728 1431128 1440968 1443328 1435616 1417498 
3432.976 1392069 1363981 1338488 1319411 1307879 1303359 1303691 1307414 
3436.833 1313130 1320741 1330578 1342277 1354475 1365477 1373089 1375981 
3440.691 1374551 1370330 1366009 1364347 1367438 1375881 1389010 1405332 
3444.548 1422917 1439605 1453534 1462611 1465436 1461380 1451074 1436680 
3448.406 1421720 1409786 1403636 1404866 1412944 1426341 1441999 1457424 
3452.263 1470390 1479766 1485351 1487313 1486149 1482326 1476441 1470290 
3456.120 1465669 1464938 1469625 1479633 1492101 1502042 1504203 1493896 
3459.978 1469326 1433355 1392767 1356603 1333636 1329814 1345734 1376911 
3463.835 1414905 1450941 1477139 1489008 1485684 1469459 1445024 1416833 
3467.693 1389542 1366607 1350653 1343839 1347728 1362851 1387947 1420357 
3471.550 1454831 1485750 1508060 1518268 1515907 1503239 1484221 1463176 
3475.407 1443229 1425443 1408756 1391105 1370463 1345568 1317218 1287573 
3479.265 1259725 1237495 1224669 1223739 1236531 1263248 1302196 1349589 
3483.122 1400113 1447584 1485584 1509456 1516406 1506597 1483024 1451141 
3486.980 1417099 1386218 1361987 1345036 1333304 1323532 1312133 1297111 
3490.837 1278202 1257200 1237495 1222875 1216827 1221778 1238093 1264511 
3494.695 1297842 1334134 1369266 1399415 1422418 1436779 1442198 1439073 
3498.552 1428601 1411880 1390673 1367737 1345967 1328584 1318680 1317949 
3502.409 1326258 1341048 1358763 1375283 1387681 1394961 1397254 1396124 
3506.267 1393033 1389243 1385288 1381166 1376512 1370862 1363948 1355306 
3510.124 1344803 1332207 1317683 1302096 1287308 1275610 1269429 1270060 
3513.982 1277139 1288371 1299537 1306350 1305320 1295084 1277006 1254675 
3517.839 1232976 1215930 1206294 1204467 1208786 1216960 1226496 1235468 
3521.697 1242479 1246799 1247962 1245370 1239024 1229919 1219917 1212009 
3525.554 1209052 1213372 1225333 1243044 1262450 1278302 1285945 1282223 
3529.411 1267202 1243509 1214800 1185429 1159448 1138518 1123569 1114068 
3533.269 1109085 1107624 1109152 1113769 1121676 1133402 1148883 1166657 
3537.126 1185263 1201842 1213505 1218256 1215465 1204999 1189283 1171275 
3540.984 1154066 1140113 1130379 1124300 1119815 1115098 1108853 1101877 
3544.841 1096396 1095200 1100150 1110879 1124532 1137090 1145794 1149913 
3548.698 1151375 1154132 1162272 1178319 1202141 1230218 1256735 1276142 
3552.556 1284981 1284250 1278568 1273782 1274181 1281027 1292492 1304157 
3556.413 1311368 1310870 1302063 1286610 1267734 1248195 1229886 1212906 
3560.271 1196260 1178751 1160877 1144299 1132173 1127522 1132838 1149016 
3564.128 1175295 1209252 1247098 1283885 1313030 1328584 1326125 1306317 
3567.986 1272885 1232743 1192074 1154764 1122871 1096928 1076233 1060456 
3571.843 1050027 1046373 1052285 1070421 1102010 1146192 1198952 1253378 
3575.700 1301664 1337059 1355107 1354442 1336660 1305619 1265807 1222443 
3579.558 1181077 1146358 1122772 1113603 1120114 1141774 1176359 1220748 
3583.415 1271921 1328518 1390673 1458621 1531734 1604660 1665690 1700184 
3587.273 1694263 1645867 1566915 1479134 1403038 1351185 1327354 1327520 
3591.130 1342776 1361987 1375615 1377210 1365444 1343607 1319511 1300867 
3594.988 1292591 1295749 1307547 1323333 1338455 1350121 1356270 1356569 
3598.845 1351916 1343341 1333137 1323466 1316088 1311634 1309308 1306317 
3602.702 1300036 1288637 1272619 1254675 1239256 1231913 1236930 1256203 
3606.560 1288039 1327454 1366840 1399614 1422584 1436912 1446653 1455496 
3610.417 1465270 1475543 1482991 1484021 1475676 1457790 1432491 1404468 
3614.275 1378174 1356170 1339087 1325593 1314127 1303259 1292857 1284184 
3618.132 1279863 1283021 1294918 1314725 1338356 1359993 1374019 1376446 
3621.990 1365311 1340981 1306250 1264943 1222542 1184299 1154299 1135794 
3625.847 1129981 1137588 1158983 1194865 1243277 1297078 1342444 1364413 
3629.704 1356669 1323599 1276607 1226463 1182771 1152870 1140545 1146093 
3633.562 1164863 1188353 1206494 1211611 1201576 1178153 1147123 1115297 
3637.419 1089653 1075170 1074573 1088623 1116294 1155262 1202241 1253179 
3641.277 1302595 1344903 1376147 1395226 1403703 1406794 1410584 1419992 
3645.134 1437743 1462544 1488543 1505500 1501975 1469792 1409487 1332107 
3648.991 1255239 1196227 1163302 1154066 1159714 1171275 1183734 1196227 
3652.849 1210082 1227294 1249358 1275809 1303359 1326324 1337890 1333004 
3656.706 1311701 1279132 1242945 1209783 1184332 1169614 1166226 1174166 
3660.564 1191841 1216761 1244473 1270359 1288670 1293954 1282555 1253412 
3664.421 1208853 1154365 1097824 1047768 1011599 995060 1000673 1028172 
3668.279 1072812 1126891 1179648 1220981 1245935 1257499 1263314 1270692 
3672.136 1285214 1310405 1347861 1397487 1455895 1512848 1550521 1552783 
3675.993 1516339 1453302 1380102 1308809 1245669 1192838 1151010 1120214 
3679.851 1099386 1087029 1081382 1080385 1082345 1086065 1090218 1093705 
3683.708 1096164 1097492 1098954 1102508 1110813 1126858 1152139 1185661 
3687.566 1223705 1258164 1279598 1281824 1265042 1235103 1201610 1172704 
3691.423 1153202 1144332 1144697 1151541 1162172 1174598 1188020 1202706 
3695.281 1219652 1239987 1264610 1292824 1322236 1349058 1368402 1375183 
3699.138 1365577 1338090 1294818 1243111 1193503 1157521 1142804 1149913 
3702.995 1173269 1204135 1234671 1259692 1276407 1284084 1282156 1269894 
3706.853 1245636 1208055 1156757 1094171 1027109 965172 920743 903875 918086 
3711.192 957501 1009540 1060456 1100714 1128917 1147256 1159681 1168086 
3715.050 1172206 1170046 1160112 1142339 1119417 1096861 1081448 1078924 
3718.907 1091115 1115430 1145761 1174830 1196626 1208986 1214435 1218921 
3722.765 1228091 1244971 1267668 1289468 1301199 1294320 1264776 1215199 
3726.622 1155029 1097559 1054876 1033984 1036641 1060223 1100017 1149282 
3730.479 1200712 1247464 1282954 1303392 1308710 1302063 1287075 1266139 
3734.337 1238924 1203105 1158019 1107059 1058064 1019869 998547 995824 
3738.194 1009673 1036741 1071849 1109916 1147521 1183602 1220050 1262417 
3742.052 1318647 1396955 1502308 1629071 1754141 1844607 1875986 1848933 
3745.909 1782653 1697988 1607387 1518068 1433289 1355273 1288504 1239721 
3749.767 1214900 1216827 1241017 1275444 1304323 1315323 1302860 1268698 
3753.624 1219851 1165129 1113703 1072879 1049096 1046738 1066966 1107358 
3757.481 1161707 1221213 1276274 1319876 1348526 1363383 1369000 1371527 
3761.339 1376745 1388213 1407193 1432591 1461414 1488111 1506231 1509556 
3765.196 1495193 1466101 1429765 1395825 1372657 1364945 1372790 1392268 
3769.054 1414440 1429233 1429000 1412379 1384756 1355473 1334201 1326623 
3772.911 1335264 1357866 1389177 1421687 1447983 1462544 1463109 1451241 
3776.769 1431228 1409387 1391969 1383559 1385022 1393864 1403437 1406861 
3780.626 1399913 1381332 1352847 1317949 1280694 1245138 1214634 1192174 
3784.483 1179316 1176425 1182306 1195729 1214468 1236066 1257898 1276773 
3788.341 1290232 1296214 1294818 1288404 1281425 1278867 1285546 1304057 
3792.198 1334766 1375482 1422651 1471521 1518035 1557371 1584673 1596113 
3796.056 1589362 1565984 1531900 1496190 1467365 1452803 1457291 1482093 
3799.913 1524153 1573932 1616001 1633794 1620224 1581580 1533397 1489042 
3803.771 1455696 1435483 1426341 1423981 1423582 1421288 1415238 1406894 
3807.628 1399681 1396756 1398817 1404966 1413077 1421388 1428335 1434020 
3811.485 1439406 1446088 1456028 1470989 1491768 1518467 1549191 1579286 
3815.343 1601966 1609881 1598740 1570207 1529772 1484055 1438774 1398916 
3819.200 1368967 1353910 1357068 1377310 1408523 1439971 1464273 1480397 
3823.058 1491801 1503073 1518201 1539083 1564787 1591623 1613373 1623650 
3826.915 1617397 1593885 1555376 1507062 1454997 1404800 1363018 1335464 
3830.772 1326989 1339785 1371261 1413709 1456959 1490737 1506796 1501244 
3834.630 1474380 1430995 1378440 1326357 1284483 1260357 1257765 1276972 
3838.487 1314293 1364280 1420690 1477738 1530105 1573566 1603862 1618063 
3842.345 1615236 1597177 1568179 1534560 1502374 1475477 1454964 1439572 
3846.202 1426441 1413709 1399614 1384423 1368768 1353445 1338522 1323266 
3850.060 1305719 1283785 1256535 1226065 1198952 1189283 1212242 1272985 
3853.917 1360558 1455031 1540213 1609216 1660967 1696125 1715818 1721373 
3857.774 1713988 1696159 1670014 1638450 1604327 1569908 1537653 1509822 
3861.632 1488310 1474978 1470423 1473947 1483057 1493763 1501510 1503771 
3865.489 1500479 1494627 1490239 1490471 1496955 1508891 1522856 1532200 
3869.347 1531302 1517569 1494860 1470922 1451839 1438940 1429233 1417099 
3873.204 1397254 1367937 1333137 1301265 1282389 1283054 1304356 1343474 
3877.062 1395559 1455729 1518866 1581281 1639082 1687677 1722405 1738372 
3880.919 1733848 1710529 1673673 1630501 1587101 1548160 1515641 1488676 
3884.776 1463242 1434319 1399249 1359627 1321040 1289833 1270592 1265508 
3888.634 1274480 1295749 1326723 1363583 1402839 1441533 1477239 1508825 
3892.491 1534627 1552716 1561728 1560763 1550056 1532067 1510620 1490438 
3896.349 1476308 1472850 1482725 1507329 1544237 1588265 1632397 1668484 
3900.206 1690437 1696258 1688275 1672176 1656577 1649891 1656810 1677498 
3904.063 1705905 1731320 1742797 1734114 1704109 1657874 1602897 1548393 
3907.921 1503139 1473349 1462079 1468329 1487712 1513047 1536157 1550422 
3911.778 1551619 1539182 1516206 1487579 1459120 1436148 1423249 1423615 
3915.636 1438441 1467032 1506264 1550422 1592455 1625512 1643705 1644470 
3919.493 1627674 1597210 1558835 1519697 1485784 1461115 1447251 1443794 
3923.351 1449246 1461846 1479899 1502640 1529340 1558103 1587101 1613140 
3927.208 1633361 1645501 1648860 1644470 1634925 1623816 1614338 1608185 
3931.065 1605591 1604460 1602432 1597476 1588298 1574896 1558236 1539581 
3934.923 1520462 1502574 1488576 1480597 1480431 1489175 1506331 1530005 
3938.780 1557471 1586402 1615502 1644137 1671943 1698121 1720475 1736010 
3942.638 1741799 1737341 1724500 1708333 1694263 1686546 1687045 1694994 
3946.495 1707302 1719244 1727893 1732218 1733715 1735877 1741732 1751280 
3950.353 1762259 1769578 1767881 1753376 1725631 1686945 1642907 1600137 
3954.210 1564554 1541144 1532100 1537719 1555642 1582478 1613839 1644237 
3958.067 1669382 1685348 1690304 1684550 1670979 1654747 1641643 1637219 
3961.925 1644736 1664193 1691502 1720475 1743728 1755372 1752012 1734513 
3965.782 1707103 1675802 1647230 1626311 1614205 1609216 1607387 1605126 
3969.640 1600669 1595880 1595315 1604294 1626311 1661366 1704574 1748419 
3973.497 1784649 1806641 1812897 1806043 1791569 1775566 1761992 1751114 
3977.354 1741034 1728625 1711859 1691302 1670247 1652818 1642840 1642109 
3981.212 1649226 1660535 1671478 1677930 1677764 1671079 1659470 1645634 
3985.069 1632497 1622253 1617032 1618029 1626111 1641377 1663029 1689639 
3988.927 1718745 1748120 1775167 1797824 1814926 1825241 1828103 1823211 
3992.784 1811133 1793632 1773703 1755439 1742132 1736642 1739038 1747321 
3996.642 1758067 1767715 1774036 1776864 1777529 1778361 1780923 1785414 
4000.499 1790106 
##END=
