##TITLE=masinsko_2 25.08. 11:00:19 2026
##JCAMP-DX=5.01  $$ Nicolet v. 970
##DATATYPE=INFRARED SPECTRUM
##ORIGIN=Vojna akademija
##OWNER=Nicolet
##LONGDATE=2026/08/25
##TIME=11:00:54
##SPECTROMETER/DATA SYSTEM=Nicolet iS20
##DATA PROCESSING=
Ratio against background
%Transmittance->Absorbance
Truncated
ElementMultiply or ElementDivide
##COMMENTS=
Number of sample scans: 8
Collection length: 11,90 sec
Sample gain: 8,0
Background collected on: Tue Aug 25 10:50:12 2026 (GMT+02:00);
Number of background scans: 8
Background gain: 8,0
Sample spacing:  1,000
Number of scan points: 12415
Resolution points: 8286
Number of FFT points: 65536
Apodization: N-B strong;
Phase correction: Mertz;
Laser frequency: 15798,00 cm-1
Number of rejected sample scans: 0
Number of rejected background scans: 0
Bench serial number: BER2010005;
##RESOLUTION= 4,000
##XUNITS=1/CM
##YUNITS=ABSORBANCE
##FIRSTX=400.156891
##LASTX=4000.123047
##FIRSTY=0.003950
##MAXX=4000.123047
##MINX=400.156891
##MAXY=0.264955
##MINY=-0.008363
##XFACTOR=1.000000
##YFACTOR=1.000000E-009
##NPOINTS=7468
##DELTAX=0.482117
##ZPD=6100
##XYDATA=(X++(Y..Y))
400.157 3950359 3234499 2510319 1910729 1550089 1461214 1571671 1712691 
404.014 1682388 1320674 570147 -478622 -1620012 -2609106 -3276822 -3572916 
407.871 -3561874 -3365044 -3106313 -2862011 -2644148 -2427362 -2180601 
411.246 -1891803 -1567984 -1212568 -805139 -292574 381739 1246500 2265674 
415.103 3341667 4323038 5040730 5345877 5140768 4431480 3375459 2297650 
418.959 1542341 1286909 1470490 1910995 2452368 3016571 3579102 4111353 
422.816 4552873 4814188 4808224 4516612 4026033 3521743 3205624 3230793 
426.673 3642448 4365374 5220506 5980934 6456610 6528585 6194608 5548633 
430.530 4752110 3967646 3313253 2828733 2464364 2095939 1559001 708519 
434.387 -551894 -2209677 -4123771 -6008453 -7516995 -8356601 -8362646 
437.762 -7553760 -6092756 -4239515 -2267067 -438903 1025515 1989977 2393260 
441.619 2264242 1704907 891657 32273 -676897 -1077242 -1093701 -732538 
445.476 -75737 746919 1574730 2253051 2682349 2830301 2743264 2510219 
449.333 2239662 2024662 1933993 2019236 2308542 2802921 3464159 4214624 
453.190 4939944 5516786 5851282 5885539 5612402 5065167 4315375 3457012 
457.047 2597109 1846770 1292060 982441 929210 1117224 1517603 2086484 
460.904 2766005 3468501 4088876 4530909 4727657 4673262 4418057 4048708 
464.761 3649498 3290116 3015737 2846743 2788147 2830367 2952882 3120281 
468.617 3285075 3394961 3397466 3259169 2972097 2568443 2113220 1701814 
472.474 1434519 1381332 1568811 1974998 2546046 3211566 3897365 4528732 
476.331 5022897 5308577 5335210 5091349 4611071 3962697 3226387 2465131 
480.188 1725066 1035977 427540 -52613 -336842 -350615 -35253 616929 1539714 
484.527 2583176 3558723 4273981 4602197 4520998 4106537 3501701 2860984 
488.384 2322367 1960086 1779426 1721540 1695094 1605159 1384889 1019404 
492.241 545165 38238 -418844 -754435 -932351 -952386 -840261 -635443 -380609 
496.580 -115788 130136 339955 511824 657545 800228 969224 1190213 1476807 
500.919 1819119 2179084 2494256 2702853 2767706 2694484 2531515 2354747 
504.776 2243192 2247988 2379000 2597309 2828633 2981906 2988345 2824064 
508.633 2514251 2117082 1700017 1318780 1002367 759034 584811 476198 439679 
512.972 491291 650145 930306 1331476 1836055 2407986 3001790 3567943 4060614 
517.311 4446042 4700995 4813987 4784405 4626107 4367115 4046065 3711051 
521.168 3406582 3168074 3020308 2973065 3024245 3159730 3354756 3572721 
525.025 3768835 3899504 3929662 3846550 3662831 3411157 3128825 2845175 
528.882 2576009 2323666 2085885 1866169 1679760 1553448 1516605 1586934 
532.739 1760762 2010248 2290922 2551712 2754835 2886000 2955417 2989546 
536.596 3018506 3061883 3122517 3189202 3242744 3265478 3243812 3167774 
540.453 3031085 2826899 2551778 2211686 1829234 1441766 1100382 858356 
544.310 755815 813838 1026777 1365876 1782553 2223475 2639043 2988044 
548.167 3242477 3385444 3411925 3331283 3168241 2961222 2750366 2571876 
552.024 2445837 2373870 2342088 2329829 2316637 2287991 2237364 2163000 
555.881 2064178 1941614 1799621 1651787 1522790 1449346 1468129 1605059 
559.738 1864938 2227272 2650011 3077800 3462255 3768334 3981791 4106503 
563.594 4156914 4146978 4086468 3979717 3828499 3636434 3412026 3167340 
567.451 2918856 2685416 2485225 2336358 2251752 2234632 2275267 2348650 
571.308 2421047 2455167 2426445 2331428 2193336 2054057 1963315 1961152 
575.165 2060615 2242926 2462132 2666113 2811224 2880730 2882998 2841140 
579.022 2776076 2693951 2582076 2415583 2169992 1837286 1434319 1003330 
582.879 603425 291445 114924 95270 224375 465849 769689 1086099 1375681 
587.218 1620258 1818054 1977228 2106261 2205925 2266540 2272802 2213185 
591.075 2091511 1933826 1787244 1701847 1712891 1823977 2003890 2194935 
594.932 2332827 2374036 2308609 2168660 2012279 1908000 1901744 2001993 
598.789 2176786 2367007 2508386 2555378 2501587 2378734 2244891 2157372 
602.646 2159137 2262276 2447104 2668680 2873925 3016204 3065920 3018039 
606.503 2888802 2708821 2510885 2321867 2156240 2014176 1885670 1759431 
610.360 1630468 1505134 1400312 1336727 1331675 1388811 1496955 1630667 
614.217 1760795 1858749 1904706 1891028 1819518 1699618 1544669 1373089 
618.074 1205863 1067531 982374 966899 1023688 1137223 1277271 1404767 
621.931 1485019 1499847 1451473 1361356 1258496 1171010 1112906 1082810 
625.788 1067996 1052949 1026611 985496 931966 869877 800725 723852 640721 
630.127 559231 494641 467839 496034 584513 721927 883356 1036077 1152272 
634.466 1218555 1237860 1225068 1195828 1160544 1119516 1067464 1003529 
638.323 937279 892819 903311 997219 1189416 1470390 1809503 2160102 2474295 
642.662 2716890 2869156 2930865 2916454 2848010 2747665 2635310 2525449 
646.519 2425345 2335525 2248621 2152377 2032685 1880279 1697223 1501011 
650.375 1321505 1195629 1158019 1227460 1400811 1650290 1930997 2187808 
654.232 2371837 2453101 2424679 2304978 2128936 1940183 1774402 1652087 
658.089 1573466 1523953 1481395 1429067 1365843 1307979 1283885 1320342 
661.946 1432524 1613673 1836854 2062613 2259279 2412651 2532814 2649078 
665.803 2801787 3026313 3332719 3673657 3930531 3962931 3706205 3229058 
669.660 2666446 2135595 1697722 1378972 1184200 1105033 1122174 1204899 
673.517 1316320 1414207 1463674 1444093 1353046 1207358 1040162 895475 
677.374 812344 820311 932464 1145561 1443029 1799056 2185211 2568510 2917655 
681.713 3203989 3402041 3495489 3479790 3367111 3183661 2966059 2751200 
685.570 2565143 2420947 2318669 2252484 2215816 2206457 2226939 2278564 
689.427 2359244 2461132 2572076 2683282 2793116 2910183 3049403 3226354 
693.284 3448462 3711518 3999012 4288938 4562249 4806549 5019042 5202599 
697.141 5358054 5480746 5560245 5586625 5559406 5492960 5417131 5367949 
700.998 5380731 5475042 5652312 5895615 6178677 6473459 6759557 7028130 
704.855 7278977 7516349 7743125 7959287 8163503 8356062 8543940 8740183 
708.712 8963574 9236188 9577559 10003143 10521096 11130286 11819862 12570012 
712.569 13356653 14152629 14938339 15707126 16470462 17255348 18098058 
715.943 19031922 20072548 21213050 22421162 23652520 24856254 25991252 
719.318 27031748 27962602 28771420 29440458 29941876 30244290 30323054 
722.693 30168738 29791352 29218334 28487400 27635536 26702492 25726130 
726.068 24744030 23797466 22924562 22156918 21515710 21006290 20618780 
729.443 20332262 20120996 19959368 19827244 19711422 19602078 19491204 
732.817 19370170 19228530 19057366 18851564 18612204 18347502 18072426 
736.192 17806224 17567614 17370790 17220698 17110154 17018588 16918086 
739.567 16780650 16585251 16326461 16016390 15681671 15352391 15053683 
742.942 14796044 14574054 14369986 14162420 13936614 13688458 13426091 
746.317 13165896 12927055 12725705 12574037 12480695 12450517 12485811 
749.692 12583246 12732119 12909613 13083047 13214876 13267721 13215832 
753.066 13051769 12788523 12455258 12091072 11738120 11429708 11189678 
756.441 11027500 10938499 10905948 10906662 10917025 10916379 10894023 
759.816 10848294 10786877 10720374 10657888 10602541 10550665 10493329 
763.191 10422628 10335890 10238074 10140383 10055328 9993277 9957474 9944863 
767.048 9947405 9957711 9970290 9982732 9995074 10005686 10010229 10001923 
770.905 9972595 9916183 9830596 9719917 9591921 9458479 9333134 9229418 
774.762 9159870 9134221 9155810 9219501 9309809 9404198 9474496 9495764 
778.619 9450588 9332592 9146673 8906075 8629207 8333532 8037046 7757899 
782.475 7512978 7318738 7186429 7116972 7100065 7116636 7144760 7166487 
786.332 7174504 7170697 7161771 7151228 7133375 7094305 7018633 6899006 
790.189 6745759 6585669 6456038 6386597 6387202 6440367 6510085 6553712 
794.046 6541669 6469524 6359026 6246001 6160495 6116404 6103669 6100442 
797.903 6085792 6056862 6034150 6055451 6156361 6356672 6648211 6999742 
801.760 7366085 7707406 8001405 8245014 8446731 8614065 8744240 8823019 
805.617 8832623 8764322 8627686 8452508 8280474 8148142 8079341 8076641 
809.474 8126130 8206519 8301852 8406900 8527484 8672641 8845000 9033157 
813.331 9212496 9348571 9408702 9373794 9242720 9034240 8780213 8520320 
817.188 8289322 8109858 7988952 7918556 7879752 7850332 7814605 7766230 
821.045 7709632 7654828 7611934 7583239 7562301 7535194 7488537 7417380 
824.902 7328307 7237367 7164196 7121081 7106363 7104847 7094036 7055609 
828.759 6983816 6889580 6794087 6720419 6679131 6664529 6655881 6629067 
832.616 6567032 6469726 6353478 6244152 6164057 6120302 6102123 6086766 
836.473 6050613 5981640 5886715 5789661 5722509 5710356 5762799 5868881 
840.329 6002939 6132098 6229463 6282070 6291617 6270875 6237328 6208086 
844.186 6194473 6203985 6240858 6308493 6409765 6544596 6708473 6888234 
848.043 7062647 7206540 7294106 7308224 7245115 7118656 6956577 6797957 
851.900 6683809 6643736 6691985 6820474 7004087 7203913 7379902 7499526 
855.757 7542409 7503976 7391934 7223419 7017556 6795265 6577864 6384243 
859.614 6233194 6139457 6110288 6144498 6232421 6358656 6504704 6654637 
863.471 6796577 6922943 7030083 7115019 7175649 7210381 7219174 7204485 
867.328 7170327 7119970 7053622 6968193 6858846 6724221 6571338 6417735 
871.185 6288121 6209430 6200994 6268052 6400720 6576552 6770427 6958395 
875.042 7126504 7268667 7385396 7478525 7548950 7596794 7623264 7634224 
878.899 7639518 7649399 7671083 7703730 7738672 7761575 7760192 7728182 
882.756 7668891 7592276 7511427 7437435 7377240 7335519 7317423 7329992 
886.613 7380306 7470704 7591602 7718334 7815549 7845710 7781511 7619083 
890.470 7381722 7115355 6871301 6695787 6614668 6629437 6720385 6857332 
894.327 7009609 7151093 7265735 7343708 7378857 7367938 7310347 7211695 
898.183 7083527 6943143 6808088 6690404 6593473 6511935 6435390 6353444 
902.040 6262371 6167048 6079811 6014092 5981405 5985604 6022693 6082768 
905.897 6153471 6225228 6292592 6355697 6418912 6489300 6573255 6674690 
909.754 6793144 6922808 7052544 7167801 7253875 7299193 7298452 7255391 
913.611 7181982 7095147 7014054 6956846 6936241 6959169 7024998 7126066 
917.468 7246160 7363557 7455098 7498111 7478761 7395776 7262602 7104376 
921.325 6952705 6838650 6782576 6793245 6866420 6989035 7142638 7307954 
925.182 7469019 7611799 7725720 7804990 7848307 7860386 7851884 7836364 
929.039 7825399 7825366 7835049 7847261 7853605 7849758 7838524 7829617 
932.896 7833496 7855460 7890415 7924495 7938432 7917578 7859239 7775641 
936.753 7690677 7628289 7606269 7625861 7672769 7721032 7744946 7727946 
940.610 7668554 7580239 7487155 7416773 7389945 7418122 7499493 7621140 
944.467 7760530 7891933 7991955 8042954 8039240 7988142 7910255 7832889 
948.324 7784547 7786402 7845743 7955170 8094667 8239679 8365249 8454502 
952.181 8501094 8507919 8484706 8444298 8400381 8363425 8340726 8334039 
956.037 8339105 8346502 8343834 8320529 8271321 8199665 8118534 8048118 
959.894 8007683 8012003 8067290 8169648 8308471 8469299 8638501 8802427 
963.751 8948454 9063741 9133916 9147384 9098860 8993544 8848448 8689644 
967.608 8547252 8444535 8395685 8401799 8454670 8539885 8643538 8754518 
971.465 8863463 8962085 9040904 9088237 9094868 9056400 8976360 8865695 
975.322 8741231 8619034 8509981 8418724 8343801 8280000 8221748 8164449 
979.179 8104321 8037621 7960468 7869799 7766702 7657863 7557446 7482536 
983.036 7447244 7457356 7505224 7570764 7625422 7642857 7605831 7512034 
986.893 7373769 7214221 7061233 6938194 6862987 6844709 6883959 6973748 
990.750 7100873 7246194 7384890 7492447 7547028 7537521 7466761 7353413 
994.607 7226384 7115760 7045338 7024425 7046583 7093295 7143211 7180770 
998.464 7201588 7213042 7229652 7265263 7324432 7400191 7475154 7529396 
1002.321 7546556 7522417 7465446 7395709 7335620 7304214 7310347 7351324 
1006.178 7415863 7488739 7558154 7617228 7664743 7702414 7731555 7750478 
1010.035 7755706 7743765 7715231 7676850 7642182 7625995 7642013 7696748 
1013.891 7787887 7905295 8033604 8157224 8261258 8334445 8368593 8357581 
1017.748 8298306 8191460 8044068 7869192 7684640 7510179 7361063 7246194 
1021.605 7167463 7122327 7107945 7124348 7173796 7257750 7371982 7502628 
1025.463 7625793 7714792 7745519 7706023 7602560 7458300 7307213 7183970 
1029.320 7117983 7124854 7206709 7352301 7542275 7749972 7944101 8095004 
1033.177 8174240 8162423 8054599 7864300 7622354 7370365 7153720 7006141 
1037.035 6943581 6961762 7040454 7148904 7256335 7340338 7388226 7397326 
1040.892 7372353 7322040 7255998 7184172 7116029 7058606 7016108 6988597 
1044.750 6972772 6963748 6958429 6957722 6966947 6993143 7040421 7106430 
1048.607 7180062 7244812 7282346 7282043 7244475 7184172 7124483 7092251 
1052.464 7108114 7180803 7304315 7458873 7617431 7749837 7831136 7845305 
1056.322 7787280 7663360 7489986 7291107 7091543 6915098 6778639 6688519 
1060.179 6642659 6631859 6643332 6663486 6681890 6692086 6692120 6684380 
1064.037 6674353 6670215 6680174 6709920 6760465 6825691 6892004 6942537 
1067.894 6961055 6937487 6872177 6775812 6667590 6566696 6487584 6435726 
1071.752 6407310 6391103 6374862 6348670 6307014 6249564 6180089 6104945 
1075.609 6032436 5972972 5937668 5935955 5972267 6041978 6131056 6216421 
1079.466 6272658 6279414 6226236 6118286 5973174 5817398 5676415 5570381 
1083.324 5508967 5490309 5503027 5528430 5546116 5536652 5487189 5395962 
1087.181 5275238 5149888 5052496 5016294 5060608 5185229 5366541 5565917 
1091.039 5736341 5838756 5853230 5781065 5642611 5467157 5285769 5121690 
1094.896 4989714 4899228 4855366 4860626 4913336 5005166 5118908 5231874 
1098.754 5322363 5374994 5388380 5374290 5352753 5341784 5350908 5376370 
1102.611 5406261 5426357 5428907 5417098 5402805 5399182 5412031 5435383 
1106.468 5452763 5444173 5395492 5305826 5189923 5073515 4981972 4935923 
1110.326 4942927 4998998 5091651 5206287 5329373 5450615 5561084 5652816 
1114.183 5717540 5748932 5745373 5711564 5657482 5595821 5537592 5487860 
1118.041 5446622 5410656 5377443 5349566 5335478 5346145 5391500 5474035 
1121.898 5586725 5713008 5832644 5925408 5978314 5988694 5962827 5912913 
1125.755 5852559 5793691 5743258 5703406 5673293 5651306 5637744 5635999 
1129.613 5652447 5694510 5767366 5871635 6000251 6140600 6276254 6390598 
1133.470 6472954 6521118 6542342 6549507 6557445 6577326 6612784 6660996 
1137.328 6714665 6767936 6818825 6871571 6933615 7012134 7109327 7220521 
1141.185 7334912 7441109 7530104 7600537 7658167 7713544 7776856 7853301 
1145.043 7940963 8032355 8117893 8190414 8249101 8299217 8350353 8411224 
1148.900 8486058 8571549 8658106 8731663 8778421 8790729 8767501 8716011 
1152.757 8649216 8582972 8530931 8502445 8499674 8518699 8550361 8582296 
1156.615 8603081 8602946 8577058 8526233 8457339 8381362 8312186 8262136 
1160.472 8238395 8240726 8259941 8281993 8290335 8273213 8228130 8163368 
1164.330 8094836 8040759 8015344 8021825 8051730 8087612 8110432 8105132 
1168.187 8066615 8000257 7918793 7836297 7762284 7699075 7642249 7583847 
1172.045 7516787 7438278 7351795 7265128 7187271 7126302 7087535 7072077 
1175.902 7077567 7098650 7127919 7155640 7172281 7169047 7139405 7081878 
1179.759 6999945 6901229 6795231 6691043 6594718 6509513 6436701 6377451 
1183.617 6333776 6308830 6305132 6323152 6359496 6407647 6458930 6505175 
1187.474 6540896 6564745 6578974 6587889 6596366 6608376 6625837 6648883 
1191.332 6675969 6703493 6725669 6734788 6722640 6681655 6608107 6504468 
1195.189 6379435 6246639 6122856 6023029 5956815 5928901 5938340 5979994 
1199.047 6046715 6132165 6229530 6332128 6433775 6527239 6605349 6662240 
1202.904 6694172 6700902 6685154 6652954 6610899 6566830 6527038 6496565 
1206.761 6477898 6471172 6473997 6482405 6491957 6499188 6501912 6499827 
1210.619 6494681 6488594 6484154 6482943 6486340 6495185 6509043 6527340 
1214.476 6548027 6567772 6583011 6591219 6591959 6587721 6584390 6588427 
1218.334 6603868 6631456 6665807 6698547 6720553 6726240 6715405 6693297 
1222.191 6667961 6645990 6630480 6618940 6606324 6587653 6561785 6533025 
1226.048 6510052 6500970 6511902 6543183 6590445 6646461 6705445 6764133 
1229.906 6823167 6884464 6949506 7016680 7081844 7139169 7183970 7215064 
1233.763 7234705 7248417 7262871 7283155 7312571 7351189 7396787 7445828 
1237.621 7493088 7531958 7556873 7563549 7552389 7529564 7507314 7500167 
1241.478 7520833 7574507 7655671 7748757 7831911 7885927 7899862 7875502 
1245.336 7825838 7771020 7729734 7712161 7718300 7738436 7759079 7767107 
1249.193 7756549 7728789 7692296 7658133 7636280 7633819 7652231 7688552 
1253.050 7736851 7790417 7842707 7889436 7929152 7963168 7994352 8026786 
1256.908 8062633 8102262 8142740 8179879 8209659 8230798 8246466 8262136 
1260.765 8284932 8319786 8367985 8426562 8490619 8554787 8614808 8668179 
1264.623 8712361 8743395 8756749 8748027 8716180 8665914 8609435 8562865 
1268.480 8542656 8560769 8619372 8710907 8819942 8929547 9024158 9095274 
1272.338 9141665 9167688 9179871 9184202 9184981 9184947 9186300 9191715 
1276.195 9203797 9224544 9253517 9288415 9324839 9358627 9386863 9408804 
1280.052 9425565 9439041 9450046 9458818 9464506 9467080 9467960 9470365 
1283.910 9478696 9496035 9524754 9564722 9614483 9672651 9738078 9810362 
1287.767 9888793 9971442 10055192 10135600 10209138 10275087 10335414 
1291.142 10394800 10458299 10529582 10608450 10691847 10775226 10855190 
1294.518 10931975 11009114 11092860 11188658 11298590 11419707 11544771 
1297.893 11663949 11768452 11852481 11915003 11958630 11988059 12008019 
1301.268 12021814 12030330 12032749 12026958 12011017 11984720 11949775 
1304.643 11910610 11873866 11846556 11834162 11838997 11858576 11886057 
1308.019 11911971 11927433 11925867 11905126 11866238 11812337 11746358 
1311.394 11669769 11582746 11486045 11382154 11276928 11177370 11090447 
1314.769 11019615 10963509 10916515 10870207 10817414 10753726 10679655 
1318.144 10599519 10520248 10448558 10388453 10341929 10308168 10285571 
1321.520 10271830 10264638 10261687 10261076 10261347 10263178 10269388 
1324.895 10284553 10313800 10361068 10426904 10507789 10597957 10689504 
1328.270 10775770 10852881 10920321 10980704 11037662 11095409 11157788 
1331.645 11228065 11310119 11407393 11523914 11662316 11823675 12006963 
1335.021 12209105 12426854 12656653 12895550 13141033 13388739 13631287 
1338.396 13857448 14053506 14207780 14315568 14382247 14420369 14446573 
1341.771 14474526 14511765 14561308 14621821 14690639 14764882 14842601 
1345.146 14921946 15001100 15078176 15151834 15223137 15295996 15377552 
1348.522 15475399 15594081 15731243 15877420 16017836 16135667 16220305 
1351.897 16269252 16290683 16299764 16314764 16351542 16419085 16519094 
1355.272 16648078 16801590 16977034 17176092 17402898 17662470 17958142 
1358.647 18291996 18667128 19092230 19585198 20174860 20894604 21773050 
1362.023 22814930 23987560 25219720 26423446 27523648 28473176 29258064 
1365.398 29884086 30365870 30724910 30990860 31208730 31436432 31744738 
1368.773 32200258 32848726 33714436 34801012 36107564 37641988 39429312 
1372.148 41506428 43899044 46589916 49479100 52376088 55049788 57288864 
1375.524 58969308 60054140 60546904 60451844 59755108 58439808 56523472 
1378.899 54088404 51286196 48290300 45269152 42343268 39576388 36999600 
1382.274 34622636 32446724 30465198 28657222 26984112 25391748 23823192 
1385.649 22233322 20607000 18971898 17390656 15934886 14654824 13562536 
1389.025 12642359 11867975 11215620 10668381 10213343 9836628 9521808 
1392.400 9250673 9007311 8783695 8579187 8399231 8247513 8119682 8003262 
1396.257 7885185 7757257 7620668 7483817 7357997 7250439 7161771 7086592 
1400.115 7020081 6963209 6924121 6913449 6940752 7008195 7108013 7222947 
1403.972 7331812 7415998 7467536 7489481 7491841 7482907 7466288 7441648 
1407.829 7409426 7374409 7347550 7341079 7364332 7418594 7495852 7583037 
1411.687 7668756 7749702 7830494 7920244 8025706 8147095 8278582 8411326 
1415.544 8539379 8663886 8793129 8938307 9105527 9289668 9471686 9629929 
1419.402 9755868 9862727 9973816 10110063 10278819 10476017 10691745 
1422.777 10917637 11152893 11406747 11693323 12024744 12402101 12817120 
1426.152 13258976 13723851 14219660 14765191 15384281 16094748 16899208 
1429.527 17782784 18720364 19690516 20684104 21703380 22753718 23834954 
1432.903 24938434 26054718 27184812 28347138 29585152 30957518 32509640 
1436.278 34222288 35992572 37677292 39173556 40466320 41610232 42685844 
1439.653 43773948 44934744 46201568 47577524 49042644 50562864 52100900 
1443.028 53629708 55133104 56604768 58047352 59469928 60889784 62331660 
1446.404 63823892 65386520 67018880 68697192 70382744 72048272 73699472 
1449.779 75372832 77124432 79002584 81025232 83160456 85332048 87449864 
1453.154 89429448 91229960 92853616 94328152 95683176 96924712 98018520 
1456.529 98892512 99496728 99858616 100059696 100178152 100238872 100231448 
1459.905 100139640 99961880 99710024 99399824 99034656 98593704 98022424 
1463.280 97241600 96163400 94729144 92941064 90848440 88506024 85935656 
1466.655 83115280 80021600 76661952 73095184 69402088 65671256 61957800 
1470.030 58238612 54430160 50414288 46127348 41665300 37332468 33514454 
1473.406 30446220 28114016 26328666 24860150 23547952 22312740 21147852 
1476.781 20079940 19132776 18303850 17566510 16885084 16231071 15591196 
1480.156 14968895 14376048 13824917 13320641 12858790 12431253 12032204 
1483.531 11662077 11325491 11026719 10765716 10536372 10328696 10133260 
1486.907 9944218 9760850 9582809 9403488 9208807 8980926 8713037 8420278 
1490.764 8136157 7894498 7713072 7591703 7515371 7464401 7418796 7364636 
1494.621 7294308 7207820 7110067 7007656 6903551 6797351 6687207 6575476 
1498.479 6469625 6379065 6309637 6260287 6223278 6188760 6148665 6100880 
1502.336 6049202 6000990 5964474 5944554 5940994 5945931 5942841 5903810 
1506.194 5799567 5619350 5392472 5169134 4981234 4832448 4715331 4623361 
1510.051 4553509 4504024 4471584 4448686 4425522 4392619 4344624 4280773 
1513.909 4204084 4117575 4023826 3923811 3819808 3718770 3633761 3578333 
1517.766 3560594 3578099 3619093 3663465 3688527 3670115 3594102 3469336 
1521.623 3332385 3227555 3177587 3177153 3204923 3238271 3258501 3254996 
1525.481 3224851 3172447 3107166 3040127 2981239 2936369 2908882 2899342 
1529.338 2905213 2920457 2936335 2941873 2926761 2883131 2811725 2725425 
1533.196 2648011 2605242 2608409 2649911 2712488 2781711 2851579 2922091 
1537.053 2997253 3081504 3175651 3273390 3357862 3405614 3400638 3348045 
1540.911 3269284 3182460 3093183 2997787 2892237 2777576 2661846 2556978 
1544.768 2473328 2412551 2367840 2327197 2281329 2226440 2166163 2110156 
1548.625 2073366 2068772 2101733 2165663 2245124 2324332 2393493 2450369 
1552.483 2495889 2531081 2553712 2559611 2545746 2513918 2471462 2428844 
1556.340 2394293 2371871 2356812 2332094 2270104 2157938 2026793 1930465 
1560.198 1890495 1894356 1920647 1952698 1979458 1995535 1999497 1992972 
1564.055 1980657 1968141 1960819 1961817 1972568 1993971 2026659 2072268 
1567.912 2131000 2200130 2271369 2333560 2378067 2404954 2422280 2440773 
1571.770 2468363 2508186 2560111 2621175 2687650 2754168 2813826 2856849 
1575.627 2871224 2848944 2792116 2714823 2634576 2565177 2513451 2479993 
1579.485 2461399 2451869 2444771 2434875 2420614 2404288 2391461 2387363 
1583.342 2394193 2410485 2431076 2450169 2463864 2472862 2481392 2496189 
1587.200 2522349 2561844 2613175 2671847 2731794 2788714 2839739 2882965 
1591.057 2916621 2938370 2946110 2939271 2920891 2897341 2876594 2865921 
1594.914 2868956 2883632 2903445 2921124 2930965 2931765 2926428 2920457 
1598.772 2919623 2927562 2945509 2972064 3004693 3040060 3075497 3108634 
1602.629 3137102 3159363 3175117 3185197 3192406 3199650 3208262 3217074 
1606.487 3221480 3215872 3195277 3158796 3110437 3058079 3010165 2971163 
1610.344 2940538 2913185 2882397 2843107 2794050 2738196 2680448 2625542 
1614.202 2575676 2529882 2484058 2432742 2371671 2303346 2235732 2178584 
1618.059 2138059 2115384 2108492 2114285 2128869 2148048 2165763 2173522 
1621.916 2161867 2123708 2060216 1983020 1911262 1861444 1840148 1843276 
1625.774 1859315 1873191 1870728 1843475 1792102 1727528 1665524 1621156 
1629.631 1602565 1610546 1640446 1686446 1743695 1808671 1879247 1952698 
1633.489 2022398 2076696 2098803 2072800 1996967 1892958 1798324 1739637 
1637.346 1722538 1735644 1763223 1790871 1809270 1814893 1808671 1794597 
1641.203 1777629 1761161 1746190 1730921 1712591 1688442 1656045 1614005 
1645.061 1562160 1501310 1434851 1369831 1315755 1280329 1265607 1268332 
1648.918 1283187 1304622 1327919 1349058 1363383 1365078 1347163 1305752 
1652.776 1249125 1202573 1190745 1214701 1259127 1311169 1364247 1416734 
1656.633 1468262 1519764 1571238 1622153 1671910 1718413 1759464 1791536 
1660.491 1810534 1811466 1790072 1744693 1678496 1601101 1525350 1461746 
1664.348 1416169 1388778 1376313 1373488 1374850 1374950 1368169 1350055 
1668.205 1319145 1279365 1240685 1217990 1224503 1265840 1339419 1437345 
1672.063 1549723 1665590 1773770 1860579 1909598 1906836 1848400 1749650 
1675.920 1638916 1546132 1487213 1463076 1465702 1483456 1505067 1521327 
1679.778 1528708 1528343 1525217 1524053 1526347 1528609 1522391 1497287 
1683.635 1450409 1395027 1357035 1351218 1371959 1402008 1425144 1429167 
1687.493 1407227 1359095 1291927 1219020 1155129 1113935 1101478 1117224 
1691.350 1155362 1209052 1272885 1342809 1415770 1488809 1555642 1606988 
1695.207 1631499 1622619 1584108 1528043 1465204 1398085 1322701 1233873 
1699.065 1133070 1038734 983802 997551 1076399 1189416 1301332 1389044 
1702.922 1441500 1453069 1422884 1355107 1261221 1159249 1068760 1004359 
1706.780 970452 964143 978887 1008677 1047834 1091413 1135196 1174631 
1710.637 1207391 1232909 1253146 1271489 1292758 1321106 1360226 1410484 
1714.495 1469426 1530936 1584673 1616699 1613007 1563357 1470124 1352182 
1718.352 1239323 1154897 1107391 1091978 1096828 1109451 1118819 1118121 
1722.209 1104701 1080651 1052385 1028670 1016747 1020600 1040394 1074606 
1726.067 1119948 1173069 1230716 1288836 1342410 1387548 1420956 1443461 
1729.924 1459884 1477405 1503405 1540878 1586369 1628738 1648761 1623982 
1733.782 1542973 1419859 1290066 1182206 1106029 1054544 1016913 984168 
1737.639 952886 924296 904174 898264 908457 930306 955775 977559 993101 
1741.979 1004990 1018009 1036708 1061353 1087959 1110049 1122041 1122274 
1745.836 1113636 1103505 1099751 1107391 1126160 1149614 1167455 1168883 
1749.693 1148020 1105166 1046871 983371 923831 874857 838802 815697 804178 
1754.033 802618 808925 819846 831996 840827 843417 839566 832129 824527 
1758.373 818518 812510 801821 780012 741476 685122 617261 551634 504095 
1762.712 487443 504991 552198 620048 698297 776626 845740 897899 927151 
1767.052 932165 917522 894512 876849 875454 895541 934523 983603 1029168 
1771.391 1058098 1062250 1045144 1019537 1000075 994629 1002167 1016681 
1775.249 1030929 1039830 1041291 1035811 1025183 1010603 990577 962981 
1779.106 926188 881862 836511 799398 778352 775797 786751 801323 807265 
1783.446 794983 759864 705466 641849 584446 548184 542411 570843 630866 
1787.786 715787 815066 915928 1004957 1067331 1090649 1066534 994861 886245 
1792.125 761756 644338 549610 483462 444422 429828 437888 467673 516734 
1796.465 577910 640356 689934 714028 705897 666737 606378 539027 479714 
1800.804 437755 414638 406214 407574 416064 432913 459878 496797 538629 
1805.144 576683 600439 601998 580233 541416 497726 462532 446810 454240 
1809.484 481372 519620 558966 590352 607639 607241 587300 547022 486978 
1813.823 410890 326492 245095 180651 144521 142433 171469 221491 277851 
1818.163 327653 363499 384027 391821 390295 381275 363732 335014 293733 
1822.502 241117 182706 128579 90531 79760 101733 154266 227193 307493 381905 
1827.324 439646 473146 478254 455301 410824 358094 312500 284847 277884 
1831.664 287698 308057 333754 362273 392285 421304 443394 448634 425649 
1836.003 366451 272115 156288 42214 -40786 -69840 -36247 51294 171734 299204 
1840.825 408602 483728 516535 507877 464655 398089 321684 248178 187579 
1845.165 146112 123607 114957 110482 98386 66770 8548 -75903 -176701 -278402 
1849.986 -363692 -420797 -445722 -441452 -414871 -372962 -320354 -258766 
1853.844 -189021 -114032 -40289 22299 61898 69752 42612 -14711 -92467 
1858.183 -177628 -259660 -331975 -391467 -437149 -467567 -479913 -470546 
1862.041 -437678 -380609 -301978 -205912 -98032 16467 132423 244598 346919 
1866.380 430558 485618 500678 468934 392418 285842 172662 74922 6626 -29653 
1871.202 -40123 -36280 -30581 -34259 -55230 -96608 -155072 -222040 -285389 
1875.542 -331214 -348165 -330816 -280455 -204653 -114131 -20145 68758 146841 
1879.881 210551 256931 282990 286306 265484 224110 169944 114857 71774 49339 
1884.703 48444 61501 76612 82710 73795 51592 24851 4903 132 12160 34957 
1890.007 58982 76181 84897 89040 94773 105909 120657 131926 130799 111046 
1894.829 73828 28396 -10834 -31575 -28792 -6792 23293 48444 58253 48809 
1899.651 23492 -9774 -42508 -68217 -84019 -90380 -89353 -83821 -76466 -70569 
1904.473 -70039 -78023 -95415 -119994 -143910 -157258 -151296 -123340 -80541 
1908.812 -37572 -15904 -32569 -93394 -188822 -297011 -390607 -445788 -450389 
1913.152 -407357 -333631 -254063 -195181 -175044 -198560 -255156 -321082 
1917.009 -366341 -361375 -290455 -158484 10702 186617 339624 448004 499351 
1921.349 487741 413875 284648 113432 -83854 -290289 -490868 -672729 -823692 
1925.688 -931557 -986670 -982604 -919588 -804973 -653011 -482925 -314858 
1929.546 -169977 -65070 -10503 -8912 -54932 -135430 -231346 -321446 -384747 
1933.885 -405172 -376007 -301117 -194817 -78586 21272 80258 82776 27402 
1938.225 -68946 -173455 -242208 -235121 -123506 95303 391622 698861 934556 
1942.565 1027740 943223 697667 348875 -22928 -347238 -576513 -696912 -724500 
1946.904 -695158 -648677 -614201 -608246 -632564 -680073 -740841 -804213 
1950.762 -858515 -888110 -875975 -806329 -673093 -485308 -270786 -69410 
1954.619 79992 146510 119895 10172 -154675 -344159 -530549 -696448 -833977 
1958.959 -939063 -1009215 -1043858 -1048915 -1042767 -1055493 -1123281 
1962.334 -1275343 -1521101 -1841028 -2191051 -2512495 -2748138 -2865006 
1965.709 -2856678 -2743923 -2559502 -2337401 -2095798 -1835221 -1541010 
1969.084 -1195585 -791447 -339491 130468 567725 911944 1112175 1137356 
1972.942 990544 707092 352258 5367 -256646 -374518 -325850 -130031 157083 
1977.281 467308 737858 925624 1015784 1012197 928845 776560 560392 280802 
1981.621 -57980 -439168 -831596 -1193569 -1482996 -1673354 -1756688 -1741672 
1985.478 -1646948 -1492803 -1298964 -1082596 -866319 -675805 -539550 -482925 
1989.336 -518503 -639380 -814730 -1000224 -1146414 -1218384 -1210751 
1992.711 -1144662 -1056815 -980058 -931094 -902064 -868336 -800112 -677691 
1996.568 -501624 -295885 -97900 49008 113134 84301 -25943 -191936 -385840 
2000.908 -588360 -794787 -1013083 -1258560 -1544543 -1874186 -2236148 
2004.283 -2607789 -2956043 -3249955 -3467152 -3600257 -3658351 -3656938 
2007.659 -3612087 -3530193 -3404595 -3221803 -2970127 -2647211 -2263408 
2011.034 -1838290 -1396935 -961015 -544249 -155172 200606 518326 787614 
2014.891 993334 1116061 1134631 1034350 811547 482434 81915 -336114 -708854 
2019.231 -979463 -1099287 -1045676 -829843 -501690 -137186 175911 364925 
2023.088 399813 298242 121353 -52911 -151031 -137749 -26307 127750 254742 
2027.428 297745 233326 79595 -110686 -273932 -362864 -355945 -263435 -115887 
2031.767 47616 194142 302154 363732 381042 361377 315152 254013 190860 
2036.107 137395 101170 82909 76248 72735 66438 58982 59711 82445 134975 
2040.929 214993 305934 385984 435168 446379 427805 399216 381308 382833 
2045.268 395900 398851 365456 279310 143759 -16401 -163518 -265157 -306580 
2049.608 -295686 -258004 -225782 -224325 -263534 -340517 -443107 -556560 
2053.465 -670049 -777059 -873131 -951560 -1003530 -1017480 -985876 -909603 
2057.323 -800376 -677956 -563641 -474683 -417288 -386104 -367532 -348297 
2061.180 -320387 -284031 -245520 -212734 -188723 -169480 -145003 -105386 
2065.038 -47577 20278 78700 102694 69620 -31211 -192697 -389978 -588128 
2069.377 -746266 -830306 -821212 -718050 -536605 -304262 -51652 196628 
2073.235 424654 626021 799962 946278 1061187 1136724 1162139 1129981 1040859 
2077.574 907660 753159 605117 489499 419712 394640 399150 411288 409066 
2081.914 378091 315882 229977 134545 43043 -33861 -91771 -130396 -151296 
2086.253 -155768 -143943 -115854 -73783 -22066 29954 72967 98054 100706 
2090.593 81981 48577 9476 -25744 -48969 -55761 -44331 -15473 27568 80059 
2095.415 134611 182938 215126 222518 199214 144156 61832 -39195 -148448 
2099.754 -255885 -353628 -436586 -500433 -540510 -550041 -520819 -444960 
2103.612 -318963 -147123 55469 266114 457258 602695 685388 701052 659005 
2107.951 578043 484457 403196 353418 346256 381639 450293 533620 608900 
2112.291 650444 635511 550108 392285 175215 -75837 -325486 -538458 -688079 
2116.631 -761514 -764160 -716032 -647188 -585679 -552887 -557387 -594646 
2120.488 -648842 -698466 -721920 -700484 -621911 -483289 -291547 -62685 
2124.345 177833 398785 572104 675697 700720 653165 552264 424555 294926 
2128.685 182010 92950 24188 -33861 -90380 -149905 -211178 -267276 -310156 
2133.025 -333796 -336743 -321479 -293898 -261150 -231578 -215052 -221875 
2136.882 -263236 -346774 -474187 -637461 -821840 -1005546 -1169513 -1303258 
2140.740 -1407107 -1490756 -1566598 -1641435 -1711970 -1764179 -1777147 
2144.115 -1735501 -1636154 -1493034 -1333451 -1194230 -1107549 -1092346 
2147.490 -1150082 -1264771 -1412457 -1567555 -1712861 -1844955 -1973446 
2150.865 -2116539 -2297753 -2539442 -2853386 -3239595 -3681185 -4145728 
2154.240 -4584726 -4943225 -5169858 -5226171 -5097296 -4793785 -4354375 
2157.616 -3832289 -3289253 -2776946 -2324120 -1932379 -1588981 -1282446 
2160.991 -1017579 -820187 -729627 -780863 -983331 -1306661 -1682134 -2024271 
2164.848 -2249696 -2309388 -2205326 -1988189 -1737514 -1527176 -1401063 
2168.224 -1354426 -1340619 -1289582 -1143902 -881365 -527901 -145864 186054 
2172.081 406214 492584 467275 389798 328548 343735 461371 672611 940300 
2176.421 1220914 1474047 1672309 1803081 1859315 1834824 1722804 1518201 
2180.278 1226696 870707 493579 148034 -113899 -255355 -267408 -165737 11497 
2184.618 219369 411388 552795 626253 630733 579868 496432 407176 335545 
2188.957 298143 301525 340552 401604 465517 513947 532425 512952 456362 
2193.297 368971 261539 147405 40889 -45391 -100285 -117874 -99920 -56953 
2197.636 -8217 24453 20245 -31774 -129402 -256646 -388256 -497984 -566289 
2201.976 -588558 -575587 -551066 -541238 -568704 -642722 -754072 -878256 
2205.833 -981050 -1030074 -1001678 -891119 -712526 -497984 -284329 -105817 
2209.691 17097 81782 101435 97226 88344 87615 95834 106704 111013 105047 
2214.513 92453 83936 90200 117144 160995 208396 240951 242675 206242 134511 
2219.334 40292 -60531 -150932 -220351 -263534 -279495 -271084 -242175 
2223.192 -199421 -150932 -106744 -75572 -61492 -61393 -64904 -57450 -25876 
2227.531 34195 115852 202197 274403 316976 326559 312864 295391 295822 
2231.871 329410 400908 502901 621376 737626 837076 908524 944086 939703 
2236.211 893483 807331 689337 556146 429662 332726 282725 283918 326095 
2240.550 385984 438253 460873 444389 393213 322712 251991 195435 159901 
2244.890 143494 139384 141173 145880 155757 175877 210319 259583 318601 
2249.229 378887 429928 463361 475004 466579 444588 421072 410791 428302 
2253.569 484822 584181 719471 870839 1009573 1105764 1133402 1081216 956439 
2257.909 784361 600306 439480 328217 275033 271585 296816 327321 344498 
2262.248 340419 319463 294462 279675 285576 316247 369369 439082 519156 
2266.588 606146 698198 793821 888801 975500 1043284 1082611 1088391 1063146 
2270.927 1017146 966534 927085 910483 920743 953483 998880 1046340 1088457 
2275.267 1123403 1154365 1186559 1224137 1267701 1314260 1359428 1400412 
2279.125 1438342 1477937 1524984 1582245 1644902 1701448 1732551 1719710 
2282.982 1651355 1528110 1365411 1190479 1038036 937478 908391 953815 
2286.839 1060954 1204434 1353412 1480963 1567946 1608385 1607320 1579253 
2290.697 1540280 1504968 1482060 1472651 1471687 1470989 1462677 1442863 
2294.554 1412678 1377942 1348227 1332041 1335298 1359029 1400013 1451872 
2298.412 1507062 1560165 1608085 1650557 1688807 1724434 1758267 1789740 
2302.269 1817655 1840747 1858716 1872226 1883174 1893091 1902809 1912194 
2306.126 1919216 1921079 1915156 1898882 1871394 1833693 1789141 1742730 
2309.984 1701348 1672609 1662663 1675735 1711261 1763922 1824609 1881411 
2313.841 1924973 1949236 1954994 1949203 1944177 1952831 1985217 2045435 
2317.699 2129402 2226007 2318702 2392394 2435641 2445438 2427511 2394726 
2321.556 2361510 2339389 2333526 2341621 2355413 2365374 2364908 2352615 
2325.414 2332494 2311641 2297117 2293087 2298683 2309642 2321367 2331561 
2329.271 2344453 2369505 2417515 2495322 2600908 2719957 2829567 2906480 
2333.128 2932165 2900910 2821296 2714489 2606108 2519250 2469363 2459833 
2336.986 2483792 2528448 2580909 2631276 2673414 2704720 2722925 2725292 
2340.843 2709388 2674214 2623275 2565510 2513085 2477094 2463565 2469963 
2344.701 2485192 2494256 2483192 2447270 2390395 2323866 2260811 2213651 
2348.558 2190339 2193769 2223309 2275500 2345086 2426212 2514451 2607142 
2352.416 2704153 2806689 2916621 3034955 3160231 3287779 3410423 3518904 
2356.273 3602989 3655112 3671184 3651871 3603691 3536575 3462856 3393158 
2360.130 3334121 3286410 3246349 3207227 3163301 3112239 3056210 3000923 
2363.988 2953549 2919856 2901777 2897107 2900576 2906047 2907748 2902711 
2367.845 2889836 2869489 2841240 2803587 2752700 2684482 2595909 2487624 
2371.703 2364308 2236531 2117548 2020168 1955427 1927736 1934525 1966976 
2375.560 2012379 2057686 2092410 2111755 2116183 2110622 2101100 2093109 
2379.417 2088815 2087316 2085052 2078394 2064944 2045235 2022265 2000695 
2383.275 1985416 1978793 1980257 1986115 1991108 1989577 1977461 1953763 
2387.132 1920081 1880212 1838384 1798290 1760795 1725365 1689572 1651488 
2390.990 1610447 1568378 1529872 1501576 1489740 1498883 1529872 1579153 
2394.847 1639049 1699119 1749018 1780391 1789207 1776132 1746523 1708799 
2398.705 1672043 1644137 1630169 1631166 1644403 1665225 1687677 1706737 
2402.562 1719344 1724633 1723702 1718213 1709431 1697589 1681722 1660169 
2406.419 1632663 1600170 1566217 1535691 1512881 1500911 1499182 1504037 
2410.277 1509756 1511385 1506663 1496855 1487612 1485916 1498185 1527378 
2414.134 1571903 1626044 1682255 1732883 1773470 1802982 1823877 1840481 
2417.992 1857351 1877550 1901977 1929333 1956192 1978293 1990809 1989610 
2421.849 1972235 1938619 1891461 1836355 1780557 1730754 1691302 1662497 
2425.707 1641410 1622320 1600303 1572967 1542341 1514078 1495558 1493198 
2429.564 1509257 1541676 1584607 1630900 1673972 1710030 1737807 1757601 
2433.421 1769478 1773038 1767515 1752944 1731786 1709764 1694429 1693531 
2437.279 1711128 1746124 1790405 1832395 1859414 1861311 1834358 1781721 
2441.136 1712458 1638018 1569775 1515475 1477804 1455363 1443561 1437378 
2444.994 1432690 1427637 1423449 1422518 1428768 1445223 1473582 1513845 
2448.851 1563756 1619626 1677265 1732384 1781455 1821514 1850430 1866369 
2452.708 1867833 1853891 1824942 1782653 1731220 1675735 1623084 1579652 
2456.566 1550156 1536755 1539182 1554345 1577490 1603729 1628406 1647962 
2460.423 1660202 1663728 1658373 1644370 1622952 1596346 1567813 1541809 
2464.281 1522756 1514743 1520030 1537886 1565685 1597576 1628140 1652153 
2468.138 1667553 1675203 1679128 1684550 1695626 1714354 1739503 1767116 
2471.996 1791869 1809403 1817388 1815592 1805311 1788608 1766484 1739237 
2475.853 1707435 1672609 1638550 1611245 1597011 1600736 1623849 1663528 
2479.710 1712791 1763024 1806475 1837952 1855554 1860080 1853924 1839150 
2483.568 1817488 1790139 1758865 1726629 1697256 1674172 1659337 1651987 
2487.425 1648960 1646066 1639614 1628871 1616167 1606356 1604227 1613606 
2491.283 1634625 1664293 1697057 1727927 1752777 1770143 1781122 1788509 
2495.140 1795030 1803081 1813196 1824343 1833693 1837453 1831596 1813063 
2498.998 1781023 1738173 1690970 1648761 1621089 1616100 1636987 1681024 
2502.855 1740468 1804512 1862276 1905371 1929766 1935257 1924973 1903175 
2506.712 1874988 1845239 1818853 1801019 1796361 1807440 1833859 1872259 
2510.570 1915156 1954595 1984384 2001127 2005788 2002359 1995868 1989344 
2514.427 1983286 1975065 1960719 1937321 1904872 1865737 1825674 1790904 
2518.285 1766484 1755372 1757967 1772306 1794630 1820450 1845405 1865737 
2522.142 1879747 1888599 1896286 1908633 1931696 1968807 2018936 2075697 
2526.000 2128736 2168061 2187009 2185044 2168827 2149880 2139690 2146383 
2529.857 2171458 2210387 2254216 2293553 2322233 2338290 2343320 2341188 
2533.714 2335259 2328429 2322567 2320668 2327197 2347551 2386397 2444438 
2537.572 2516017 2589275 2649144 2680448 2673514 2627509 2550812 2458433 
2541.429 2367273 2292487 2242692 2220045 2220778 2238096 2264242 2292454 
2545.287 2317936 2336624 2345186 2341521 2324665 2296018 2260345 2225207 
2549.144 2199697 2192670 2210754 2255915 2325998 2414250 2510852 2604708 
2553.001 2684783 2742597 2771907 2770507 2740130 2686750 2619342 2549412 
2556.859 2488957 2447503 2431410 2441672 2474761 2522250 2574343 2621942 
2560.716 2658245 2680848 2691651 2695485 2698385 2705187 2718723 2738563 
2564.574 2761403 2782845 2798652 2805722 2803854 2795284 2784579 2776376 
2568.431 2775542 2784646 2803754 2830834 2861918 2893638 2923292 2950580 
2572.289 2977402 3006194 3038926 3075097 3111037 3141240 3159663 3162734 
2576.146 3151620 3132429 3115142 3109903 3124420 3160464 3213135 3271788 
2580.003 3324305 3359899 3372487 3362169 3334088 3296727 3258468 3226120 
2583.861 3204189 3194543 3197780 3214337 3243779 3285643 3338161 3398067 
2587.718 3460752 3521309 3574892 3617790 3648596 3667475 3676297 3678168 
2591.576 3676598 3675395 3677767 3686489 3702295 3724886 3752291 3781937 
2595.433 3811351 3839129 3865037 3889642 3913145 3935413 3954572 3968281 
2599.291 3974701 3973598 3967880 3962530 3963867 3977510 4005700 4047504 
2603.148 4097506 4148183 4191840 4222587 4237509 4236371 4221783 4197929 
2607.005 4168990 4139351 4113160 4093057 4081217 4077705 4080581 4085832 
2610.863 4088642 4085397 4074494 4058105 4042086 4034728 4043825 4074360 
2614.720 4126339 4194918 4270333 4341578 4399514 4438342 4457423 4460469 
2618.578 4454009 4444468 4436099 4430342 4425823 4419965 4410794 4398476 
2622.435 4385791 4377322 4377824 4390510 4415580 4450058 4488523 4525384 
2626.292 4555786 4577584 4591012 4598245 4602197 4605144 4608057 4611138 
2630.150 4614520 4618673 4624969 4634580 4648579 4666229 4684884 4700526 
2634.007 4709235 4708498 4699186 4684448 4670315 4662712 4665860 4680597 
2637.865 4704579 4732615 4758542 4777570 4787017 4786817 4779346 4767955 
2641.722 4755996 4746048 4739247 4736501 4737640 4742329 4750034 4759916 
2645.580 4770200 4779111 4784806 4786448 4784371 4780887 4779681 4784505 
2649.437 4798977 4824809 4861296 4905762 4953819 5000842 5042372 5075559 
2653.294 5098826 5112135 5116058 5111967 5101373 5085818 5067212 5047903 
2657.152 5030204 5016629 5009288 5009892 5019143 5036674 5061345 5091081 
2661.009 5123400 5155654 5185262 5210077 5228789 5240728 5246429 5247032 
2664.867 5244283 5240392 5237575 5237911 5243511 5255786 5275573 5302539 
2668.724 5335076 5370298 5403979 5431927 5450716 5458366 5455245 5443938 
2672.582 5428437 5412971 5401329 5395727 5396901 5404449 5417332 5434108 
2676.439 5453434 5473633 5492625 5507759 5516651 5517557 5510443 5496953 
2680.296 5480578 5465412 5454943 5451387 5454541 5462895 5473968 5485779 
2684.154 5497457 5509068 5521182 5533833 5546082 5555681 5559272 5553935 
2688.011 5537458 5509672 5472056 5428069 5381704 5337356 5298850 5269335 
2691.869 5250823 5243779 5247100 5258335 5273662 5288989 5301231 5308376 
2695.726 5310489 5309315 5307537 5307403 5309818 5313843 5317432 5317868 
2699.583 5312938 5302338 5287279 5270576 5255450 5244886 5240392 5242170 
2703.441 5249146 5259508 5271549 5284059 5296670 5309818 5324342 5340744 
2707.298 5359764 5381100 5404349 5428773 5453702 5479102 5505276 5532692 
2711.156 5561822 5592431 5624217 5656173 5687695 5718615 5750007 5783180 
2715.013 5820018 5861190 5906229 5952851 5998067 6039155 6074872 6106323 
2718.871 6135996 6167989 6205061 6248253 6295618 6343324 6386698 6421703 
2722.728 6446689 6462360 6471407 6477091 6482170 6487753 6493739 6498751 
2726.585 6501576 6501206 6497540 6490140 6478874 6462563 6440064 6410102 
2730.443 6371971 6326177 6274372 6219009 6162646 6107667 6055686 6007675 
2734.300 5964238 5925139 5890476 5859276 5830260 5801851 5772100 5739900 
2738.158 5705219 5669701 5635394 5605387 5582127 5566253 5556687 5551116 
2742.015 5546284 5539337 5529068 5515947 5502222 5490813 5484270 5484035 
2745.873 5489672 5498900 5508933 5517323 5522256 5523565 5522356 5519873 
2749.730 5516954 5513195 5507020 5496652 5481149 5461486 5440717 5424277 
2753.587 5417701 5425317 5448501 5485511 5530880 5577496 5618746 5649258 
2757.445 5666646 5671379 5666445 5656508 5646136 5639892 5641269 5651943 
2761.302 5671850 5699445 5731037 5762631 5790467 5812462 5828849 5841812 
2765.160 5855313 5872844 5896354 5925374 5957721 5990273 6020677 6048463 
2769.017 6075275 6103669 6135592 6171148 6208489 6244152 6275313 6301165 
2772.875 6324127 6349410 6382899 6429370 6490174 6563029 6642692 6722404 
2776.732 6797150 6864131 6923650 6978092 7030554 7083225 7137047 7191583 
2780.589 7245789 7298789 7350920 7402955 7456547 7513315 7574507 7641372 
2784.447 7714118 7792980 7877290 7965632 8055713 8144327 8228569 8306512 
2788.304 8377882 8444231 8509101 8576416 8649216 8729263 8816021 8907732 
2792.162 9001493 9095443 9188703 9281882 9376435 9474530 9577932 9687660 
2796.019 9803584 9924590 10048614 10173181 10295783 10414211 10527376 
2799.394 10635647 10741261 10847886 10959500 11079502 11209738 11350216 
2802.770 11498531 11651833 11807298 11963807 12121974 12283642 12451233 
2806.145 12626156 12808452 12996082 13186218 13375754 13562365 13745738 
2809.520 13927239 14109191 14295193 14488366 14691769 14907476 15136772 
2812.895 15380230 15636809 15905431 16184123 16470669 16763363 17061422 
2816.271 17364410 17673028 17988084 18310452 18640876 18980378 19330918 
2819.646 19694746 20075048 20475028 20896794 21341280 21807366 22293658 
2823.021 22798552 23322526 23868488 24441668 25048182 25694490 26384996 
2826.396 27121958 27906630 28740266 29625696 30568672 31577446 32661288 
2829.771 33829004 35087036 36439308 37887552 39433484 41080128 42834176 
2833.147 44704848 46704608 48846936 51143856 53606204 56241912 59056076 
2836.522 62051244 65227436 68581656 72106784 75793136 79626824 83590720 
2839.897 87667456 91838752 96087944 100402512 104772640 109192776 113661248 
2843.272 118177776 122742120 127351448 131996960 136664608 141332928 
2846.166 145972416 150549968 155025088 159351856 163481152 167355936 
2849.059 170914384 174094464 176830448 179062960 180740720 181823392 
2851.952 182288272 182130688 181366944 180031152 178176416 175868528 
2854.845 173176960 170176752 166938288 163525856 160002240 156422672 
2857.738 152838080 149296992 145837968 142495152 139295664 136258672 
2860.631 133402216 130741416 128290128 126062680 124068760 122312712 
2863.524 120791048 119492264 118397968 117484864 116730152 116110928 
2866.417 115605688 115194416 114853320 114554512 114265264 113945488 
2869.310 113553728 113050248 112398768 111574944 110565568 109370776 
2872.203 108003880 106489488 104861176 103156248 101416768 99684096 97996672 
2875.578 96392064 94901976 93552792 92365848 91353680 90523280 89875288 
2878.954 89406200 89110600 88983608 89021760 89223576 89588976 90117824 
2882.329 90808368 91656584 92655344 93794640 95063072 96447168 97932984 
2885.704 99507608 101157624 102872048 104642048 106461536 108327504 
2888.597 110239240 112197216 114200736 116246320 118326912 120432120 
2891.490 122548848 124662616 126761304 128833216 130870520 132867920 
2894.383 134823456 136738928 138619360 140473744 142312800 144148208 
2897.276 145990224 147845296 149715904 151600992 153497744 155403424 
2900.169 157317088 159240304 161176736 163131264 165109888 167119264 
2903.063 169166416 171259280 173405744 175611232 177878720 180206736 
2905.956 182590768 185025008 187505712 190033008 192612208 195251856 
2908.849 197962240 200751920 203626576 206589264 209641136 212783488 
2911.742 216016512 219338160 222741760 226212112 229726160 233255792 
2914.635 236767920 240232368 243620288 246903088 250050816 253026448 
2917.528 255783712 258272624 260438384 262229232 263602192 264520320 
2920.421 264955168 264884176 264290368 263165600 261512752 259349408 
2923.314 256706096 253625280 250155952 246346512 242246128 237901904 
2926.207 233359424 228666240 223868048 219006448 214118912 209232784 
2929.100 204368192 199540128 194760416 190041312 185395680 180834752 
2931.993 176368544 172002688 167738880 163577280 159517728 155562816 
2934.886 151718592 147993568 144398528 140945504 137644736 134506848 
2937.779 131541256 128755048 126155320 123746360 121530456 119509016 
2940.672 117682288 116050936 114616848 113382008 112348384 111516512 
2943.565 110884056 110445360 110192648 110115696 110203576 110444112 
2946.458 110824744 111329200 111939456 112632752 113382008 114159360 
2949.352 114934992 115679112 116365336 116967224 117460680 117824688 
2952.245 118039312 118088920 117962216 117652096 117155424 116472552 
2955.138 115606512 114562104 113348496 111978472 110467792 108835632 
2958.031 107100136 105275232 103370424 101389144 99331472 97197464 94988680 
2961.406 92711208 90373520 87985296 85555240 83089960 80594600 78074744 
2964.781 75537848 72993800 70456352 67939376 65455624 63015684 60626676 
2968.156 58293324 56019560 53809128 51666952 49598424 47608136 45699656 
2971.532 43874340 42130948 40466828 38879024 37364424 35921484 34550188 
2974.907 33250782 32023550 30867468 29779108 28752834 27781464 26856848 
2978.282 25971764 25121092 24301832 23513112 22755602 22029808 21335850 
2981.657 20672534 20038334 19431844 18853052 18302918 17783372 17296548 
2985.033 16843438 16422903 16031621 15664803 15317482 14985289 14665961 
2988.408 14359163 14065930 13787054 13522678 13270932 13028790 12792584 
2991.783 12559507 12329351 12104598 11889973 11691077 11512618 11355828 
2995.158 11217830 11091908 10970101 10844014 10708521 10563124 10411428 
2998.534 10260295 10116472 9985173 9867642 9760884 9658997 9556389 9448659 
3002.391 9335131 9218859 9105459 9000748 8909321 8832251 8767669 8711380 
3006.249 8658377 8604365 8547354 8487037 8424231 8360216 8295164 8228265 
3010.106 8157933 8082244 8000224 7912753 7822363 7732837 7648084 7571101 
3013.963 7503100 7443030 7389035 7338316 7288782 7239354 7189966 7141392 
3017.821 7094036 7047257 6999844 6949540 6895000 6835755 6773321 6710997 
3021.678 6652585 6601816 6560775 6529493 6506049 6487483 6470230 6451296 
3025.536 6428630 6400955 6368037 6329607 6286440 6239278 6189801 6139861 
3029.393 6091673 6046984 6006533 5969681 5934611 5899209 5861593 5821058 
3033.250 5778513 5735569 5694677 5657851 5625794 5598674 5574979 5552929 
3037.108 5530947 5507490 5481954 5454373 5424848 5394519 5363723 5333298 
3040.965 5303713 5275171 5247670 5221110 5195288 5169771 5144623 5119746 
3044.823 5095506 5072240 5050183 5029835 5011501 4995211 4980396 4966152 
3048.680 4950534 4931465 4906533 4874331 4834726 4788994 4740152 4692387 
3052.538 4649918 4615659 4590912 4575274 4566367 4560943 4556222 4549960 
3056.395 4541221 4530641 4519659 4509983 4503488 4501982 4506133 4515909 
3060.252 4530540 4548018 4565530 4579996 4588300 4588668 4580297 4564224 
3064.110 4542628 4517751 4492039 4466428 4440819 4414275 4385757 4354564 
3067.967 4321231 4287299 4254908 4226200 4202880 4184647 4170496 4157850 
3071.825 4144034 4127142 4105667 4079912 4050982 4020481 3989582 3959387 
3075.682 3930464 3903149 3878576 3857815 3842338 3833145 3829435 3828599 
3079.540 3826660 3818939 3801992 3775219 3740861 3703933 3669981 3643818 
3083.397 3627012 3618258 3613513 3608936 3601586 3591463 3580805 3572754 
3087.254 3569914 3571986 3576262 3579102 3577130 3569814 3559458 3551173 
3091.112 3550605 3561128 3582643 3610974 3639040 3658754 3664000 3652439 
3094.969 3625909 3589559 3550104 3514328 3486771 3469637 3463057 3465128 
3098.827 3472976 3483932 3495121 3504240 3509484 3509251 3502971 3490646 
3102.684 3472709 3450799 3427521 3405614 3388082 3377463 3374624 3378865 
3106.542 3387548 3397232 3404612 3407484 3406182 3402541 3400338 3402708 
3110.399 3412026 3428690 3451067 3476717 3502904 3527255 3547799 3562932 
3114.256 3570583 3568411 3555048 3530161 3496090 3457980 3421978 3393993 
3118.114 3377530 3372153 3373823 3376494 3374691 3365976 3351350 3335123 
3121.971 3323370 3320198 3326876 3341133 3357528 3370751 3376394 3373022 
3125.829 3361435 3344238 3323771 3301968 3279533 3257065 3235801 3218276 
3129.686 3208495 3210398 3226654 3257366 3298730 3344405 3385444 3413395 
3133.543 3421944 3408519 3374491 3325340 3269150 3214236 3168475 3137102 
3137.401 3121717 3120749 3129693 3143243 3155925 3163969 3165938 3162567 
3141.258 3155892 3148917 3144411 3144244 3149484 3160297 3176085 3195711 
3145.116 3217541 3240274 3261939 3281436 3298162 3311751 3322435 3330882 
3148.973 3337627 3343170 3348279 3353221 3358930 3365709 3373556 3382138 
3152.831 3389952 3395362 3397132 3394727 3389251 3382872 3378331 3377697 
3156.688 3381336 3387614 3393892 3396430 3392957 3383207 3368714 3352419 
3160.545 3337861 3327878 3323303 3324238 3328779 3335056 3341200 3345708 
3164.403 3347611 3346743 3343504 3339096 3335557 3334923 3339463 3350015 
3168.260 3365775 3384242 3402007 3415399 3421777 3419774 3409387 3391288 
3172.118 3366243 3334822 3297995 3257533 3217474 3182927 3159630 3152287 
3175.975 3162701 3187967 3221413 3254294 3278398 3288180 3283005 3265979 
3179.833 3243646 3222181 3207227 3201419 3205624 3218509 3237703 3260704 
3183.690 3283973 3303905 3317227 3321267 3315457 3301835 3284841 3269885 
3187.547 3262006 3263575 3273691 3288614 3302803 3312385 3314989 3312118 
3191.405 3307210 3304573 3307277 3315590 3327543 3339330 3347410 3348679 
3195.262 3342202 3328479 3308612 3283940 3255930 3225853 3195511 3166639 
3199.120 3141707 3121516 3105931 3093050 3080169 3064319 3044732 3022176 
3202.977 2999955 2982373 2972865 2973065 2981505 2994183 3006561 3014702 
3206.834 3017538 3016738 3016037 3020308 3032019 3050838 3072361 3090180 
3210.692 3096120 3083906 3050905 2999021 2934467 2867055 2807623 2765505 
3214.549 2746732 2752134 2778076 2816293 2857015 2891070 2910917 2913518 
3218.407 2899842 2874793 2845742 2820929 2806922 2807456 2823030 2850311 
3222.264 2884265 2918589 2948178 2968928 2979237 2978937 2968961 2951047 
3226.122 2926328 2896373 2863452 2830534 2801586 2781078 2772041 2775776 
3229.979 2790415 2810958 2830267 2841473 2839205 2821930 2791916 2754568 
3233.836 2716590 2683249 2657778 2639943 2627476 2617109 2606142 2593742 
3237.694 2580842 2569843 2563777 2565210 2575209 2594609 2623176 2660179 
3241.551 2704387 2754334 2807289 2859617 2907581 2946843 2974633 2989446 
3245.409 2991848 2984041 2967994 2946710 2922091 2895673 2869289 2844642 
3249.266 2823931 2808757 2800152 2796851 2796951 2796851 2793783 2785713 
3253.124 2772808 2756969 2741463 2729393 2722991 2723125 2729160 2739996 
3256.981 2754034 2770474 2787880 2804921 2819762 2829834 2832835 2827399 
3260.838 2813759 2794150 2772074 2751667 2735962 2726559 2723391 2724692 
3264.696 2728993 2734561 2741363 2749399 2759236 2770340 2780711 2788414 
3268.553 2790182 2784612 2771541 2753334 2733328 2715923 2704320 2699886 
3272.411 2702086 2708621 2716790 2724158 2729927 2734728 2739630 2745698 
3276.268 2752834 2759536 2763704 2763171 2757436 2748332 2739796 2736795 
3280.125 2743331 2760970 2787614 2817994 2844642 2861218 2863219 2850211 
3283.983 2825098 2792783 2758336 2725125 2694484 2665646 2638077 2611775 
3287.840 2588309 2571043 2563277 2567010 2582209 2606209 2634876 2663546 
3291.698 2688517 2708088 2721958 2731560 2738396 2744198 2750200 2757269 
3295.555 2765705 2775442 2785480 2793550 2797285 2793683 2781311 2760703 
3299.413 2734995 2709488 2689717 2680582 2683816 2698385 2720257 2744031 
3303.270 2764271 2776943 2780244 2774175 2760170 2740930 2719524 2699619 
3307.127 2684682 2677815 2680515 2692317 2709755 2727826 2740930 2744798 
3310.985 2738429 2724092 2707487 2694518 2690550 2697652 2714422 2736362 
3314.842 2758569 2776409 2786747 2789781 2786647 2778810 2767839 2754635 
3318.700 2739529 2723858 2709555 2699519 2696252 2700952 2712555 2727259 
3322.557 2739630 2744531 2738229 2720557 2694885 2667913 2646810 2638176 
3326.415 2646077 2670747 2709221 2755968 2804621 2849344 2885766 2911751 
3330.272 2926628 2931965 2930231 2924827 2919623 2917755 2921391 2930498 
3334.129 2942940 2954116 2958686 2951647 2929897 2893938 2847543 2797285 
3337.987 2749766 2711688 2686183 2673914 2673214 2680882 2693984 2709821 
3341.844 2727059 2744398 2760970 2775609 2787614 2797051 2804688 2812392 
3345.702 2821596 2833135 2845509 2856081 2860717 2856348 2842340 2820395 
3349.559 2795450 2772508 2756702 2750566 2753634 2763471 2776109 2787847 
3353.417 2795884 2798752 2795717 2787414 2774842 2759403 2744364 2732227 
3357.274 2725925 2727726 2736862 2751200 2767606 2782879 2795284 2805722 
3361.131 2816427 2829967 2847376 2866888 2884465 2894739 2893538 2878662 
3364.989 2851812 2816860 2778477 2740697 2705887 2674981 2648577 2627376 
3368.846 2613175 2607409 2610542 2620442 2633009 2642944 2646544 2642643 
3372.704 2634310 2627576 2629609 2645210 2675814 2717990 2765972 2811825 
3376.561 2849511 2875527 2889135 2891803 2886000 2874359 2859283 2842707 
3380.418 2826932 2813759 2804621 2799819 2798652 2800453 2803788 2808557 
3384.276 2815059 2824097 2835503 2847143 2856182 2858716 2851712 2834903 
3388.133 2810424 2782211 2754401 2729293 2706354 2683782 2658979 2631376 
3391.991 2604442 2584076 2577243 2589142 2619909 2665346 2716423 2763204 
3395.848 2798318 2817594 2822163 2816193 2805355 2793816 2783812 2774909 
3399.706 2765405 2753934 2739863 2724392 2709688 2698185 2691517 2691184 
3403.563 2697085 2708788 2725059 2744198 2764004 2782211 2796551 2805689 
3407.420 2809424 2808923 2806289 2804621 2806455 2813959 2828366 2849811 
3411.278 2877528 2910350 2945309 2979037 3007429 3026247 3032219 3024245 
3415.135 3003725 2974433 2941773 2911517 2887968 2873559 2868122 2868622 
3418.993 2870957 2869790 2860817 2841940 2813292 2777876 2741463 2711055 
3422.850 2693051 2692384 2710588 2745698 2792282 2843941 2893071 2933833 
3426.708 2963190 2981072 2989379 2990914 2988912 2984942 2979471 2971664 
3430.565 2960588 2945075 2924727 2900676 2874359 2849077 2827666 2812625 
3434.422 2805855 2806989 2814226 2824431 2834536 2841940 2845876 2847210 
3438.280 2847577 2848277 2849378 2849411 2846209 2837971 2825398 2811591 
3442.137 2801820 2801086 2812725 2836170 2867388 2899942 2927162 2944375 
3445.995 2950246 2946743 2937469 2926595 2915987 2905880 2894772 2881697 
3449.852 2866621 2851712 2839439 2832735 2833002 2839072 2847543 2853847 
3453.709 2853613 2843708 2823397 2794483 2761337 2729426 2705120 2694018 
3457.567 2699385 2721357 2756935 2799819 2842073 2876594 2898375 2906180 
3461.424 2902911 2893004 2881997 2873392 2868022 2864420 2860417 2854914 
3465.282 2848710 2844675 2846209 2855648 2872858 2894238 2914619 2928863 
3469.139 2933366 2928629 2917822 2906714 2900309 2902344 2912851 2929363 
3472.997 2946643 2959520 2964358 2960588 2951047 2940939 2937403 2945309 
3476.854 2967460 3002224 3043998 3084574 3114675 3127624 3120148 3094251 
3480.711 3056377 3016337 2982406 2960254 2950413 2949646 2952281 2952848 
3484.569 2948278 2937836 2923325 2907014 2890469 2874025 2856081 2834036 
3488.426 2805955 2771541 2732928 2694218 2660645 2637476 2627942 2632943 
3492.284 2650111 2674514 2699052 2717223 2723892 2717690 2700686 2679048 
3496.141 2660179 2650111 2652178 2665513 2685716 2706521 2722491 2730794 
3499.999 2731394 2727026 2721624 2718824 2720491 2726992 2737329 2750633 
3503.856 2766372 2784146 2803454 2822096 2836471 2842073 2835270 2814493 
3507.713 2782011 2744398 2710321 2688850 2686083 2702753 2734661 2773808 
3511.571 2812191 2842841 2862285 2869223 2865153 2852413 2833769 2811458 
3515.428 2787614 2764038 2742431 2724758 2713122 2709388 2714889 2730660 
3519.286 2756635 2791916 2833902 2878862 2921591 2956084 2977169 2982406 
3523.143 2972765 2953215 2931999 2917088 2913652 2923526 2943141 2966359 
3527.000 2985009 2992582 2985843 2966126 2938170 2908748 2883765 2866387 
3530.858 2856415 2850878 2845575 2836771 2822663 2804354 2785746 2771441 
3534.715 2765972 2772108 2788948 2812392 2836137 2854914 2865587 2868355 
3538.573 2866721 2866488 2872625 2888501 2914853 2949446 2987744 3024111 
3542.430 3053074 3070158 3072027 3057578 3027648 2985642 2936836 2888835 
3546.288 2848744 2822096 2811825 2816794 2833135 2855448 2878195 2896607 
3550.145 2907481 2908882 2900343 2882564 2858016 2830668 2805222 2786947 
3554.002 2780177 2787147 2807889 2838972 2875126 2909616 2936535 2952581 
3557.860 2958620 2957952 2956351 2959587 2970429 2988078 3008730 3026947 
3561.717 3038092 3039660 3032219 3018539 3002224 2986043 2971697 2958920 
3565.575 2946176 2931632 2915019 2897574 2881997 2871290 2866454 2867188 
3569.432 2872058 2879395 2887601 2896273 2904712 2913285 2922558 2933300 
3573.290 2945809 2959887 2974333 2987144 2995785 2998354 2994250 2985075 
3577.147 2973665 2964291 2960788 2965959 2980104 3001223 3026213 3050905 
3581.004 3071993 3087344 3095686 3097088 3092049 3081938 3068757 3055643 
3584.862 3046901 3047001 3059614 3085842 3122150 3160431 3191305 3209830 
3588.719 3216573 3217575 3219677 3228156 3244714 3266914 3289482 3305674 
3592.577 3309013 3296126 3268249 3231861 3196812 3172880 3166773 3179790 
3596.434 3208428 3244647 3279700 3304740 3312485 3299598 3267047 3221113 
3600.292 3171612 3130761 3108801 3110804 3136000 3178421 3229458 3280167 
3604.149 3324272 3357995 3380201 3391822 3394126 3388249 3374892 3354723 
3608.006 3329380 3301501 3274525 3250756 3230927 3214704 3201218 3190704 
3611.864 3185597 3189870 3207427 3239239 3280868 3323170 3355424 3368881 
3615.721 3358930 3326175 3276161 3219010 3166138 3128024 3109936 3110270 
3619.579 3121583 3135133 3146046 3153422 3159997 3168975 3183094 3203355 
3623.436 3229258 3259369 3291485 3323270 3351551 3373289 3384442 3380769 
3627.293 3359531 3323303 3283105 3257199 3262574 3301367 3362069 3427655 
3631.151 3484066 3520474 3530495 3511956 3466664 3401773 3327210 3254628 
3635.008 3192540 3145312 3113540 3095786 3090447 3096587 3114174 3143676 
3638.866 3185263 3238037 3299097 3364640 3429124 3487105 3534804 3570917 
3642.723 3597911 3620463 3644186 3673791 3710850 3753862 3796243 3829635 
3646.581 3841970 3823117 3767899 3679939 3571050 3458915 3361334 3291352 
3650.438 3255396 3252125 3274859 3315123 3364674 3416734 3465729 3507413 
3654.295 3538345 3556151 3560293 3552810 3537343 3517568 3495489 3470839 
3658.153 3442383 3409922 3374691 3339330 3307544 3282638 3266380 3259269 
3662.010 3260671 3270252 3288380 3316459 3356326 3408720 3473110 3546697 
3665.868 3624940 3701961 3770038 3819975 3840098 3817635 3742933 3617456 
3669.725 3462122 3312719 3206025 3162000 3179155 3243145 3335090 3436973 
3673.583 3529193 3592632 3611809 3583244 3524048 3464627 3427087 3414397 
3677.440 3417269 3424549 3429559 3431162 3433266 3441782 3461186 3491815 
3681.297 3529827 3568177 3600417 3621833 3631188 3630353 3623437 3614248 
3685.155 3604827 3595505 3585282 3573656 3562097 3554581 3556284 3570616 
3689.012 3595839 3624573 3648229 3661193 3664000 3662296 3662831 3671418 
3692.870 3689831 3716164 3746074 3774416 3796944 3811117 3817000 3815596 
3696.727 3808108 3795073 3775319 3747010 3708878 3661494 3608034 3554113 
3700.584 3507814 3475715 3461788 3464860 3480759 3504507 3533101 3566540 
3704.442 3605896 3652305 3704768 3759710 3811184 3852734 3878877 3887335 
3708.299 3880348 3864067 3846750 3837324 3840667 3855609 3874297 3885563 
3712.157 3880214 3854640 3811518 3757605 3700624 3646925 3602054 3570583 
3716.014 3555483 3559257 3582877 3624339 3679037 3740025 3799351 3849692 
3719.872 3886499 3907729 3914015 3908498 3895359 3878643 3861392 3844243 
3723.729 3825758 3803897 3776021 3741596 3702696 3664468 3633460 3615551 
3727.586 3613614 3626711 3651369 3682679 3716230 3749116 3780165 3810448 
3731.444 3842004 3876202 3910671 3937452 3943772 3915285 3840633 3720776 
3735.301 3574391 3435069 3334388 3289549 3297061 3341434 3404712 3473644 
3739.159 3540450 3603156 3663399 3724117 3787184 3851397 3911373 3957314 
3743.016 3976374 3956879 3898234 3817735 3745440 3703231 3695712 3716030 
3746.874 3755299 3805635 3861660 3918495 3968181 3997306 3990518 3934176 
3750.731 3828131 3689329 3550639 3445289 3395963 3407083 3466831 3555082 
3754.588 3649599 3732639 3790293 3815897 3809613 3778160 3731102 3678369 
3758.446 3626978 3580004 3538579 3504441 3480926 3471975 3479857 3503606 
3762.303 3538947 3579102 3616854 3645088 3659723 3661026 3654510 3647661 
3766.161 3647427 3656616 3673891 3695077 3715562 3731670 3741696 3745941 
3770.018 3745908 3742766 3736884 3727727 3715161 3700290 3686188 3676765 
3773.875 3676431 3688360 3713189 3749016 3790694 3832042 3867276 3891648 
3777.733 3902747 3900976 3889140 3871856 3853837 3837558 3822950 3807707 
3781.590 3788722 3764490 3734745 3701827 3670349 3646892 3636367 3641178 
3785.448 3660124 3688828 3722614 3757939 3793568 3829568 3867377 3906726 
3789.305 3946046 3981188 4007071 4019010 4014930 3995802 3966409 3932337 
3793.163 3899103 3870151 3846282 3825825 3806838 3788154 3771175 3759677 
3797.020 3757605 3766763 3785480 3808443 3828165 3836522 3826393 3795073 
3800.877 3749082 3704868 3681343 3689062 3725053 3778060 3834816 3883357 
3804.735 3915352 3924346 3907595 3867577 3814092 3761047 3720943 3700156 
3808.592 3698385 3712354 3738689 3775386 3821212 3874431 3932103 3989214 
3812.450 4039209 4076066 4094395 4091117 4067203 4030046 3993026 3972495 
3816.307 3979650 4014763 4067905 4125235 4174242 4203416 4203616 4167987 
3820.165 4097071 4002757 3907896 3836856 3800788 3795407 3808309 3827396 
3824.022 3843909 3853135 3855208 3853436 3854072 3862997 3884126 3916756 
3827.879 3957146 3998879 4036233 4065296 4084160 4092823 4093224 4088909 
3831.737 4083257 4079344 4078307 4080414 4084829 4090883 4098208 4107306 
3835.594 4119147 4134969 4155542 4180465 4207363 4232590 4252197 4263909 
3839.452 4268024 4266619 4263273 4260027 4256648 4250257 4236170 4209739 
3843.309 4168756 4115568 4057403 4003760 3963466 3942534 3942100 3959688 
3847.167 3989849 4026434 4063825 4097740 4126339 4148985 4164976 4173272 
3851.024 4170897 4153133 4115835 4059443 3993394 3934744 3897799 3884126 
3854.881 3886533 3896395 3908899 3923376 3940896 3962363 3987375 4012890 
3858.739 4035564 4052018 4061015 4064628 4067905 4076367 4093459 4118177 
3862.596 4144369 4162835 4165745 4151996 4128747 4108878 4103760 4117842 
3866.454 4147213 4181402 4207397 4213085 4189899 4137444 4066166 3997073 
3870.311 3950392 3933975 3942534 3964804 3991053 4015331 4036501 4056935 
3874.168 4079645 4105934 4134802 4163002 4187624 4205791 4215828 4216430 
3878.026 4206761 4186353 4156914 4123462 4094663 4080682 4088709 4118679 
3881.883 4163905 4212817 4254205 4277628 4275821 4246643 4195754 4136976 
3885.741 4088107 4063123 4065430 4088776 4122760 4157984 4186386 4202211 
3889.598 4201943 4184145 4151762 4112256 4076467 4054928 4053825 4073490 
3893.456 4108878 4152464 4195587 4230683 4252934 4259726 4251227 4229947 
3897.313 4200070 4166615 4135337 4111888 4101051 4105901 4126841 4160694 
3901.170 4200170 4236204 4257986 4256447 4228073 4176383 4112758 4052386 
3905.028 4008911 3988980 3991923 4011151 4039042 4068407 4094361 4115334 
3908.885 4131992 4146577 4161865 4180197 4202111 4227404 4254138 4280003 
3912.743 4301955 4316881 4322369 4316312 4297639 4267087 4227538 4183744 
3916.600 4141158 4104998 4078173 4061216 4053825 4055363 4066133 4087271 
3920.458 4119281 4160727 4208266 4255744 4295463 4319491 4321934 4300918 
3924.315 4260395 4209237 4159523 4121589 4101185 4099412 4113494 4138381 
3928.172 4167886 4197059 4220947 4236438 4242093 4238278 4226401 4209638 
3932.030 4191338 4174510 4161463 4152899 4148183 4145807 4143967 4141225 
3935.887 4136976 4131122 4124432 4117876 4112625 4109313 4108477 4109848 
3939.745 4113360 4118378 4124900 4133096 4142830 4155107 4170027 4187256 
3943.602 4206293 4225497 4242896 4256179 4262905 4260797 4248350 4225798 
3947.459 4194550 4158218 4122091 4090950 4069143 4059276 4062286 4077470 
3951.317 4102757 4134936 4170429 4204921 4234263 4255242 4266017 4266418 
3955.174 4258287 4244803 4229847 4216564 4207531 4203449 4203516 4206025 
3959.032 4208635 4209203 4205958 4198062 4186420 4172737 4160460 4153033 
3962.889 4153803 4163905 4181770 4202981 4221783 4232423 4231218 4218170 
3966.747 4197159 4175413 4160025 4156679 4166548 4186487 4209940 4229679 
3970.604 4239951 4238345 4226032 4206025 4182271 4157951 4135002 4115100 
3974.461 4100349 4093826 4099981 4121422 4158386 4207162 4260128 4307243 
3978.319 4339972 4353191 4347201 4327824 4304599 4288035 4285491 4300115 
3982.176 4329531 4367483 4405103 4435129 4452201 4454712 4444033 4424551 
3986.034 4401890 4381239 4366947 4361726 4365441 4376854 4392819 4409957 
3989.891 4424718 4434392 4437438 4432819 4420333 4400016 4372169 4337763 
3993.749 4298542 4257752 4219174 4187557 4166782 4160025 4169157 4194315 
3997.606 4234096 4285592 4344959 4406509 4463583 4509950 4540418 
##END=
