##TITLE=masinsko_4 28 10:36:00 2026 (GMT+02:00)
##JCAMP-DX=5.01  $$ Nicolet v. 970
##DATATYPE=INFRARED SPECTRUM
##ORIGIN=Vojna akademija
##OWNER=Nicolet
##LONGDATE=2026/08/28
##TIME=10:36:23
##SPECTROMETER/DATA SYSTEM=Nicolet iS20
##DATA PROCESSING=
Ratio against background
%Transmittance->Absorbance
Truncated
ElementMultiply or ElementDivide
##COMMENTS=
Number of sample scans: 8
Collection length: 11,90 sec
Sample gain: 8,0
Background collected on: Fri Aug 28 10:35:25 2026 (GMT+02:00);
Number of background scans: 8
Background gain: 8,0
Sample spacing:  1,000
Number of scan points: 12415
Resolution points: 8286
Number of FFT points: 65536
Apodization: N-B strong;
Phase correction: Mertz;
Laser frequency: 15798,00 cm-1
Number of rejected sample scans: 0
Number of rejected background scans: 0
Bench serial number: BER2010005;
##RESOLUTION= 4,000
##XUNITS=1/CM
##YUNITS=ABSORBANCE
##FIRSTX=400.156891
##LASTX=4000.123047
##FIRSTY=0.008010
##MAXX=4000.123047
##MINX=400.156891
##MAXY=0.218199
##MINY=-0.008180
##XFACTOR=1.000000
##YFACTOR=1.000000E-009
##NPOINTS=7468
##DELTAX=0.482117
##ZPD=6100
##XYDATA=(X++(Y..Y))
400.157 8010383 8780416 9501996 9918115 9828189 9142071 7894397 6225631 
404.014 4366412 2594509 1210747 430923 324337 776892 1549923 2355580 2954283 
408.353 3227322 3184095 2946743 2676481 2516051 2518017 2636976 2763938 
412.210 2785980 2637343 2326964 1935790 1581747 1374551 1371360 1576725 
416.067 1939817 2379333 2772508 2982340 2892437 2482026 1877484 1311335 
419.924 968028 884651 976330 1102874 1132572 955044 525027 -119464 -832721 
424.263 -1400766 -1614961 -1345640 -605930 462366 1627641 2653311 3327009 
428.120 3525284 3242944 2585276 1739304 912143 298109 14181 85295 446876 
432.459 980847 1556307 2070403 2473295 2762204 2964157 3109402 3210498 
436.316 3249421 3186298 2985009 2639877 2189906 1718978 1329581 1119616 
440.173 1151541 1424513 1873191 2385397 2852913 3204123 3443519 3637269 
444.030 3876704 4217969 4649215 5085851 5402604 5470042 5207126 4616094 
447.886 3785079 2853880 1952498 1177555 568454 119696 -196572 -411660 
451.743 -551861 -634880 -670810 -665318 -612613 -488981 -241082 212706 
455.600 967397 2105695 3638973 5455984 7283121 8776731 9648088 9788198 
459.457 9285639 8354170 7242622 6160058 5271381 4659296 4315308 4148283 
463.314 4015265 3773982 3320799 2628842 1746456 794418 -74644 -700319 
467.171 -973115 -871378 -466409 109322 715621 1235634 1614304 1856486 
471.028 2017239 2168727 2373137 2650311 2964024 3239840 3402007 3409521 
474.885 3265645 3014002 2718357 2450936 2270370 2213951 2289789 2478693 
478.742 2742431 3034288 3315423 3551039 3714760 3787619 3755199 3611175 
482.599 3364674 3041562 2685116 2350849 2094907 1950934 1922311 1975264 
486.456 2057919 2119280 2135462 2118347 2114418 2181614 2360177 2648177 
490.313 2988945 3280267 3406582 3291018 2925694 2389495 1818420 1367505 
494.170 1146226 1187987 1451440 1844108 2260211 2611009 2856782 3003292 
498.027 3089413 3154790 3223383 3290984 3331884 3311450 3204523 3006661 
501.884 2738096 2433709 2131166 1862376 1649226 1508991 1456926 1503871 
505.740 1648827 1870961 2128603 2361277 2510952 2543946 2458400 2285226 
509.597 2077794 1897118 1793965 1807507 1959221 2252285 2674014 3196145 
513.454 3775653 4351886 4853623 5207897 5353659 5267692 4976810 4562584 
517.311 4131089 3790059 3608936 3603357 3738254 3950426 4175681 4364571 
521.168 4494784 4564525 4582842 4559838 4505028 4429237 4347703 4285826 
525.025 4273880 4333513 4467031 4648010 4826350 4942391 4952210 4838546 
528.882 4615357 4320394 4005633 3723850 3513459 3395529 3371920 3431329 
532.739 3557220 3733809 3946581 4177220 4401923 4592519 4719484 4762998 
536.596 4719987 4607354 4456352 4306172 4191706 4129049 4116036 4131825 
540.453 4148685 4140857 4096803 4019646 3926452 3837524 3771141 3736182 
544.310 3734210 3761449 3815329 3897632 4011753 4158586 4329832 4503053 
548.167 4646369 4724475 4710608 4597910 4407011 4181636 3974267 3835820 
552.024 3797713 3864569 4014997 4209170 4397439 4529402 4569381 4497429 
555.881 4315375 4044661 3728997 3427521 3204223 3120782 3215639 3493952 
559.738 3918896 4420802 4909650 5293349 5509034 5534034 5392506 5140466 
563.594 4849870 4582574 4371532 4221515 4113628 4021619 3927020 3829401 
567.451 3745640 3700758 3712688 3782305 3889876 4004262 4093057 4138582 
571.308 4143934 4130921 4127777 4156880 4222954 4309518 4381975 4399413 
575.165 4330769 4166782 3926787 3652272 3397766 3212534 3126522 3150051 
579.022 3272322 3467265 3697450 3924246 4113260 4240587 4299178 4295898 
582.879 4249052 4180331 4111253 4056634 4022354 4005868 3999179 3993963 
586.736 3984667 3969719 3951863 3934176 3918929 3906559 3898334 3898000 
590.593 3915118 3963098 4052386 4184781 4347067 4510552 4637125 4692588 
594.450 4655042 4521969 4311125 4056199 3796142 3562431 3376595 3246182 
598.307 3171979 3154357 3197513 3307978 3488274 3729030 4004530 4273211 
602.164 4490197 4612812 4615123 4494415 4272375 3989147 3691100 3423046 
606.021 3214937 3080369 3017205 3012901 3048936 3107066 3174883 3245682 
609.878 3318395 3395629 3478454 3564335 3645389 3709413 3744604 3743000 
613.735 3704334 3635732 3548801 3454707 3357528 3253326 3131628 2983107 
617.592 2807256 2619142 2449036 2338956 2326964 2439473 2680949 3032686 
621.448 3454273 3892784 4296902 4620916 4837004 4937163 4930829 4839149 
625.305 4687564 4499002 4285726 4049510 3783742 3481126 3141707 2780211 
629.162 2424912 2116383 1893823 1782719 1787144 1888965 2053824 2242592 
633.019 2427778 2596175 2749899 2899008 3051505 3204656 3345374 3452302 
636.876 3505910 3495121 3419573 3286577 3107667 2893938 2653911 2398091 
640.733 2142121 1906503 1717149 1595780 1553281 1586369 1678463 1805510 
644.590 1943045 2074598 2190173 2283827 2349083 2375569 2352715 2276965 
648.447 2158937 2025494 1912060 1852160 1860013 1925772 2016906 2095074 
652.304 2129502 2112820 2061381 2007585 1981988 1995768 2036813 2075031 
656.161 2079992 2036280 1955959 1874256 1836621 1875088 1996401 2175287 
660.018 2366107 2517250 2591509 2577576 2488557 2354314 2208156 2079526 
663.875 1984218 1929666 1917518 1949735 2031220 2167129 2356979 2580542 
667.732 2788914 2921858 2946210 2883031 2782178 2688517 2624142 2594742 
671.589 2595342 2615709 2642743 2664246 2669947 2654845 2620075 2573609 
675.446 2529948 2505086 2512985 2558244 2632143 2713455 2773875 2790682 
679.302 2754134 2675581 2582942 2515817 2508452 2578909 2725659 2930331 
683.159 3164736 3399870 3613881 3792098 3924246 4002390 4017739 3964235 
687.016 3844310 3673891 3483564 3310182 3188902 3137302 3154256 3220145 
690.873 3308880 3397098 3472976 3539414 3609003 3699221 3823685 3992291 
694.730 4210575 4481627 4806348 5181305 5593740 6019468 6426444 6778908 
698.587 7051332 7237501 7355806 7441716 7533408 7657930 7817911 7992225 
702.444 8144968 8245217 8281082 8269633 8250553 8275273 8386328 8602135 
706.301 8912873 9285030 9675564 10044884 10372300 10658261 10922870 11196002 
710.158 11510712 11894570 12363680 12922959 13565954 14280161 15049121 
713.533 15858930 16702274 17579552 18498712 19471694 20507574 21606732 
716.908 22756720 23932798 25103328 26234010 27293154 28256002 29097820 
720.282 29795006 30321598 30653040 30775056 30689668 30417398 29990760 
723.657 29446416 28815498 28117796 27367114 26575874 25763222 24957874 
727.032 24192030 23493456 22878456 22346506 21884056 21470556 21089796 
730.407 20733662 20403240 20103676 19838100 19601906 19384342 19170590 
733.782 18951198 18724032 18496014 18278864 18083134 17913322 17766596 
737.156 17634758 17508274 17380412 17247554 17107500 16957878 16793186 
740.531 16606353 16392589 16151933 15891064 15623413 15365023 15129705 
743.906 14926747 14759705 14626379 14519850 14430816 14347759 14258281 
747.281 14151671 14021713 13870072 13707744 13553170 13426432 13339466 
750.656 13289414 13256140 13207668 13107633 12931391 12674904 12358668 
754.031 12019396 11699688 11434402 11238435 11106695 11018324 10948727 
757.405 10878122 10800124 10721597 10657039 10620707 10618635 10646750 
760.780 10692322 10739258 10773834 10790172 10789492 10777264 10759194 
764.155 10737220 10708284 10666479 10607295 10531416 10448728 10377661 
767.530 10339791 10355638 10436781 10581185 10773663 10988010 11195934 
770.905 11369977 11491727 11553278 11555660 11505438 11410250 11275976 
774.279 11106185 10903808 10674357 10426565 10173317 9927268 9698502 9491666 
778.136 9305375 9133476 8968242 8803509 8636812 8470448 8310362 8165495 
781.993 8045519 7957667 7905903 7887817 7895004 7913090 7926250 7921661 
785.850 7892338 7840683 7777463 7717693 7673106 7647712 7633279 7614025 
789.707 7569045 7483683 7355873 7199567 7040253 6909409 6834880 6830774 
793.564 6896212 7013953 7159042 7302698 7421256 7501650 7540825 7544162 
797.421 7521305 7483413 7439154 7394293 7351728 7313447 7281537 7261018 
801.278 7258862 7284604 7348392 7457356 7615239 7819833 8063948 8335897 
805.135 8620858 8902084 9160649 9378974 9541317 9637213 9665197 9634470 
808.992 9566076 9487703 9431524 9422483 9472126 9576340 9717917 9870727 
812.849 10009280 10116336 10184375 10215820 10217856 10197367 10157172 
816.224 10095683 10008263 9891539 9744280 9568515 9367530 9144812 8903944 
820.081 8650197 8393759 8149424 7934585 7765927 7653243 7597098 7588803 
823.938 7614868 7662180 7720560 7784918 7850939 7912179 7957498 7971132 
827.794 7938634 7854313 7725720 7574540 7429379 7318063 7255021 7236086 
831.651 7239523 7235783 7197108 7109394 6977553 6824278 6681049 6576014 
835.508 6526937 6534370 6582641 6645216 6695888 6715237 6697200 6649927 
839.365 6594146 6556201 6559094 6617931 6733947 6896212 7082517 7268127 
843.222 7430626 7552861 7626872 7650849 7626771 7557581 7447952 7304854 
847.079 7140112 6974355 6833365 6742494 6722808 6782442 6914897 7100300 
850.936 7311627 7518742 7694185 7817472 7873949 7855325 7760867 7597974 
854.793 7385497 7151665 6934423 6768340 6678324 6671426 6735158 6842656 
858.650 6962199 7070124 7155135 7220690 7277528 7335620 7395506 7446738 
862.507 7470334 7449030 7373701 7249226 7091779 6925232 6773590 6654637 
866.364 6580017 6555293 6581262 6655276 6770124 6913449 7066285 7208056 
870.221 7321197 7397394 7442019 7473232 7515978 7590759 7706765 7856270 
874.078 8017436 8158810 8252173 8279122 8234884 8127851 7975654 7801380 
877.935 7627277 7475592 7365006 7308123 7309909 7364636 7456378 7560447 
881.792 7650748 7708417 7726765 7715804 7699952 7711689 7778205 7916599 
885.648 8126029 8387476 8666861 8924914 9125998 9242246 9261132 9184947 
889.505 9030147 8821160 8586926 8353866 8140377 7956149 7802730 7677119 
893.362 7575518 7495987 7439390 7407134 7398978 7411178 7435547 7462345 
897.219 7481491 7485739 7470738 7434806 7377644 7299294 7201453 7089287 
901.076 6972974 6867262 6787423 6743807 6737615 6758917 6789240 6808492 
904.933 6804790 6778268 6743436 6722068 6736370 6798025 6904191 7038232 
908.790 7176929 7298789 7388698 7442963 7464603 7458671 7427660 7370836 
912.647 7287737 7182724 7069753 6970920 6911429 6913146 6985331 7120745 
916.504 7297138 7485874 7657357 7790990 7879247 7925102 7938162 7928679 
920.361 7905329 7873477 7836904 7801110 7773179 7762385 7777159 7820812 
924.218 7889673 7972246 8052033 8110702 8134300 8116744 8062294 7984024 
928.075 7902022 7839131 7813862 7837748 7911639 8026516 8164246 8302426 
931.932 8420886 8504304 8547421 8555734 8543636 8529478 8531336 8562324 
935.789 8626401 8718175 8824270 8928330 9014416 9072199 9098962 9099199 
939.646 9082079 9057279 9032007 9008292 8984342 8956809 8924338 8890315 
943.502 8862516 8849801 8858898 8888793 8929919 8964047 8970981 8933166 
947.359 8842294 8701509 8527146 8343699 8178258 8056422 7997625 8010484 
951.216 8093789 8235627 8416359 8610652 8794549 8947778 9057921 9121802 
955.073 9143797 9132359 9094225 9031262 8940066 8814702 8652732 8460447 
958.930 8255820 8067763 7926419 7856372 7868281 7954731 8091223 8243562 
962.787 8378896 8472037 8513494 8508899 8476631 8439771 8420278 8434906 
966.644 8490586 8584628 8704991 8833976 8948793 9026391 9047873 9001019 
970.501 8884092 8706174 8486227 8247243 8011868 7798041 7613924 7459075 
974.358 7325039 7200544 7074333 6938901 6791933 6635762 6475006 6314141 
978.215 6156361 6002871 5853634 5709986 5574643 5453232 5351781 5274668 
982.072 5221110 5184256 5152436 5110794 5046630 4953048 4830437 4685554 
985.929 4528565 4369256 4212081 4055831 3894523 3721344 3531664 3325574 
989.786 3108701 2888535 2671847 2460699 2252085 2038677 1812364 1568245 
993.643 1307347 1037737 773340 529373 319397 150487 22233 -72690 -144738 
997.982 -203064 -251745 -289163 -309328 -308567 -290190 -269594 -272971 
1001.839 -328168 -457770 -666939 -939625 -1239463 -1522884 -1752266 -1909287 
1005.695 -2002734 -2064867 -2140674 -2266342 -2461299 -2715771 -2996388 
1009.070 -3252487 -3434444 -3505905 -3450421 -3274159 -3003133 -2678430 
1012.445 -2344685 -2047356 -1823673 -1694709 -1666225 -1726689 -1852840 
1015.820 -2012431 -2173051 -2307542 -2392830 -2412272 -2352001 -2199029 
1019.195 -1945639 -1594197 -1163102 -686226 -210283 219137 570677 833490 
1023.052 1020367 1159315 1284848 1422352 1582744 1760296 1938719 2096572 
1026.909 2213684 2273501 2258413 2145851 1905870 1496090 865594 -39858 
1030.766 -1253505 -2752451 -4354736 -5621397 -5970871 -5093923 -3324141 
1034.142 -1314094 455301 1823012 2809023 3481527 3910002 4144904 4219207 
1037.999 4155575 3974233 3697483 3347444 2948545 2521650 2082256 1643273 
1041.857 1212840 795746 392418 -728 -391335 -788635 -1200475 -1630806 
1045.714 -2077893 -2537564 -3005963 -3484178 -3977628 -4493866 -5033598 
1049.089 -5584304 -6114516 -6581849 -6942388 -7165830 -7247661 -7212402 
1052.464 -7109150 -6996907 -6934693 -6964073 -7098165 -7320679 -7592639 
1055.840 -7861727 -8071915 -8179555 -8158257 -8006016 -7742648 -7404825 
1059.215 -7033879 -6662517 -6312586 -5989565 -5686317 -5387014 -5074078 
1062.590 -4733549 -4355293 -3936356 -3478656 -2989346 -2478596 -1961505 
1065.965 -1455621 -977744 -542760 -159213 174452 470227 747849 1030231 
1069.823 1335431 1668717 2019769 2364808 2675814 2928163 3112539 3239139 
1073.680 3337026 3443118 3590728 3801390 4076033 4398576 4739515 5068452 
1077.538 5358859 5595485 5775458 5904617 5993633 6053200 6090463 6108104 
1081.395 6102997 6069361 6001258 5896992 5762732 5614181 5476418 5379054 
1085.253 5346950 5395861 5525746 5720763 5950668 6181332 6379738 6520310 
1089.110 6590109 6588090 6522463 6407748 6263884 6113582 5979053 5882550 
1092.967 5839159 5854003 5920134 6020072 6129174 6221127 6276792 6286205 
1096.825 6251345 6183281 6098292 6012983 5940489 5889233 5861559 5854507 
1100.682 5860115 5868008 5866832 5847723 5808130 5752223 5692092 5642108 
1104.540 5617101 5624754 5664934 5728183 5801313 5871366 5929573 5974787 
1108.397 6011069 6045002 6082062 6123730 6168494 6212926 6254169 6291684 
1112.255 6326951 6363061 6402031 6444974 6492528 6544966 6603599 6669710 
1116.112 6742797 6818556 6887931 6938362 6956408 6932672 6865781 6763932 
1119.969 6642760 6520714 6415179 6335961 6285364 6257564 6243345 6233160 
1123.827 6221430 6208455 6200927 6208960 6242539 6307989 6403578 6519335 
1127.684 6636266 6733947 6792303 6800044 6757840 6679502 6588394 6509379 
1131.542 6463605 6461688 6501576 6571439 6655007 6736841 6806910 6863122 
1135.399 6909611 6953816 7002874 7062176 7134588 7220757 7320186 7430492 
1139.256 7547332 7662011 7763363 7838052 7874860 7868990 7825265 7758472 
1143.114 7688923 7639113 7626063 7657560 7730813 7834880 7954563 8075122 
1146.971 8187240 8287904 8378964 8464231 8546306 8624069 8693328 8748669 
1150.829 8787245 8811489 8830222 8856463 8903031 8978017 9080556 9199026 
1154.686 9314277 9405993 9457259 9460680 9419233 9344712 9252264 9154761 
1158.544 9060561 8971726 8888557 8812098 8747147 8701644 8684066 8697723 
1162.401 8738932 8795563 8851525 8890281 8901611 8884261 8845912 8798572 
1166.258 8755126 8723719 8706207 8698466 8692145 8677947 8647222 8593516 
1170.116 8513359 8407103 8278380 8135853 7991989 7860622 7754559 7681807 
1173.973 7643025 7631087 7633313 7636146 7627952 7603504 7565100 7521507 
1177.831 7484559 7466187 7474851 7512337 7573158 7644610 7711251 7756718 
1181.688 7769570 7746362 7692128 7618914 7541634 7474311 7424324 7392473 
1185.546 7373296 7360322 7348628 7337743 7331037 7332722 7343303 7358468 
1189.403 7368275 7362007 7332250 7278977 7209404 7135767 7070090 7018869 
1193.260 6982099 6954220 6928531 6900959 6872917 6849691 6837842 6841780 
1197.118 6860597 6889816 6923818 6958496 6993244 7030116 7071067 7115558 
1200.975 7160086 7198523 7226687 7244913 7259536 7280459 7316749 7372791 
1204.833 7445323 7523934 7594872 7645757 7669127 7662652 7628322 7569550 
1208.690 7489548 7390586 7277461 7157964 7043755 6948732 6882983 6849994 
1212.547 6844204 6853797 6864367 6865545 6855548 6840367 6830639 6834981 
1216.405 6856389 6889850 6923919 6945938 6947553 6927993 6894192 6856356 
1220.262 6825994 6809131 6805867 6810579 6815123 6811925 6797654 6774297 
1224.120 6748888 6732600 6735158 6763561 6818724 6894091 6976644 7050995 
1227.977 7103904 7127649 7123304 7099727 7071201 7050995 7047695 7062917 
1231.835 7092217 7126672 7158605 7183566 7200173 7209067 7209673 7199769 
1235.692 7175919 7136575 7086289 7035336 6999541 6995062 7031059 7106497 
1239.549 7209269 7320254 7418661 7489885 7529396 7541465 7536206 7523664 
1243.407 7511056 7500470 7492009 7485773 7484222 7493324 7519720 7567932 
1247.264 7638102 7725214 7819732 7909884 7984699 8035427 8056557 8046599 
1251.122 8007683 7946767 7874590 7805530 7753783 7729970 7737458 7770581 
1254.979 7817067 7861229 7890752 7900841 7895983 7887108 7887581 7906442 
1258.837 7944843 7995668 8047376 8088320 8112322 8120087 8118601 8118061 
1262.694 8127480 8152767 8196390 8257678 8333803 8420244 8512008 8602236 
1266.551 8683897 8750765 8798032 8824305 8830830 8820923 8798708 8767839 
1270.409 8732069 8695695 8663379 8641138 8633161 8641577 8663717 8693531 
1274.266 8723043 8745254 8757865 8763782 8770138 8784744 8812977 8854535 
1278.124 8903707 8951600 8991243 9019389 9038198 9054133 9074466 9103124 
1281.981 9139703 9178923 9213308 9235849 9242279 9231855 9206438 9169752 
1285.839 9125795 9079473 9036371 9002880 8986271 8992292 9023617 9079305 
1289.696 9154152 9241027 9332186 9422110 9508430 9590770 9670652 9749532 
1293.553 9827985 9906217 9984224 10062381 10141401 10221214 10300534 
1296.929 10376236 10444350 10501543 10546693 10581389 10610181 10637820 
1300.304 10667973 10701356 10735317 10766191 10790342 10806069 10814697 
1303.679 10819350 10823224 10828251 10833517 10836064 10830969 10813203 
1307.054 10778623 10724347 10649840 10556436 10448321 10331885 10215142 
1310.430 10107349 10016503 9947405 9901369 9874692 9860456 9848965 9831985 
1314.287 9803652 9760817 9703211 9632132 9549513 9457665 9359642 9259643 
1318.144 9162443 9073451 8996453 8933910 8885885 8850917 8826401 8809798 
1322.002 8798674 8790965 8784947 8779740 8775615 8775784 8785792 8813112 
1325.859 8864883 8944361 9048517 9167959 9287196 9389301 9462881 9505009 
1329.717 9524518 9538608 9569599 9635519 9745228 9894996 10071368 10256394 
1333.574 10433896 10595242 10739801 10873401 11004526 11141300 11289102 
1336.949 11449813 11623244 11807775 12001036 12197519 12388294 12559882 
1340.325 12697489 12790093 12833159 12829782 12789069 12724647 12652218 
1343.700 12586657 12541568 12526187 12544057 12593854 12671459 12772109 
1347.075 12891931 13029473 13183041 13350572 13527429 13705897 13876605 
1350.450 14030509 14159955 14262013 14338376 14395742 14443832 14493127 
1353.826 14553153 14629806 14725908 14841916 14977950 15135846 15320331 
1357.201 15537999 15796250 16100800 16455561 16863520 17329686 17865984 
1360.576 18492626 19235316 20118044 21146286 22292404 23493874 24669814 
1363.951 25747610 26678602 27444614 28047420 28500454 28825484 29055236 
1367.327 29236834 29427588 29694768 30097390 30675122 31448402 32422266 
1370.702 33601972 35004640 36665588 38629608 40925948 43534960 46347124 
1374.077 49157060 51722264 53826572 55352028 56275932 56619720 56404760 
1377.452 55632408 54298124 52425432 50096384 47454764 44662688 41873672 
1380.828 39193680 36673736 34333580 32174244 30192606 28381166 26722400 
1384.203 25183692 23717218 22270674 20799318 19285228 17749856 16250366 
1387.578 14856488 13619560 12555961 11653977 10889436 10239736 9688778 
1390.953 9224341 8834787 8505284 8218844 7958309 7711858 7473604 7245149 
1394.811 7031026 6833399 6651003 6481262 6324530 6186105 6076384 6004853 
1398.668 5974316 5976500 5994305 6010766 6015671 6008751 5995077 5981673 
1402.526 5972401 5967295 5964373 5963029 5965582 5978213 6005659 6047690 
1406.383 6096847 6142919 6177467 6199111 6214707 6237530 6280019 6348132 
1410.240 6436668 6531814 6617527 6684246 6734216 6779817 6835452 6909544 
1414.098 6999170 7092419 7174639 7235581 7276652 7310751 7359715 7443502 
1417.955 7572416 7738301 7919738 8095950 8262744 8430683 8615654 8826942 
1421.813 9065162 9323858 9595953 9877065 10168433 10475237 10802060 11147488 
1425.670 11504520 11866238 12232791 12615684 13039955 13538606 14143011 
1429.045 14872055 15723066 16675347 17700156 18771982 19872922 20988868 
1432.421 22108420 23217898 24307896 25382264 26460386 27583808 28808310 
1435.796 30181952 31698794 33282510 34817344 36215776 37460632 38592376 
1439.171 39672728 40763344 41908700 43133008 44437304 45806976 47219468 
1442.546 48651208 50085972 51512212 52921332 54308716 55672972 57021164 
1445.922 58371544 59750584 61183300 62679356 64225680 65789528 67339440 
1449.297 68866640 70388664 71944248 73572560 75296168 77104760 78955208 
1452.672 80790672 82554488 84219376 85789368 87284920 88721944 90081744 
1456.047 91287760 92215656 92776064 93003776 93029024 92983088 92919232 
1459.422 92831168 92693200 92488904 92215616 91877152 91470432 90975432 
1462.798 90347048 89522880 88438552 87058368 85396984 83499544 81403136 
1466.173 79108832 76578272 73778168 70708408 67420464 63987344 60492020 
1469.548 56988900 53462840 49846572 46045520 42018224 37871068 33893840 
1472.923 30433106 27675190 25574880 23938050 22551774 21279716 20067758 
1476.299 18928494 17898510 17004426 16240427 15575260 14968655 14389645 
1479.674 13824130 13274997 12754127 12273962 11839576 11447670 11090005 
1483.049 10760248 10455991 10177489 9923370 9688473 9463998 9240892 9015396 
1486.907 8791979 8581621 8396260 8239207 8101959 7965867 7814975 7648960 
1490.764 7482368 7333093 7209673 7107542 7012707 6908399 6780793 6623886 
1494.621 6441914 6250707 6071747 5925005 5818271 5744098 5685546 5629755 
1498.479 5574039 5522725 5479404 5442663 5405120 5358188 5297709 5226710 
1502.336 5154213 5092556 5052462 5039121 5049345 5070430 5079750 5045021 
1506.194 4938168 4758274 4546578 4354397 4202044 4081885 3982359 3898836 
1510.051 3833346 3788254 3762017 3745339 3724251 3684584 3619628 3532566 
1513.909 3435971 3345841 3278398 3243178 3238137 3247618 3248119 3221747 
1517.766 3162734 3076398 2971463 2855381 2733394 2614742 2518750 2472129 
1521.623 2495722 2585242 2712722 2842307 2946777 3012300 3033220 3012967 
1525.481 2962189 2896640 2831334 2776509 2734428 2701686 2673314 2645677 
1529.338 2616609 2584342 2545979 2497821 2436541 2361710 2279830 2206391 
1533.196 2160069 2152244 2175154 2208489 2231835 2233767 2213718 2177085 
1537.053 2133297 2092643 2065277 2057120 2067674 2088215 2109191 2127703 
1540.911 2148914 2175487 2203127 2222776 2226573 2213151 2189140 2165464 
1544.768 2153110 2155640 2167761 2179383 2182214 2172090 2150779 2124074 
1548.625 2099902 2083488 2074998 2067374 2051527 2021799 1978626 1927303 
1552.483 1875554 1829400 1790804 1756736 1721673 1681157 1635523 1590160 
1556.340 1553148 1533862 1540246 1578155 1645667 1729457 1808771 1873291 
1560.198 1924108 1962882 1986681 1991075 1972435 1931829 1875520 1815791 
1564.055 1767449 1742531 1744028 1764388 1789374 1806176 1808771 1800286 
1567.912 1791503 1796427 1827171 1884838 1956625 2022665 2068972 2091711 
1571.770 2094341 2083055 2061614 2032119 1994337 1949236 1899747 1853691 
1575.627 1822080 1813895 1828269 1855421 1883607 1906603 1924374 1940416 
1579.485 1958622 1981122 2006620 2031054 2048831 2055921 2051194 2036513 
1583.342 2015741 1993372 1972668 1955926 1945475 1943079 1951300 1971769 
1587.200 2004223 2045468 2089381 2128603 2156806 2170792 2171691 2163532 
1591.057 2151245 2138825 2127737 2118114 2109723 2103264 2100834 2105395 
1594.914 2119679 2144152 2177652 2218014 2262876 2310908 2361676 2413784 
1598.772 2465098 2511518 2548679 2573776 2587675 2595042 2602308 2615275 
1602.629 2635143 2658512 2678015 2686083 2678982 2657945 2629576 2601375 
1606.487 2580676 2571176 2572343 2580842 2592942 2605542 2617809 2628743 
1610.344 2635810 2633843 2616775 2579309 2519783 2441006 2349050 2251652 
1614.202 2155907 2068073 1992207 1930798 1884505 1852526 1832994 1823777 
1618.059 1822679 1827637 1836854 1847967 1858582 1865837 1865737 1854190 
1621.916 1826871 1783485 1729557 1677265 1641177 1631532 1650856 1694895 
1625.774 1753908 1816091 1867401 1896219 1896153 1868665 1822147 1769046 
1629.631 1720475 1682255 1656943 1644204 1642341 1650058 1666222 1690471 
1633.489 1722205 1760994 1806142 1855355 1903740 1943811 1967276 1969373 
1637.346 1948870 1908932 1855488 1797226 1744826 1708267 1694495 1703144 
1641.203 1726463 1749983 1759098 1743396 1700450 1635224 1560830 1494494 
1645.061 1452770 1449013 1486049 1551951 1624282 1684683 1728825 1764255 
1648.918 1800586 1844440 1898682 1963814 2038377 2117648 2191605 2235265 
1652.776 2213251 2108958 1955160 1802982 1679560 1586103 1515508 1462644 
1656.633 1425177 1403304 1399016 1414108 1448880 1501277 1566017 1635656 
1660.491 1699452 1746722 1767981 1759697 1726729 1683352 1646432 1626942 
1664.348 1627408 1642441 1663528 1681789 1690604 1685980 1667653 1639015 
1668.205 1609083 1591025 1596612 1631066 1688176 1752944 1808139 1841113 
1672.063 1846037 1822812 1776431 1717182 1661366 1628140 1634658 1684982 
1675.920 1766983 1858316 1939551 2000894 2038577 2052825 2044503 2015308 
1679.778 1967542 1905737 1836488 1767016 1704408 1655812 1627375 1623484 
1683.635 1641344 1668118 1686479 1690071 1685581 1683785 1692101 1713489 
1687.493 1747088 1789507 1835057 1878183 1915755 1946640 1971503 1991341 
1691.350 2005854 2013644 2012978 2002692 1983253 1956359 1926105 1897717 
1695.207 1877450 1868699 1870396 1876286 1881211 1881777 1877118 1866868 
1699.065 1850430 1827603 1799954 1771707 1747421 1729158 1716151 1706903 
1702.922 1700782 1698520 1702745 1717481 1746523 1790838 1846703 1906037 
1706.780 1960319 2002992 2030987 2043837 2042938 2030388 2008551 1980057 
1710.637 1947539 1913026 1878515 1845771 1815658 1787976 1763290 1741366 
1714.495 1723735 1713889 1717880 1742331 1791104 1860612 1935990 1996467 
1718.352 2025528 2021866 1995968 1962250 1931097 1908400 1894189 1884472 
1722.209 1872392 1852127 1820250 1779126 1735378 1696924 1670147 1657308 
1726.067 1656211 1662663 1672176 1681955 1691069 1700150 1709697 1718346 
1729.924 1722538 1717681 1700184 1669848 1630468 1589728 1559333 1551718 
1733.782 1572036 1610879 1647364 1665291 1658340 1628506 1578920 1511651 
1737.639 1426574 1324131 1208288 1087162 973640 879903 812477 770851 748745 
1741.979 737925 729129 714758 690000 653463 607340 556212 505389 458950 
1746.318 419215 386680 359918 336374 313760 290384 266877 245725 230408 
1750.658 224375 229547 245029 268269 296120 326260 357630 391025 428070 
1754.997 471620 524065 586702 657777 732681 804410 866822 916592 953118 
1759.337 978190 996588 1014854 1040428 1079854 1134631 1199350 1262949 
1763.194 1313994 1345003 1354276 1345169 1324795 1302462 1286543 1284051 
1767.052 1297776 1325161 1359494 1393099 1420523 1439738 1450775 1454000 
1770.909 1448049 1429831 1397952 1355971 1312997 1280329 1265840 1270658 
1774.767 1290963 1318879 1345535 1362153 1363915 1350454 1325958 1297610 
1778.624 1272719 1257532 1255273 1265408 1283984 1305552 1324995 1338954 
1782.482 1345634 1344438 1335264 1318979 1298141 1276540 1259759 1252481 
1786.339 1258130 1277870 1310903 1355705 1410517 1473648 1544569 1621089 
1790.196 1699319 1770143 1818653 1828169 1787244 1697356 1573932 1439505 
1794.054 1314492 1212342 1139581 1094968 1071650 1058031 1041789 1012895 
1797.911 967431 908723 848396 802651 785622 805306 857593 927384 993500 
1802.251 1037937 1049761 1027973 978954 913670 843682 778220 724051 685122 
1806.590 663717 661560 679480 717646 773606 842719 916891 986061 1040062 
1810.930 1070753 1074141 1051089 1006584 947307 879837 810452 744596 687677 
1815.270 645234 621873 620745 641617 681372 733942 791331 846471 892752 
1819.609 925557 941396 938806 917024 877114 822037 756080 685918 619982 
1823.949 567426 536738 533022 555416 598216 652468 708619 757375 791564 
1828.288 803381 787780 743799 679248 609032 549477 512156 500214 509005 
1832.628 529440 550440 562383 557606 533421 493414 446943 405816 382833 
1836.968 386548 419049 474539 540686 602960 648751 670885 669823 652601 
1841.307 630998 618622 628443 667700 733842 813605 888569 941662 968360 
1845.647 975500 978024 989381 1017544 1062083 1114334 1159548 1180744 
1849.504 1165993 1110879 1020832 906697 784394 668728 572137 502635 462598 
1853.844 448535 454107 472151 496996 523966 550871 574957 593571 604221 
1858.183 605880 598813 587034 576815 575289 588395 618091 661262 709979 
1862.523 753491 781871 787348 767532 724284 664447 597453 533387 482865 
1866.863 455301 458883 498655 573697 674303 783564 883655 959328 1001204 
1871.202 1006717 977459 918684 838736 749276 662689 591547 546724 533653 
1875.542 552795 597784 656649 714692 758337 778651 773374 747451 711008 
1879.881 676660 654791 651937 668463 701649 745260 793190 840329 881364 
1884.221 911379 926122 921606 896172 851583 793555 730590 673474 631131 
1888.561 607838 600306 599410 593604 574858 542511 503266 468469 448866 
1892.900 450657 473013 507744 540520 555582 543207 502503 442299 376798 
1897.240 320358 281564 260710 250399 239260 216220 176640 124867 73066 37906 
1902.062 31909 60142 116282 185258 248079 291511 311140 314721 316777 333589 
1906.883 375571 443195 524530 601235 654857 672014 649515 594267 519023 
1911.223 436860 357099 285510 224309 176308 144289 131628 139848 166861 
1915.563 206308 247946 280006 292440 279177 242343 190496 135903 88112 53581 
1920.384 33069 23194 16136 -463 -38665 -109063 -212734 -339491 -466839 
1924.724 -568605 -617973 -596533 -499638 -338398 -138411 68957 251725 384956 
1929.064 455566 460210 405285 301259 163812 9741 -141923 -271084 -360448 
1933.403 -399379 -387793 -336544 -263600 -187564 -119895 -65004 -21139 12922 
1937.743 32439 24387 -28527 -140631 -312738 -527339 -745604 -919754 -1001877 
1942.082 -969380 -834639 -644376 -456810 -320817 -261978 -276316 -338564 
1945.940 -413713 -472466 -497851 -490040 -462371 -437976 -439896 -484149 
1949.797 -576712 -711864 -870452 -1024289 -1143737 -1201004 -1178633 
1953.172 -1077076 -912645 -712625 -506191 -319625 -168851 -61293 1159 17959 
1957.512 -11961 -87895 -201871 -333233 -447542 -506390 -477795 -355217 
1961.370 -161862 49836 221292 304078 279078 161923 -828 -150568 -241446 
1965.709 -252143 -193029 -96475 -4241 53779 69752 54972 30484 13121 11530 
1970.531 25845 57193 114493 216883 387410 640356 969954 1340117 1687277 
1974.870 1938919 2028291 1926937 1654814 1280694 888403 558535 338563 227955 
1979.210 189568 165768 108858 -5036 -165638 -340153 -483587 -563211 -570425 
1983.550 -526710 -470546 -446781 -482494 -578003 -707927 -832258 -913372 
1987.407 -932814 -898559 -839202 -791116 -778250 -802824 -844659 -870816 
1991.265 -849520 -767467 -637660 -492390 -369817 -297574 -285057 -321678 
1995.122 -386733 -457770 -521614 -575024 -624227 -675872 -730521 -779143 
1998.979 -805602 -790454 -723376 -607584 -464456 -330320 -246579 -251745 
2002.837 -365248 -582039 -870353 -1186332 -1477184 -1702861 -1849442 
2006.212 -1933105 -1993598 -2079410 -2223292 -2425913 -2651821 -2838672 
2009.587 -2921849 -2859970 -2650274 -2329030 -1963154 -1624733 -1364996 
2012.963 -1208603 -1142085 -1125396 -1101038 -1020355 -848065 -578168 
2016.338 -230949 145184 485154 722989 806701 714692 460144 91028 -322539 
2020.677 -705479 -991860 -1150280 -1187489 -1142713 -1063955 -991761 -942931 
2024.535 -907321 -862450 -792836 -704090 -627734 -608709 -684208 -866848 
2028.392 -1134253 -1432999 -1696920 -1879662 -1960318 -1950917 -1879399 
2031.767 -1773386 -1641270 -1475005 -1253802 -966074 -623499 -269130 37509 
2035.625 229613 261539 125728 -144407 -486400 -829380 -1110986 -1293876 
2039.482 -1369290 -1353534 -1280232 -1187159 -1107681 -1058997 -1043461 
2042.858 -1051361 -1068714 -1082761 -1091024 -1099485 -1121595 -1169976 
2046.233 -1250961 -1357630 -1471802 -1568116 -1625294 -1635857 -1610538 
2049.608 -1575875 -1561744 -1593735 -1682002 -1816711 -1971071 -2112022 
2052.983 -2206084 -2230248 -2177765 -2057513 -1889791 -1698306 -1504459 
2056.358 -1320502 -1149719 -987397 -826900 -664921 -501955 -344556 -201772 
2060.216 -81800 13386 86223 143924 191656 228618 243305 217844 130037 -33961 
2065.038 -271978 -559505 -857787 -1118323 -1299492 -1379859 -1361395 
2068.413 -1268934 -1138020 -1006472 -902329 -837284 -810497 -811952 -830703 
2072.270 -856564 -882588 -902130 -904808 -878984 -813209 -703329 -555567 
2076.128 -388687 -229127 -101709 -23855 1888 -12358 -43602 -68648 -69045 
2080.467 -35915 27502 112836 208264 304708 395236 476397 544136 593405 
2084.807 617294 608004 558833 467607 336971 176772 563 -172428 -322539 
2089.146 -432283 -489809 -492324 -447906 -373160 -288236 -210979 -152787 
2093.004 -114098 -87233 -59703 -21139 32439 96397 160564 212275 243271 
2097.344 251129 239260 214065 180352 139417 90498 32373 -31674 -92467 
2101.683 -135198 -143016 -103167 -10702 127153 293998 463991 610293 708021 
2106.023 739651 697999 587200 422001 224607 22531 -156430 -291945 -371571 
2110.362 -394645 -370479 -314361 -241148 -163585 -88690 -18057 48941 113068 
2114.702 173425 226397 268203 295722 309118 310278 303381 292108 278680 
2119.042 263130 244598 221756 195103 167027 141704 124668 121121 133385 
2123.381 160564 195170 224706 230873 195998 106539 -40521 -233631 -445589 
2127.721 -638718 -777489 -835432 -808611 -715040 -593224 -484745 -424008 
2131.578 -423809 -472731 -536142 -571120 -544547 -443140 -280157 -90744 
2135.436 78170 188010 218772 174286 77871 -37439 -138842 -206674 -234823 
2139.775 -231810 -212105 -193128 -185875 -192532 -206508 -216609 -210283 
2143.633 -178357 -118603 -36611 56265 145979 219402 266147 282426 269264 
2147.972 231569 174154 99280 6162 -110355 -256779 -436321 -646758 -874024 
2152.312 -1093866 -1267744 -1350132 -1297444 -1078167 -689171 -163816 421636 
2156.169 963047 1346199 1470590 1287308 817191 158707 -548419 -1156096 
2160.027 -1560193 -1728274 -1685929 -1499936 -1249904 -1010174 -829744 
2163.402 -736971 -738625 -829050 -992521 -1204803 -1430787 -1626944 -1745138 
2167.259 -1749659 -1625789 -1394358 -1108045 -850248 -703462 -731844 -954337 
2171.117 -1338042 -1801434 -2239609 -2559239 -2697200 -2644609 -2443442 
2174.492 -2174139 -1918293 -1736590 -1650447 -1641006 -1663551 -1668931 
2177.867 -1623445 -1515058 -1354789 -1162706 -957544 -748548 -533958 -306944 
2181.725 -66461 178562 407905 595097 716020 754819 708386 586437 408768 
2186.064 197590 -21006 -223696 -389713 -501525 -547195 -524857 -440393 
2189.922 -308434 -147421 23227 189369 337601 454803 526454 533785 458353 
2194.261 290351 33334 -291481 -646162 -983265 -1263780 -1460971 -1572375 
2198.119 -1613938 -1612651 -1592843 -1568347 -1537742 -1489666 -1407735 
2201.494 -1278746 -1096015 -862185 -587665 -288534 10603 279542 486580 
2205.351 600671 603325 497129 308222 80954 -131025 -279958 -342537 -322936 
2209.691 -250089 -161763 -92036 -55694 -48107 -49300 -38400 -4671 48544 
2214.031 108958 160597 197689 225966 261605 320225 409398 520284 632359 
2218.370 721463 767930 764146 716517 638597 543506 439248 328449 211115 
2222.710 93083 -12524 -87730 -116218 -92467 -26870 54840 120956 146245 
2227.049 119696 50167 -38864 -118438 -168222 -180940 -165737 -140035 -121651 
2231.389 -120293 -133045 -146394 -143579 -111448 -46219 43606 142102 228386 
2235.729 286372 306929 292307 252554 204982 168618 158774 183899 244233 
2240.068 328847 421337 502868 556809 573431 553890 508905 456595 416064 
2244.408 404821 430326 491257 574692 662689 736365 781805 794618 781406 
2248.747 756180 734008 725877 731486 738987 726839 675133 572569 425085 
2253.087 256500 104318 8349 -4075 72768 219502 400476 570677 692855 747616 
2257.909 734971 671118 579801 483562 394971 316943 245327 174286 101070 
2262.248 29026 -34855 -81568 -104525 -101577 -75108 -29720 28926 96497 
2266.588 170872 250863 333953 416993 492551 552696 588793 594632 567957 
2270.927 512720 437556 354281 275762 212640 170972 152045 154001 174949 
2275.267 215026 277984 368341 488338 632525 785124 920975 1012629 1036641 
2279.607 982275 856729 683330 496100 327753 203092 131760 109256 121486 
2283.946 152841 191656 233127 277818 328847 387675 452681 519222 583285 
2288.286 643011 700023 757839 818751 880069 934191 969456 974637 944451 
2292.625 881796 798701 711838 638100 589191 568355 570943 587797 609928 
2296.965 631264 650377 670089 693585 722126 753093 780477 797871 800194 
2301.305 787149 761889 731220 701848 678385 662324 651970 644371 637535 
2305.644 631961 630766 638763 659835 695609 743999 799829 856464 907528 
2309.984 948635 977791 993931 997950 990245 971814 945182 915729 890030 
2314.323 877778 886610 920377 976231 1045244 1112773 1162272 1181010 1162039 
2318.663 1107624 1027242 936382 852214 788510 755184 755815 788775 847434 
2323.003 922502 1003064 1077163 1135396 1171275 1183236 1174365 1153601 
2326.860 1132505 1122307 1132838 1167654 1224071 1293256 1362718 1419227 
2330.718 1451274 1453302 1424546 1370696 1301033 1228191 1164598 1120613 
2334.575 1103505 1115297 1152405 1206760 1267967 1326258 1374618 1410019 
2338.432 1433089 1445988 1449545 1441400 1416601 1368402 1292226 1188917 
2342.290 1065737 937976 823398 740049 699990 706262 750404 816029 884551 
2346.629 939802 972478 981943 972644 952388 929874 913205 908158 918485 
2350.969 944684 984732 1034316 1087560 1138751 1182173 1213073 1228258 
2354.826 1227526 1213770 1193835 1177854 1175428 1192639 1228656 1275477 
2358.684 1319046 1343241 1338123 1301465 1240652 1170212 1107923 1066966 
2362.541 1055241 1073742 1117889 1180312 1254276 1332905 1410584 1480663 
2366.399 1535957 1568079 1571571 1542807 1483855 1401609 1306882 1213139 
2370.256 1133901 1080618 1061286 1077662 1124499 1189183 1255439 1303791 
2374.114 1319378 1295184 1234936 1151309 1063910 992337 949532 939171 954612 
2378.453 982673 1007813 1017876 1008145 980648 943289 904905 873595 853177 
2382.793 843815 842885 848164 857759 871238 889133 910881 934257 955277 
2387.132 968958 971382 961652 943023 921772 906233 904008 918452 947905 
2391.472 985031 1019504 1039298 1036342 1007647 958332 899459 846272 814269 
2395.812 814303 849758 915065 998315 1082179 1149448 1188419 1192838 1164996 
2400.151 1113005 1049429 986160 932995 895508 874359 866523 866789 869179 
2404.491 868582 860879 844479 818817 784792 744430 700985 658773 623201 
2408.830 600538 596457 615602 659968 727968 814601 912110 1011500 1103804 
2413.170 1181708 1240652 1278302 1294552 1290897 1270093 1235269 1190546 
2417.027 1140512 1089420 1041490 1000108 967065 943023 927981 920743 918883 
2421.367 919248 916426 904572 878542 835914 779249 716783 662191 630003 
2425.707 631397 670553 741808 831565 920975 994031 1039830 1056138 1047070 
2430.046 1020899 984068 939238 885448 821141 747285 671084 604752 563279 
2434.386 559530 599709 680576 791033 916061 1039298 1148285 1235701 1298208 
2438.725 1335165 1346897 1334400 1299870 1247929 1186326 1124167 1071417 
2442.583 1035412 1019238 1021496 1037605 1061187 1086331 1108288 1124400 
2446.440 1132273 1131010 1119550 1097459 1065870 1026179 980017 928645 
2450.298 872267 811016 746322 682932 628443 593803 589523 621442 689569 
2454.637 784759 893350 998083 1084504 1144897 1177920 1188253 1182538 
2458.495 1166292 1141840 1108155 1062781 1005123 937843 867453 802750 752695 
2462.834 722624 713497 720965 737062 752794 760462 756810 742571 723985 
2467.174 709482 708652 728764 772112 835150 908988 981278 1039000 1072646 
2471.513 1078857 1060622 1026445 986658 950993 924362 906598 892752 877148 
2475.853 854273 823033 786817 753193 729793 723022 734473 760727 794153 
2480.193 825357 846471 853609 847633 833258 817423 805539 800128 799796 
2484.532 801091 800028 795547 790767 791829 806070 838138 887872 948768 
2488.872 1010437 1060788 1090483 1095566 1078127 1043849 1000142 953085 
2492.729 905967 860946 819846 786518 766602 766237 788311 831299 887042 
2497.069 943023 985263 1003695 994396 961951 916459 871968 840860 831731 
2501.408 847566 885880 940500 1002201 1061054 1107690 1134000 1135960 
2505.266 1114434 1076864 1034615 1002234 992238 1011201 1056703 1118952 
2509.123 1182538 1231614 1255007 1248992 1218123 1171342 1119815 1072214 
2512.981 1033154 1002998 980382 963711 952985 949432 954845 969821 993101 
2517.320 1022028 1052949 1083574 1113570 1144232 1177256 1212906 1249092 
2521.178 1280827 1301132 1304223 1286975 1250787 1201277 1147422 1099253 
2525.035 1064807 1049395 1053514 1075536 1110447 1152936 1198885 1244606 
2528.893 1287839 1326989 1360093 1384922 1399082 1400379 1387614 1361522 
2532.750 1325261 1283419 1242513 1209185 1188751 1184798 1198254 1227327 
2536.607 1267900 1315091 1363516 1408589 1447584 1478935 1502408 1518567 
2540.465 1527345 1528243 1520396 1502441 1474047 1435815 1391171 1344006 
2544.322 1299670 1263447 1238525 1226629 1226696 1235800 1249291 1262317 
2548.180 1270392 1270426 1261586 1244706 1223439 1202042 1185462 1176923 
2552.037 1177787 1185927 1197755 1209119 1217857 1224337 1232843 1249723 
2555.895 1280561 1328451 1392368 1466500 1543272 1615069 1677997 1731919 
2559.752 1780557 1827803 1876053 1923442 1963814 1988279 1989377 1962816 
2563.609 1910430 1839083 1759996 1684783 1623284 1581647 1561728 1562060 
2567.467 1578986 1607919 1643871 1682487 1719843 1753409 1781888 1805244 
2571.324 1824908 1843276 1862043 1882475 1904573 1927303 1949103 1969107 
2575.182 1986282 2000495 2011813 2019436 2021933 2018004 2006087 1986581 
2579.039 1961984 1937587 1919848 1916121 1932029 1970138 2029123 2103364 
2582.896 2184645 2263242 2330661 2381732 2415516 2435041 2445471 2452035 
2586.754 2457500 2460699 2457033 2441106 2409186 2362376 2306777 2253750 
2590.611 2215516 2200829 2212352 2244891 2287158 2325365 2348251 2350516 
2594.469 2335059 2309808 2286758 2276066 2283261 2308376 2346618 2390494 
2598.326 2432976 2469896 2500054 2524816 2546646 2567477 2587342 2605075 
2602.184 2618775 2627009 2630242 2630343 2630976 2636110 2648444 2668213 
2606.041 2693451 2719057 2740230 2752500 2754034 2745465 2730527 2714089 
2609.898 2700019 2690850 2686783 2686383 2687616 2689617 2691851 2695218 
2613.756 2700586 2707121 2712822 2715489 2712955 2705820 2696785 2691651 
2617.613 2695918 2713689 2744398 2783946 2824497 2857249 2875460 2876260 
2621.471 2861418 2836004 2807056 2780944 2761770 2751300 2749066 2753701 
2625.328 2763037 2776209 2792149 2810291 2830267 2851178 2871524 2890136 
2629.186 2905446 2916154 2921624 2921824 2917688 2911317 2905479 2902911 
2633.043 2905213 2912818 2924426 2937303 2948445 2955684 2958519 2958386 
2636.900 2957185 2957719 2961822 2969962 2981706 2996152 3012066 3028682 
2640.758 3045899 3062817 3078400 3091482 3100559 3105531 3107633 3109702 
2644.615 3114975 3126489 3145445 3170644 3198782 3225552 3246984 3260871 
2648.473 3266947 3266680 3262741 3257666 3253059 3249721 3248052 3247785 
2652.330 3249354 3253260 3260637 3272622 3290751 3315958 3349414 3391187 
2656.188 3440312 3494353 3549336 3600350 3642916 3674158 3693707 3703966 
2660.045 3709580 3715997 3726791 3743568 3764624 3786182 3803095 3811752 
2663.902 3810348 3799986 3783842 3766529 3753093 3746977 3750653 3764323 
2667.760 3787051 3816064 3847787 3878576 3904653 3923276 3932972 3933975 
2671.617 3927288 3915419 3900942 3886131 3872759 3862563 3856545 3855944 
2675.475 3861125 3871956 3886767 3902948 3917024 3925449 3926118 3918729 
2679.332 3905121 3889007 3874163 3863866 3859855 3862028 3868981 3878141 
2683.189 3887469 3895091 3899872 3901310 3898936 3892517 3882187 3867744 
2687.047 3850060 3830170 3809646 3789858 3772411 3758407 3748347 3742599 
2690.904 3740326 3740025 3739658 3736817 3729531 3716999 3700257 3681777 
2694.762 3665069 3653809 3650267 3655045 3666506 3682011 3698486 3713691 
2698.619 3726557 3736683 3744236 3748715 3749049 3744337 3734043 3719372 
2702.477 3703431 3690432 3684517 3688393 3702161 3723549 3748782 3774149 
2706.334 3797880 3820476 3844644 3874096 3911407 3956979 4008309 4060915 
2710.191 4108878 4147246 4172570 4184179 4183543 4174075 4160259 4146041 
2714.049 4135270 4130319 4131892 4139218 4150725 4164072 4177454 4190301 
2717.906 4203583 4219542 4241022 4270534 4309251 4356539 4410057 4466696 
2721.764 4523442 4577651 4627279 4671118 4707493 4734759 4750938 4754556 
2725.621 4745176 4724408 4695301 4662176 4629088 4599518 4574605 4554179 
2729.479 4536768 4520563 4503823 4486180 4467231 4446912 4424852 4399949 
2733.336 4371064 4337194 4298073 4254841 4209404 4164474 4122024 4083592 
2737.193 4048841 4016836 3985736 3954438 3922774 3892149 3865371 3844711 
2741.051 3832076 3826961 3826560 3825858 3819774 3803997 3777358 3742031 
2744.908 3703498 3668311 3642314 3628849 3627747 3635565 3647427 3658854 
2748.766 3667843 3674960 3682913 3695177 3714092 3739324 3767832 3794738 
2752.623 3814693 3823251 3819039 3802760 3778360 3751255 3727359 3712220 
2756.480 3709580 3720341 3742599 3771910 3801390 3823953 3834315 3829903 
2760.338 3812120 3785714 3757571 3733976 3719272 3714359 3716999 3723382 
2764.195 3729899 3734310 3737485 3741864 3750720 3766930 3791663 3824187 
2768.053 3862429 3904118 3947216 3990518 4033591 4076166 4117609 4156612 
2771.910 4191840 4221817 4246041 4265515 4282313 4299747 4321900 4351820 
2775.768 4391615 4441221 4499036 4561411 4624399 4684717 4740788 4792914 
2779.625 4843169 4894067 4947016 5001613 5055312 5104659 5146434 5179864 
2783.482 5207193 5233585 5265411 5307873 5363723 5431893 5508061 5586625 
2787.340 5662383 5732682 5797149 5857596 5916272 5975156 6034620 6094025 
2791.197 6152194 6208388 6262875 6317066 6373349 6433809 6500029 6572482 
2795.055 6650734 6733139 6817714 6902036 6984287 7063624 7140146 7215501 
2798.912 7291916 7370836 7453243 7537891 7621848 7702482 7777902 7849084 
2802.770 7920176 7997052 8085519 8189164 8307661 8436697 8569387 8699447 
2806.627 8822681 8938476 9049734 9161428 9278227 9403285 9537964 9681731 
2810.484 9833951 9993785 10160835 10335075 10515902 10701898 10891712 
2813.860 11083887 11278628 11476791 11679980 11889121 12104939 12326863 
2817.235 12554528 12789069 13033672 13292830 13571492 13873253 14198297 
2820.610 14544656 14908264 15286284 15678030 16085945 16514825 16969352 
2823.985 17452566 17966224 18510224 19086414 19699148 20355700 21065900 
2827.361 21839246 22681516 23594372 24575800 25623310 26735506 27915252 
2830.736 29169820 30509344 31944904 33486002 35140028 36912188 38805944 
2834.111 40824348 42970708 45248004 47659420 50208476 52898388 55732300 
2837.486 58710584 61828536 65074564 68428960 71864672 75356744 78884960 
2840.862 82441984 86038440 89700128 93462632 97359208 101412328 105618928 
2844.237 109950112 114356696 118780096 123163816 127459944 131632152 
2847.130 135647584 139472736 143071104 146394512 149389088 151998960 
2850.023 154166160 155842144 156989872 157586864 157627248 157121968 
2852.916 156097568 154590144 152649728 150334208 147704592 144828848 
2855.809 141772656 138594336 135348144 132076176 128813384 125590680 
2858.702 122435424 119376752 116445000 113667872 111071264 108675040 
2861.595 106491008 104524728 102776248 101241536 99914584 98787416 97850208 
2864.970 97088936 96486104 96018872 95659264 95377336 95139464 94912328 
2868.346 94665272 94367800 93994544 93523040 92934208 92214216 91354696 
2871.721 90353536 89216784 87959568 86605896 85185520 83735176 82293264 
2875.096 80895368 79575200 78358128 77262920 76300904 75477800 74796272 
2878.471 74258376 73867000 73627552 73547128 73632504 73888096 74313376 
2881.847 74901464 75639152 76509264 77492656 78571096 79731312 80964744 
2885.222 82268440 83644096 85095104 86623568 88227832 89899824 91625808 
2888.597 93388472 95168512 96950352 98724032 100485648 102238760 103991016 
2891.972 105751216 107524696 109311880 111105504 112893168 114659688 
2894.865 116392184 118082920 119731064 121341976 122925152 124490688 
2897.759 126046120 127595008 129137920 130674840 132208688 133747056 
2900.652 135302576 136891760 138528336 140220704 141968752 143764800 
2903.545 145595680 147448368 149313856 151190096 153082304 154999952 
2906.438 156956816 158967056 161044080 163199760 165443264 167778560 
2909.331 170204016 172711376 175286224 177910560 180568784 183248496 
2912.224 185944512 188657792 191390496 194141488 196901552 199649488 
2915.117 202354160 204977616 207476000 209808416 211931968 213804944 
2918.010 215388128 216645056 217545344 218067536 218198784 217930112 
2920.903 217252512 216152672 214617232 212639744 210232080 207431344 
2923.796 204299184 200911824 197339040 193635136 189829312 185931184 
2926.689 181942400 177868640 173726880 169548816 165369936 161224576 
2929.582 157138288 153122240 149178528 145304352 141495712 137752096 
2932.475 134075672 130468608 126935064 123479536 120108904 116834696 
2935.368 113672216 110639680 107754752 105030400 102473832 100086104 
2938.261 97864160 95803800 93902064 92158096 90574056 89152416 87896072 
2941.637 86806520 85883968 85126704 84532480 84097464 83817152 83685160 
2945.012 83694000 83833832 84093288 84460232 84920736 85461200 86066600 
2948.387 86719408 87401528 88090552 88760520 89384784 89933848 90378784 
2951.762 90694728 90860440 90862120 90694768 90361200 89869496 89230008 
2955.138 88451872 87540000 86497360 85327736 84039000 82646576 81171128 
2958.513 79632680 78044568 76408832 74715664 72949080 71094952 69147568 
2961.888 67114200 65011980 62864132 60691180 58506228 56313308 54113136 
2965.263 51908700 49710908 47539740 45420168 43375256 41418724 39551056 
2968.639 37760272 36028496 34337596 32675042 31037230 29431098 27872040 
2972.014 26379186 24973422 23669838 22474686 21382174 20378166 19441442 
2975.389 18549264 17683624 16831072 15984522 15141026 14300399 13462829 
2978.764 12630181 11807877 11006667 10245232 9548396 8939626 8435379 8037384 
2982.622 7731892 7492515 7288714 7093901 6889244 6667153 6428866 6182139 
2986.479 5936425 5699948 5477458 5269604 5074286 4888471 4709837 4538241 
2990.337 4375783 4227706 4099914 3996972 3919698 3863499 3818705 3773280 
2994.194 3716130 3641980 3553211 3459416 3373155 3305574 3260504 3232629 
2998.052 3208829 3174015 3116477 3032019 2926161 2810624 2699219 2600642 
3001.909 2516417 2440006 2362443 2276033 2179383 2078194 1983286 1904406 
3005.766 1846470 1805909 1772772 1734780 1681922 1611744 1529207 1445656 
3009.624 1373820 1324995 1304290 1309474 1332938 1364713 1395027 1416800 
3013.481 1427272 1427172 1419692 1410484 1404733 1406994 1419692 1442165 
3017.339 1470856 1500080 1522756 1532732 1525317 1498983 1454698 1397520 
3021.196 1334334 1273317 1222908 1189582 1176724 1183934 1206627 1237860 
3025.053 1269263 1293555 1305785 1304356 1290431 1267767 1240286 1211445 
3028.911 1183834 1159182 1139116 1126426 1124101 1135396 1162637 1204866 
3032.768 1258496 1316653 1372025 1417930 1450576 1469226 1477039 1478702 
3036.626 1479034 1481295 1485850 1489973 1489274 1479200 1457059 1422784 
3040.483 1380501 1336960 1300434 1278302 1274480 1288903 1317218 1352215 
3044.341 1386318 1413842 1432690 1444093 1452404 1462577 1478602 1502009 
3048.198 1531668 1563856 1594317 1618961 1634991 1640911 1636421 1622120 
3052.055 1599239 1569775 1536655 1503472 1474978 1455795 1449811 1458555 
3055.913 1481195 1514344 1552384 1589296 1618827 1637219 1642308 1634758 
3059.770 1617032 1593885 1569077 1547196 1531368 1522690 1520894 1524652 
3063.628 1531235 1537653 1541643 1541410 1536589 1527844 1517569 1508259 
3067.485 1502940 1503738 1511485 1524984 1541310 1556607 1566649 1568279 
3071.343 1559566 1540845 1513480 1479899 1441999 1402174 1362120 1324529 
3075.200 1292658 1270359 1261420 1268233 1290365 1324131 1363782 1402340 
3079.057 1433388 1454133 1464506 1467199 1465869 1463940 1462079 1459352 
3082.915 1453601 1442597 1426141 1406163 1386152 1370297 1362187 1362552 
3086.772 1370197 1381764 1392900 1399681 1399681 1392301 1378640 1361356 
3090.630 1343075 1326224 1312498 1302528 1296413 1293854 1294320 1297909 
3094.487 1304655 1314127 1325227 1335663 1342543 1342377 1332672 1312299 
3098.344 1282821 1247331 1210182 1175295 1145960 1122971 1105963 1093905 
3102.202 1086497 1084770 1090982 1107391 1134698 1170910 1211511 1248893 
3106.059 1275577 1285314 1275577 1247464 1206162 1159315 1114567 1078592 
3109.917 1055906 1048000 1054411 1073277 1101445 1135562 1171707 1206427 
3113.774 1235734 1257001 1268532 1270459 1264743 1255472 1246799 1243044 
3117.632 1246035 1255040 1267169 1277371 1280694 1274580 1258895 1237495 
3121.489 1216462 1203337 1203138 1218256 1246400 1282123 1317949 1346565 
3125.346 1363283 1366275 1356769 1338123 1314792 1290797 1269229 1251983 
3129.204 1240020 1233641 1232145 1234870 1240585 1247298 1253910 1259360 
3133.061 1262982 1265142 1265807 1264843 1261819 1255339 1244739 1229587 
3136.919 1211245 1191908 1175295 1164664 1163136 1171442 1189515 1214535 
3140.776 1243177 1271057 1294486 1310272 1316719 1313595 1302528 1286344 
3144.634 1268930 1253445 1242645 1237362 1237229 1240718 1246301 1252913 
3148.491 1260290 1268399 1276441 1283054 1285613 1280993 1267036 1243775 
3152.348 1213505 1181077 1152039 1130811 1119151 1116095 1117955 1119948 
3156.206 1118785 1113171 1104468 1096064 1091879 1094935 1105730 1122938 
3160.063 1143236 1162704 1177455 1184931 1183668 1173501 1155096 1130080 
3163.921 1100183 1067830 1035678 1006551 983138 967829 961885 965770 977991 
3168.260 996123 1016382 1034615 1047635 1052883 1050359 1042122 1031360 
3172.118 1021596 1015983 1016116 1021397 1030264 1040328 1049495 1056968 
3175.975 1062814 1067232 1070919 1073476 1073742 1070155 1061552 1047535 
3179.833 1029202 1008577 988618 972312 962184 959959 965837 979518 999145 
3184.172 1022028 1045244 1065571 1080551 1088756 1090483 1086896 1080219 
3188.030 1072181 1063379 1053315 1040660 1023423 1000673 972976 942060 
3191.887 911346 883921 862274 847533 839400 836412 837175 840429 846404 
3196.227 855800 869611 888336 911147 935618 958564 976164 985330 984533 
3200.566 974603 957867 938076 918817 902846 890959 882194 874359 865361 
3204.906 854339 842288 831565 825523 826685 835250 849226 863602 872997 
3209.245 872234 858389 831299 794120 751533 709216 672445 645300 630136 
3213.585 627448 635578 651539 670686 687744 697932 697534 684823 660465 
3217.925 626983 588594 549444 513417 482931 459281 442664 432846 428899 
3222.264 429530 433277 438352 443261 447241 450790 455434 463262 475866 
3226.604 492850 511725 528411 538231 538032 527748 511194 494243 483628 
3230.943 484590 498555 522937 552297 580797 603292 617162 622736 622073 
3235.283 616896 608269 595628 577977 554686 526719 496764 468934 447440 
3239.623 434637 430326 431951 435367 435997 431354 420442 404954 387675 
3243.962 371160 357796 348477 342310 338795 337037 337302 340353 348113 
3248.302 361974 382170 408602 439646 472317 503763 530169 548748 556776 
3252.641 553027 537302 511128 477326 440342 404987 376433 358757 354513 
3256.981 363864 385221 414339 446744 477027 500977 516137 521511 518194 
3261.321 507844 493314 476198 458319 440375 422963 406877 394043 386249 
3265.660 386249 396231 416893 447175 484092 522639 556876 581394 592177 
3270.000 587996 571076 545828 518990 496797 484457 484092 494740 512056 
3274.339 530169 543506 547819 541847 528179 510730 495039 485287 484092 
3278.679 490959 503697 518791 533155 544733 552496 557241 559862 561089 
3283.019 561222 559198 554056 544733 530866 513118 492916 472682 454472 
3287.358 440475 431719 428568 429994 434272 439148 442498 442498 438418 
3291.698 430491 419513 407109 395071 383894 374145 365423 357464 349704 
3296.037 342542 336208 331864 330273 332395 338264 348245 361410 376433 
3300.377 391688 405020 414373 418651 417955 413610 408569 405783 407607 
3304.717 414671 425019 435467 440840 438153 426180 406977 385420 367711 
3309.056 359520 363798 380114 404722 432117 455898 471521 476861 471886 
3313.396 459215 442465 425914 413013 406280 407275 415600 429629 446511 
3317.735 463394 476231 482169 479117 466413 444820 416694 385917 357564 
3322.075 337435 331334 342906 373680 421039 479581 540056 592973 630302 
3326.415 646694 641650 618323 582655 541184 499650 462067 430724 406844 
3330.754 391456 384922 387178 396696 409928 421934 427341 422100 405186 
3335.094 379484 351362 328714 318833 326260 351263 390395 436826 483495 
3339.433 523800 553359 569981 573929 567260 552795 533951 514777 497759 
3343.773 485618 479349 478752 482135 487078 490926 491589 488206 481671 
3348.113 474108 468204 466778 471289 481638 495868 510696 522672 528511 
3352.452 527350 519819 508374 495935 485419 478254 474373 472947 473179 
3356.792 474904 479349 488172 502038 520085 538961 553525 558269 549909 
3361.131 528411 497792 464290 434936 414306 403494 399913 398918 396198 
3365.471 389565 380213 371624 368308 372851 385287 402632 420309 434007 
3369.811 441304 441967 439115 436064 435865 440674 450193 463295 477392 
3374.150 490594 501375 508905 513549 515308 514876 512488 508374 501839 
3378.490 492385 478885 460210 435765 406380 373912 341945 314522 295689 
3382.829 287566 290616 302188 317838 332594 341613 341945 333522 318965 
3387.169 303050 291146 288328 297579 319828 352755 392451 434107 472383 
3391.509 503398 524828 535676 536605 529174 515341 497527 478487 461338 
3395.848 448866 443294 445649 453941 464555 472582 472914 462532 441868 
3400.188 413875 384160 358160 340453 332395 332362 336971 341348 342940 
3404.527 340055 333522 325365 317407 310941 305603 299900 292075 281598 
3408.867 269065 257428 250698 252753 266479 291843 325862 362206 392749 
3413.207 411056 412549 397624 371492 343338 323342 319960 337800 375935 
3417.546 428402 485851 538529 577346 596457 594267 572071 534084 485187 
3421.886 431453 378157 330472 292804 268634 259583 265285 283255 308720 
3426.225 335412 357331 369038 367744 353054 327786 297446 268634 248045 
3430.565 240818 248045 266744 290483 310543 319032 312069 290550 260843 
3434.905 231834 212805 209689 222784 247150 274933 298010 311074 313959 
3439.244 311140 309615 316810 337269 371691 416363 464655 508208 540122 
3443.584 554686 549544 525193 485088 434770 382734 338264 308653 298640 
3447.923 307294 329046 355541 378555 391821 392981 383530 367976 351760 
3452.263 340187 335678 338198 345758 354712 361377 363599 359819 351031 
3456.603 338894 326592 317009 313030 316247 326161 340552 355441 366550 
3460.942 369535 362670 346421 324437 301160 281830 270656 269264 277718 
3465.282 293302 312831 332196 347317 355740 356171 348909 336540 323110 
3469.621 313196 311041 319794 340121 369999 405484 441503 472649 495039 
3473.961 506450 506318 496266 478321 455931 431951 409099 389433 374178 
3478.301 363035 354745 347284 337700 324238 306697 286405 266678 251195 
3482.640 242841 242907 250897 264987 283521 305039 329510 356502 384823 
3486.980 411852 431851 437689 423394 385652 326393 252786 176441 111013 
3491.319 67565 52885 67035 104351 153968 203722 243470 266810 272414 264224 
3496.141 249372 235713 230309 237967 259981 295059 339491 387443 431619 
3500.481 464522 478785 469298 435035 379484 311339 241945 182573 141008 
3504.820 120061 117111 126590 141140 154166 161624 162221 157647 151581 
3509.160 149261 154200 168486 191059 218971 247581 272314 289621 297546 
3513.500 295987 286869 273574 260047 249769 245227 247416 255803 268601 
3517.839 283123 296584 307095 313163 315285 315418 315351 317241 322513 
3522.179 330140 337734 341481 337568 324205 302088 274834 247681 226265 
3526.518 214761 214894 226032 244929 267109 288693 305603 314920 313992 
3530.858 300596 273242 232895 182938 129838 82213 49206 37840 51692 88576 
3535.680 141969 201998 258920 306399 341945 367081 384392 396563 404523 
3540.019 407010 402002 387045 361178 323939 277022 223049 166729 113631 
3544.359 70746 44600 40127 57623 92718 137030 180452 215723 239393 253151 
3549.181 261042 268535 278282 290351 300729 303779 294595 272414 240918 
3553.520 207336 179159 161127 154365 157017 165734 178297 194308 214960 
3557.860 242177 275464 311803 344896 367578 374078 363267 338861 308852 
3562.199 282194 265186 260942 267573 280437 292904 299767 297944 288196 
3566.539 274436 262003 254709 253715 257759 264523 272911 282493 293036 
3570.879 304310 315252 324105 328880 327388 318501 302221 280006 254212 
3575.218 227955 204452 186054 174750 172132 178430 194076 218772 251129 
3579.558 288627 327985 364262 392716 409431 412117 401339 380412 355110 
3583.897 332428 319264 321054 339922 373747 414439 450060 467209 457291 
3588.237 420608 365456 302552 241249 187612 143692 108759 80357 54972 29390 
3593.059 1954 -26572 -52282 -69774 -74379 -64341 -42045 -12789 16368 39961 
3597.881 55735 64914 71674 81451 98883 124800 156686 189568 218109 238763 
3602.702 250996 255836 255737 252488 246753 238929 229944 222187 220397 
3607.042 230773 257859 301690 356436 410161 451055 470658 465384 436395 
3611.382 388968 330637 269463 214164 171635 145217 134975 138058 149725 
3615.721 164342 176275 179358 167624 137859 91061 34493 -19946 -58643 -73087 
3620.543 -61558 -28626 17163 66505 110814 142499 155525 145383 109654 48676 
3625.365 -34259 -134536 -244394 -354488 -452309 -520919 -543356 -512910 
3629.222 -441022 -352171 -269064 -203925 -158716 -132217 -122479 -127911 
3633.080 -147222 -177495 -214191 -250917 -281349 -300521 -305818 -297574 
3636.937 -278965 -255686 -234360 -221742 -222703 -238896 -269296 -310090 
3640.794 -357865 -408747 -460252 -511685 -563840 -617874 -675210 -737070 
3644.652 -804510 -878719 -960751 -1051725 -1150710 -1253208 -1350396 
3648.027 -1427319 -1468599 -1462357 -1407669 -1316340 -1210024 -1110623 
3651.402 -1031528 -977612 -946402 -933310 -934963 -949378 -977281 -1019496 
3655.260 -1075259 -1139606 -1202821 -1253340 -1283536 -1290936 -1278680 
3658.635 -1253439 -1223670 -1197171 -1182301 -1185936 -1211114 -1257569 
3662.010 -1320502 -1390593 -1456281 -1507563 -1537379 -1544906 -1534902 
3665.385 -1516941 -1501752 -1497558 -1509313 -1535430 -1570361 -1603969 
3668.761 -1626680 -1633447 -1626746 -1615655 -1609052 -1609977 -1614763 
3672.136 -1616249 -1606940 -1581553 -1535364 -1468368 -1384549 -1297180 
3675.511 -1223968 -1178270 -1162540 -1173082 -1206257 -1260972 -1336094 
3678.886 -1426031 -1518393 -1596244 -1640049 -1637936 -1586967 -1495379 
3682.262 -1376490 -1247096 -1122785 -1013348 -924019 -854084 -798524 -751558 
3686.119 -707597 -663532 -618767 -576811 -544051 -530019 -543786 -591702 
3689.977 -675144 -789793 -926928 -1075226 -1223142 -1360801 -1482039 
3693.352 -1584491 -1668337 -1734874 -1784440 -1815886 -1827006 -1815820 
3696.727 -1781800 -1727251 -1656916 -1577096 -1493530 -1412689 -1340751 
3700.102 -1284692 -1251754 -1247657 -1273229 -1322253 -1384285 -1446308 
3703.478 -1498186 -1535332 -1558344 -1571550 -1581487 -1594791 -1615655 
3706.853 -1645463 -1682002 -1720815 -1757051 -1787113 -1810112 -1826643 
3710.228 -1839280 -1847429 -1849343 -1840665 -1818658 -1783450 -1739065 
3713.603 -1689395 -1637936 -1585349 -1530313 -1471141 -1407272 -1340751 
3716.979 -1277094 -1224034 -1188976 -1175593 -1182169 -1199847 -1217062 
3720.354 -1221820 -1205167 -1164358 -1102988 -1029049 -949808 -869923 
3723.729 -789793 -706637 -618172 -525949 -436387 -360017 -306183 -279793 
3727.586 -278402 -295057 -320288 -345914 -366374 -378689 -381271 -374716 
3731.444 -359454 -336743 -307871 -274197 -236943 -198394 -160935 -126917 
3735.301 -98993 -78586 -65070 -57351 -53938 -53574 -55562 -58543 -61094 
3739.641 -60995 -56324 -46087 -30548 -11232 9145 26905 38636 42181 39265 
3744.463 35289 38271 52288 77209 110250 148731 190032 231237 268468 296816 
3749.284 311041 308023 289124 260511 231005 208628 196893 194871 199280 
3753.624 206142 212905 218673 223546 228254 233724 239956 246786 254311 
3757.964 262965 275099 294197 322646 360382 403826 445881 478752 497029 
3762.303 497693 481273 451553 415467 381109 356701 347118 350964 362206 
3766.643 372752 376300 370629 357796 342906 333721 336374 353684 383331 
3770.982 419513 456495 490030 518923 543771 565966 587067 608137 629605 
3775.322 651472 673872 696870 720600 744729 767698 785921 794219 786917 
3779.662 761159 717812 662191 602164 546226 501574 474473 468536 484092 
3784.001 516867 558899 599543 630567 647125 650643 645997 639261 636308 
3788.341 639526 648785 660996 672014 679215 680907 677987 673242 669292 
3792.680 667401 667202 666671 662523 651738 632293 604487 570545 534316 
3797.020 499318 467673 440044 417192 401173 396265 409000 445218 505223 
3801.360 577578 641451 678253 680177 651041 600439 539790 479183 429132 
3805.699 399084 395137 416993 456760 502171 542544 573531 595959 612583 
3810.039 626718 639195 648785 653298 649647 635810 611820 579470 543904 
3814.378 511957 492883 494641 519819 562284 610691 653696 683695 698098 
3818.718 696538 679912 650211 611786 571640 538364 518028 511957 517729 
3823.058 532160 553293 580000 610725 643210 672578 692921 699160 689403 
3827.397 666372 636772 608900 589954 585044 596457 622670 659735 700853 
3831.737 739485 770220 791132 802252 805306 802086 793987 782004 767664 
3836.076 752396 738423 727238 718841 710610 699260 680310 652402 617394 
3840.416 579635 544567 517829 503531 504062 519189 546392 581361 618887 
3844.756 654492 684923 709116 726806 738987 746687 750969 752662 752396 
3849.095 750006 745127 736630 722890 701848 671549 630965 583484 537501 
3853.435 505289 495205 506782 534416 572469 616664 664846 714725 763980 
3857.774 809887 849193 879638 898895 905502 899061 880368 851650 816958 
3862.114 781440 749741 724616 705798 690399 672910 649183 617626 580564 
3866.454 542444 508374 483396 471123 473179 487741 508607 525790 531496 
3870.793 525027 512056 501209 500214 515208 547951 596059 651837 706163 
3875.133 751799 785456 808825 825324 838204 849658 860581 870408 877347 
3879.472 879671 875687 865494 850820 834420 820079 811846 812975 827382 
3883.812 857526 903078 958431 1011832 1048532 1057666 1037472 993666 934954 
3888.152 869312 802950 740646 685421 640621 607705 587200 577114 574261 
3892.491 576019 580399 587399 598083 614142 636241 664945 698961 735469 
3896.831 769756 796211 809522 806070 785556 751765 711971 673607 642281 
3901.170 619750 604785 594367 586072 579768 578076 584844 603889 636109 
3905.510 679480 729528 780610 827349 864797 888934 898463 892985 875322 
3909.850 849459 821141 795182 775498 763150 757408 755682 755549 755450 
3914.189 756113 759167 767133 780942 799663 819249 834586 841192 838271 
3918.529 827880 815066 805041 802186 808029 821539 840030 860680 880766 
3922.868 898596 912408 920809 922104 914334 897334 872367 841889 809622 
3927.208 778352 750471 726740 706959 690200 675764 663983 656185 653497 
3931.548 657213 666970 680675 696074 711241 726209 742074 761026 783962 
3935.887 810684 839167 866490 889565 906930 918618 926454 932464 938076 
3940.227 942990 946244 946045 941961 935452 928944 924727 923366 922170 
3944.566 917057 904141 881298 849658 813771 780477 756047 744297 744762 
3948.906 752728 761988 767332 767000 762685 757673 755184 756678 760794 
3953.246 764511 764279 757939 744994 727138 707225 688474 673640 664182 
3957.585 661262 665410 676660 694481 717546 743468 768992 790800 806767 
3961.925 817025 823133 828013 834818 844977 858157 872964 886710 896969 
3966.264 902580 902514 896537 884751 867021 843417 814966 784394 754885 
3970.604 730689 715289 709946 713796 723653 735767 746256 752827 755350 
3974.944 755118 754089 754022 755715 758935 762951 767432 772411 778651 
3979.283 787016 798501 813771 832362 853443 875255 895873 912608 922934 
3983.623 924893 917787 902580 882493 861709 844977 835349 833690 837873 
3987.962 843981 847865 846736 840960 834022 831565 838935 859087 891723 
3992.302 932232 973906 1009573 1033054 1040494 1031394 1007680 973275 932962 
3996.642 892387 856829 831399 819780 823631 842354 872367 908457 943920 
##END=
